LAMMPS data file. msi2lmp v3.9.11 / 6 Sep 2024 / CGCMM for silica_Q4_0_0OH

   2016 atoms
   2688 bonds
   5376 angles
   8064 dihedrals
      0 impropers

   2 atom types
   1 bond types
   2 angle types
   1 dihedral types

     0.258309440    33.625809440 xlo xhi
    -0.544579854    34.297420146 ylo yhi
   -20.482324676    46.376075324 zlo zhi

Masses

   1  15.999400 # oc23
   2  28.086000 # sc4

Pair Coeffs # lj/cut/coul/long

   1   0.0540006496   3.0914157928 # oc23
   2   0.0930001390   3.6972284612 # sc4

Bond Coeffs # harmonic

   1   285.0000     1.6800 # oc23-sc4

Angle Coeffs # harmonic

   1   100.0000   149.0000 # sc4-oc23-sc4
   2   100.0000   109.5000 # oc23-sc4-oc23

Dihedral Coeffs # harmonic

  1     0.0000   1   2 # sc4-oc23-sc4-oc23

Atoms # full

      1      1   1 -0.550000     3.313132295     0.105582363    11.445985680   0   0   0 # oc23
      2      1   1 -0.550000     9.103746526     0.495843556     3.892693440   0   0   0 # oc23
      3      1   1 -0.550000     6.505206236    34.193125027     6.901082923   0  -1   0 # oc23
      4      1   1 -0.550000     2.024782259     3.884345171     7.781964073   0   0   0 # oc23
      5      1   1 -0.550000     7.742109256     3.907208520    10.748840293   0   0   0 # oc23
      6      1   1 -0.550000     4.374935096     4.171625692     2.154661909   0   0   0 # oc23
      7      1   1 -0.550000     5.317093329     3.387752672    11.562758111   0   0   0 # oc23
      8      1   1 -0.550000     2.555909224     3.499767220     3.892302889   0   0   0 # oc23
      9      1   1 -0.550000     8.099841345     2.484253289     7.730988108   0   0   0 # oc23
     10      1   1 -0.550000     3.319245325     0.779973010     8.888411617   0   0   0 # oc23
     11      1   1 -0.550000     5.774123064     0.004597702     4.422742326   0   0   0 # oc23
     12      1   1 -0.550000     3.018030345     2.616012290    10.672959942   0   0   0 # oc23
     13      1   1 -0.550000     5.816588630     1.842410423     6.501076775   0   0   0 # oc23
     14      1   1 -0.550000     1.935810877     1.408462477     6.762601390   0   0   0 # oc23
     15      1   1 -0.550000     6.920558145     1.417238209    10.915345301   0   0   0 # oc23
     16      1   1 -0.550000     4.388738053     1.703012444     3.171855913   0   0   0 # oc23
     17      1   1 -0.550000     7.026569281     0.985431348     2.202848563   0   0   0 # oc23
     18      1   1 -0.550000     1.095518732     0.896024187    10.264335603   0   0   0 # oc23
     19      1   1 -0.550000     4.060545782    -0.093227709     6.478363841   0   0   0 # oc23
     20      1   1 -0.550000     0.735123586     3.600602097     5.749525824   0   0   0 # oc23
     21      1   1 -0.550000     5.961957062     2.916360475     9.029757111   0   0   0 # oc23
     22      1   1 -0.550000     1.816074863     2.121859617     1.976135927   0   0   0 # oc23
     23      1   2  1.100000     8.644870858     1.553461621     2.752986216   0   0   0 # sc4
     24      1   2  1.100000     2.694297514     1.095347445    10.326928285   0   0   0 # sc4
     25      1   2  1.100000     5.552387400     0.301086922     6.043260452   0   0   0 # sc4
     26      1   2  1.100000     1.146609106     2.796333091     7.036886159   0   0   0 # sc4
     27      1   2  1.100000     6.477704679     2.916139393    10.561211766   0   0   0 # sc4
     28      1   2  1.100000     3.328321447     2.840786472     2.646415932   0   0   0 # sc4
     29      1   2  1.100000     3.733540652     3.550985054    11.735481511   0   0   0 # sc4
     30      1   2  1.100000     1.037194864     3.922835490     4.255562473   0   0   0 # sc4
     31      1   2  1.100000     6.567768691     2.862469696     7.542142317   0   0   0 # sc4
     32      1   2  1.100000     2.842333928     0.257829516     7.466491337   0   0   0 # sc4
     33      1   2  1.100000     8.169081783     0.436288145    11.146908521   0   0   0 # sc4
     34      1   2  1.100000     5.422993326     0.452454234     2.872130327   0   0   0 # sc4
     35      2   1 -0.550000     3.431018931     0.419821695    22.407792592   0   0   0 # oc23
     36      2   1 -0.550000     8.868066968     0.097785001    15.208869207   0   0   0 # oc23
     37      2   1 -0.550000     6.028457406    34.181920309    19.392316065   0  -1   0 # oc23
     38      2   1 -0.550000     1.579366672     3.869060895    19.119021167   0   0   0 # oc23
     39      2   1 -0.550000     7.450511427     4.155783581    22.717575103   0   0   0 # oc23
     40      2   1 -0.550000     4.954804373     3.885420424    14.985711613   0   0   0 # oc23
     41      2   1 -0.550000     4.815744328     3.434829019    23.687893442   0   0   0 # oc23
     42      2   1 -0.550000     2.432378948     3.359563104    15.622022519   0   0   0 # oc23
     43      2   1 -0.550000     7.793664503     2.367467362    19.409247079   0   0   0 # oc23
     44      2   1 -0.550000     2.776434497     1.089200553    20.132458380   0   0   0 # oc23
     45      2   1 -0.550000     8.590337789     0.531990529    12.691780059   0   0   0 # oc23
     46      2   1 -0.550000     5.900315604     0.409403567    16.860683515   0   0   0 # oc23
     47      2   1 -0.550000     2.746528922     2.965522484    21.990443654   0   0   0 # oc23
     48      2   1 -0.550000     5.349359874     1.822990554    18.982634565   0   0   0 # oc23
     49      2   1 -0.550000     1.478445428     1.372788634    18.102885220   0   0   0 # oc23
     50      2   1 -0.550000     7.471708962     1.648749367    23.731897331   0   0   0 # oc23
     51      2   1 -0.550000     4.134887439     1.401397258    15.123290574   0   0   0 # oc23
     52      2   1 -0.550000     6.563733985     0.870402638    14.325750208   0   0   0 # oc23
     53      2   1 -0.550000     0.947965940     0.982908775    21.987764568   0   0   0 # oc23
     54      2   1 -0.550000     3.751439169    -0.009185308    18.151689636   0   0   0 # oc23
     55      2   1 -0.550000    33.566300789     3.250959380    16.991682769  -1   0   0 # oc23
     56      2   1 -0.550000     6.073228346     2.459224478    21.463661776   0   0   0 # oc23
     57      2   1 -0.550000     3.282158483     3.037690385    13.194319135   0   0   0 # oc23
     58      2   2  1.100000     8.145563322     1.034133821    14.152170815   0   0   0 # sc4
     59      2   2  1.100000     2.467554106     1.409938294    21.625507354   0   0   0 # sc4
     60      2   2  1.100000     5.285108652     0.359213408    18.343500826   0   0   0 # sc4
     61      2   2  1.100000     0.664848800     2.726759786    18.416149350   0   0   0 # sc4
     62      2   2  1.100000     6.420453691     2.902321915    23.014686154   0   0   0 # sc4
     63      2   2  1.100000     3.703625479     2.914740420    14.739060568   0   0   0 # sc4
     64      2   2  1.100000     3.201473556     4.013044190    23.139091659   0   0   0 # sc4
     65      2   2  1.100000     0.833784871     3.562034874    15.554550424   0   0   0 # sc4
     66      2   2  1.100000     6.301729467     2.765934562    19.847239201   0   0   0 # sc4
     67      2   2  1.100000     2.365621211     0.288693349    18.844756874   0   0   0 # sc4
     68      2   2  1.100000     8.521506789     0.316528969    23.240450845   0   0   0 # sc4
     69      2   2  1.100000     5.396149003     0.408251746    15.326159630   0   0   0 # sc4
     70      3   1 -0.550000     1.679336674     4.572946468    23.905520305   0   0   0 # oc23
     71      3   1 -0.550000     1.688519289     9.559041326    23.912411549   0   0   0 # oc23
     72      3   1 -0.550000     1.698319010    14.537824354    23.902737141   0   0   0 # oc23
     73      3   1 -0.550000     1.689070863    19.520226013    23.898116771   0   0   0 # oc23
     74      3   1 -0.550000     1.688586801    24.494092255    23.900847657   0   0   0 # oc23
     75      3   1 -0.550000     1.695119888    29.476394405    23.910109275   0   0   0 # oc23
     76      3   1 -0.550000     1.690752654    -0.387837182    23.907225872   0   1   0 # oc23
     77      3   1 -0.550000    10.026997347     4.569304449    23.913391718   0   0   0 # oc23
     78      3   1 -0.550000    10.032075756     9.559017446    23.907544375   0   0   0 # oc23
     79      3   1 -0.550000    10.024670272    14.547946771    23.906028954   0   0   0 # oc23
     80      3   1 -0.550000    10.032220974    19.514959427    23.899020663   0   0   0 # oc23
     81      3   1 -0.550000    10.032585027    24.488620881    23.907266041   0   0   0 # oc23
     82      3   1 -0.550000    10.036947526    29.468921379    23.905528022   0   0   0 # oc23
     83      3   1 -0.550000    10.035765500    -0.402700233    23.910387246   0   1   0 # oc23
     84      3   1 -0.550000    18.376324946     4.590185004    23.910024453   0   0   0 # oc23
     85      3   1 -0.550000    18.368293003     9.576038227    23.921689161   0   0   0 # oc23
     86      3   1 -0.550000    18.370633469    14.552570568    23.918122366   0   0   0 # oc23
     87      3   1 -0.550000    18.378362423    19.529879946    23.914024920   0   0   0 # oc23
     88      3   1 -0.550000    18.386585088    24.506225500    23.912036349   0   0   0 # oc23
     89      3   1 -0.550000    18.386995480    29.471352040    23.906676149   0   0   0 # oc23
     90      3   1 -0.550000    18.386529968    -0.383633065    23.912144850   0   1   0 # oc23
     91      3   1 -0.550000    26.715224541     4.592157375    23.906023946   0   0   0 # oc23
     92      3   1 -0.550000    26.712590675     9.567788780    23.907693924   0   0   0 # oc23
     93      3   1 -0.550000    26.715748084    14.552453834    23.912335399   0   0   0 # oc23
     94      3   1 -0.550000    26.729467209    19.523112194    23.904063425   0   0   0 # oc23
     95      3   1 -0.550000    26.719934517    24.501148149    23.906916327   0   0   0 # oc23
     96      3   1 -0.550000    26.727732729    29.487760372    23.897600281   0   0   0 # oc23
     97      3   1 -0.550000    26.716528439    -0.391647286    23.900641343   0   1   0 # oc23
     98      4   1 -0.550000     3.305817400     5.083341605    11.454108523   0   0   0 # oc23
     99      4   1 -0.550000     9.097437838     5.474660543     3.902160727   0   0   0 # oc23
    100      4   1 -0.550000     6.504400104     4.325693276     6.901001565   0   0   0 # oc23
    101      4   1 -0.550000     2.035296608     8.863849199     7.785757478   0   0   0 # oc23
    102      4   1 -0.550000     7.745306458     8.872205499    10.739187269   0   0   0 # oc23
    103      4   1 -0.550000     4.382231095     9.143465252     2.160020862   0   0   0 # oc23
    104      4   1 -0.550000     5.320109091     8.358837973    11.560119851   0   0   0 # oc23
    105      4   1 -0.550000     2.562376207     8.475297062     3.895578689   0   0   0 # oc23
    106      4   1 -0.550000     8.105257003     7.459945948     7.734964793   0   0   0 # oc23
    107      4   1 -0.550000     3.319701164     5.751056597     8.894168852   0   0   0 # oc23
    108      4   1 -0.550000     5.774406595     4.969725446     4.422609626   0   0   0 # oc23
    109      4   1 -0.550000     3.018450453     7.591263997    10.673845152   0   0   0 # oc23
    110      4   1 -0.550000     5.831072786     6.815885825     6.490214427   0   0   0 # oc23
    111      4   1 -0.550000     1.933630200     6.385978278     6.769554369   0   0   0 # oc23
    112      4   1 -0.550000     6.925021357     6.389360395    10.924741722   0   0   0 # oc23
    113      4   1 -0.550000     4.394137289     6.675063085     3.176089426   0   0   0 # oc23
    114      4   1 -0.550000     7.027626384     5.953761281     2.202340423   0   0   0 # oc23
    115      4   1 -0.550000     1.093335615     5.873201609    10.263538358   0   0   0 # oc23
    116      4   1 -0.550000     4.060585593     4.889320607     6.479436341   0   0   0 # oc23
    117      4   1 -0.550000     0.741621081     8.583154071     5.753487927   0   0   0 # oc23
    118      4   1 -0.550000     5.963341500     7.875846046     9.028626233   0   0   0 # oc23
    119      4   1 -0.550000     1.818732952     7.094602315     1.982573136   0   0   0 # oc23
    120      4   2  1.100000     8.641677623     6.525231465     2.754589726   0   0   0 # sc4
    121      4   2  1.100000     2.691645796     6.070771056    10.330114094   0   0   0 # sc4
    122      4   2  1.100000     5.554404683     5.274511093     6.041168799   0   0   0 # sc4
    123      4   2  1.100000     1.150547798     7.778875508     7.040383285   0   0   0 # sc4
    124      4   2  1.100000     6.479323983     7.883428857    10.559346310   0   0   0 # sc4
    125      4   2  1.100000     3.333420991     7.813341150     2.651553832   0   0   0 # sc4
    126      4   2  1.100000     3.737858655     8.521916356    11.735849807   0   0   0 # sc4
    127      4   2  1.100000     1.043717571     8.901649538     4.259933757   0   0   0 # sc4
    128      4   2  1.100000     6.573678190     7.831973503     7.542743128   0   0   0 # sc4
    129      4   2  1.100000     2.842792608     5.235715440     7.470115833   0   0   0 # sc4
    130      4   2  1.100000     8.176106316     5.412814640    11.157235782   0   0   0 # sc4
    131      4   2  1.100000     5.424670898     5.421257677     2.873622727   0   0   0 # sc4
    132      5   1 -0.550000     3.421750003     5.394793170    22.412675339   0   0   0 # oc23
    133      5   1 -0.550000     8.876978594     5.067670813    15.218567074   0   0   0 # oc23
    134      5   1 -0.550000     6.036167435     4.309673450    19.396340706   0   0   0 # oc23
    135      5   1 -0.550000     1.586205425     8.844703818    19.115736058   0   0   0 # oc23
    136      5   1 -0.550000     7.458556728     9.129349756    22.718341801   0   0   0 # oc23
    137      5   1 -0.550000     4.957811117     8.858098198    14.977513387   0   0   0 # oc23
    138      5   1 -0.550000     4.820996461     8.413161115    23.691683351   0   0   0 # oc23
    139      5   1 -0.550000     2.434852864     8.335927992    15.617007184   0   0   0 # oc23
    140      5   1 -0.550000     7.788768786     7.355373983    19.415646338   0   0   0 # oc23
    141      5   1 -0.550000     2.771623703     6.063054982    20.138468747   0   0   0 # oc23
    142      5   1 -0.550000     8.597898628     5.506068475    12.702847561   0   0   0 # oc23
    143      5   1 -0.550000     5.901824192     5.387770524    16.867604351   0   0   0 # oc23
    144      5   1 -0.550000     2.741561648     7.939536842    22.000149405   0   0   0 # oc23
    145      5   1 -0.550000     5.347591104     6.794487915    18.991204418   0   0   0 # oc23
    146      5   1 -0.550000     1.488879798     6.342818102    18.101642410   0   0   0 # oc23
    147      5   1 -0.550000     7.469347206     6.622018951    23.737127785   0   0   0 # oc23
    148      5   1 -0.550000     4.137176610     6.373613871    15.125361673   0   0   0 # oc23
    149      5   1 -0.550000     6.569611069     5.843477899    14.335138456   0   0   0 # oc23
    150      5   1 -0.550000     0.941093902     5.957208053    21.991166832   0   0   0 # oc23
    151      5   1 -0.550000     3.757446996     4.955147567    18.162142885   0   0   0 # oc23
    152      5   1 -0.550000    33.573261922     8.223304770    16.990352808  -1   0   0 # oc23
    153      5   1 -0.550000     6.072431766     7.437680888    21.469356638   0   0   0 # oc23
    154      5   1 -0.550000     3.286502329     8.006694730    13.191840870   0   0   0 # oc23
    155      5   2  1.100000     8.152593316     6.007064108    14.163145776   0   0   0 # sc4
    156      5   2  1.100000     2.460118561     6.384533851    21.630451578   0   0   0 # sc4
    157      5   2  1.100000     5.288499381     5.330672139    18.352309626   0   0   0 # sc4
    158      5   2  1.100000     0.674786928     7.698376009    18.412851154   0   0   0 # sc4
    159      5   2  1.100000     6.424083177     7.878791755    23.020529825   0   0   0 # sc4
    160      5   2  1.100000     3.706249327     7.886501153    14.736333937   0   0   0 # sc4
    161      5   2  1.100000     3.206054706     8.989273930    23.144664528   0   0   0 # sc4
    162      5   2  1.100000     0.836259079     8.537077640    15.553130030   0   0   0 # sc4
    163      5   2  1.100000     6.295502780     7.745940772    19.851849845   0   0   0 # sc4
    164      5   2  1.100000     2.368605070     5.257382146    18.849325649   0   0   0 # sc4
    165      5   2  1.100000     8.514387950     5.290674851    23.245129157   0   0   0 # sc4
    166      5   2  1.100000     5.399386759     5.383831905    15.333331775   0   0   0 # sc4
    167      6   1 -0.550000     3.311926637    10.054283980    11.458200255   0   0   0 # oc23
    168      6   1 -0.550000     9.107012235    10.447271430     3.902638324   0   0   0 # oc23
    169      6   1 -0.550000     6.513255164     9.298318562     6.909805531   0   0   0 # oc23
    170      6   1 -0.550000     2.032214132    13.844764121     7.790953857   0   0   0 # oc23
    171      6   1 -0.550000     7.752907715    13.843275818    10.759388465   0   0   0 # oc23
    172      6   1 -0.550000     4.383775710    14.120416877     2.168237145   0   0   0 # oc23
    173      6   1 -0.550000     5.322477810    13.318366845    11.572024162   0   0   0 # oc23
    174      6   1 -0.550000     2.564392246    13.446405600     3.904467935   0   0   0 # oc23
    175      6   1 -0.550000     8.124702599    12.448700484     7.745937022   0   0   0 # oc23
    176      6   1 -0.550000     3.323741656    10.733348399     8.901639123   0   0   0 # oc23
    177      6   1 -0.550000     5.784719148     9.947394809     4.428322461   0   0   0 # oc23
    178      6   1 -0.550000     3.010515008    12.561622463    10.688030536   0   0   0 # oc23
    179      6   1 -0.550000     5.854122580    11.793975176     6.498320554   0   0   0 # oc23
    180      6   1 -0.550000     1.944710061    11.366682004     6.775429976   0   0   0 # oc23
    181      6   1 -0.550000     6.933668092    11.353234800    10.923319662   0   0   0 # oc23
    182      6   1 -0.550000     4.395893416    11.648095782     3.180062353   0   0   0 # oc23
    183      6   1 -0.550000     7.035548951    10.930411442     2.207437913   0   0   0 # oc23
    184      6   1 -0.550000     1.092235832    10.833803763    10.270196853   0   0   0 # oc23
    185      6   1 -0.550000     4.073649787     9.870563988     6.487584929   0   0   0 # oc23
    186      6   1 -0.550000     0.741196017    13.555556349     5.759706532   0   0   0 # oc23
    187      6   1 -0.550000     5.977205702    12.849705216     9.036201124   0   0   0 # oc23
    188      6   1 -0.550000     1.821426846    12.076216355     1.986105902   0   0   0 # oc23
    189      6   2  1.100000     8.652294855    11.500230930     2.757909851   0   0   0 # sc4
    190      6   2  1.100000     2.690855919    11.041197348    10.337587913   0   0   0 # sc4
    191      6   2  1.100000     5.568846298    10.252471427     6.048194273   0   0   0 # sc4
    192      6   2  1.100000     1.154293932    12.754976292     7.047014034   0   0   0 # sc4
    193      6   2  1.100000     6.487732798    12.850698578    10.569567540   0   0   0 # sc4
    194      6   2  1.100000     3.335958866    12.789593388     2.657849442   0   0   0 # sc4
    195      6   2  1.100000     3.739535978    13.493737759    11.744695400   0   0   0 # sc4
    196      6   2  1.100000     1.045481851    13.875127466     4.267128973   0   0   0 # sc4
    197      6   2  1.100000     6.589719245    12.812110461     7.552525349   0   0   0 # sc4
    198      6   2  1.100000     2.853432758    10.215892707     7.476668957   0   0   0 # sc4
    199      6   2  1.100000     8.182797852    10.373885809    11.151980922   0   0   0 # sc4
    200      6   2  1.100000     5.431366475    10.396076266     2.878776527   0   0   0 # sc4
    201      7   1 -0.550000     3.430599910    10.366185599    22.412782069   0   0   0 # oc23
    202      7   1 -0.550000     8.877289143    10.044615278    15.216865041   0   0   0 # oc23
    203      7   1 -0.550000     6.023807836     9.288695808    19.397584753   0   0   0 # oc23
    204      7   1 -0.550000     1.570507849    13.830330495    19.119098888   0   0   0 # oc23
    205      7   1 -0.550000     7.458475718    14.117536638    22.708076197   0   0   0 # oc23
    206      7   1 -0.550000     4.951665466    13.829912529    14.997715246   0   0   0 # oc23
    207      7   1 -0.550000     4.827362048    13.394125781    23.679744894   0   0   0 # oc23
    208      7   1 -0.550000     2.427268005    13.303422721    15.629705329   0   0   0 # oc23
    209      7   1 -0.550000     7.787908465    12.327925795    19.391887395   0   0   0 # oc23
    210      7   1 -0.550000     2.781036921    11.034275278    20.138933312   0   0   0 # oc23
    211      7   1 -0.550000     8.600818398    10.462411530    12.698099447   0   0   0 # oc23
    212      7   1 -0.550000     5.905398547    10.356327932    16.863159177   0   0   0 # oc23
    213      7   1 -0.550000     2.749566328    12.913751128    21.993986160   0   0   0 # oc23
    214      7   1 -0.550000     5.348020659    11.775618140    18.978447857   0   0   0 # oc23
    215      7   1 -0.550000     1.479974870    11.327954455    18.108817693   0   0   0 # oc23
    216      7   1 -0.550000     7.473204987    11.607270934    23.727378469   0   0   0 # oc23
    217      7   1 -0.550000     4.137144580    11.345802730    15.125806758   0   0   0 # oc23
    218      7   1 -0.550000     6.571896093    10.819426169    14.328060291   0   0   0 # oc23
    219      7   1 -0.550000     0.951185622    10.931903857    21.992401321   0   0   0 # oc23
    220      7   1 -0.550000     3.752806447     9.944010299    18.151201456   0   0   0 # oc23
    221      7   1 -0.550000    33.560142790    13.200095882    16.996097345  -1   0   0 # oc23
    222      7   1 -0.550000     6.081147984    12.417159489    21.455527564   0   0   0 # oc23
    223      7   1 -0.550000     3.282406405    12.991603483    13.203214550   0   0   0 # oc23
    224      7   2  1.100000     8.155947208    10.976794984    14.154979927   0   0   0 # sc4
    225      7   2  1.100000     2.469879806    11.356588473    21.631139519   0   0   0 # sc4
    226      7   2  1.100000     5.286688532    10.309271483    18.344485454   0   0   0 # sc4
    227      7   2  1.100000     0.660180938    12.679883554    18.420224174   0   0   0 # sc4
    228      7   2  1.100000     6.428627963    12.862533429    23.008221221   0   0   0 # sc4
    229      7   2  1.100000     3.701416811    12.860594592    14.746812028   0   0   0 # sc4
    230      7   2  1.100000     3.213258774    13.968797561    23.132694102   0   0   0 # sc4
    231      7   2  1.100000     0.827811077    13.510328487    15.560979401   0   0   0 # sc4
    232      7   2  1.100000     6.298511349    12.724866502    19.835323309   0   0   0 # sc4
    233      7   2  1.100000     2.367788609    10.239097340    18.847397355   0   0   0 # sc4
    234      7   2  1.100000     8.516976738    10.272379032    23.237802973   0   0   0 # sc4
    235      7   2  1.100000     5.402347317    10.356583641    15.327328661   0   0   0 # sc4
    236      8   1 -0.550000     3.322590515    15.027694597    11.457624907   0   0   0 # oc23
    237      8   1 -0.550000     9.115531229    15.421256197     3.905638330   0   0   0 # oc23
    238      8   1 -0.550000     6.515472898    14.280286725     6.920314357   0   0   0 # oc23
    239      8   1 -0.550000     2.048790636    18.823249544     7.787934716   0   0   0 # oc23
    240      8   1 -0.550000     7.746415543    18.824167449    10.762030067   0   0   0 # oc23
    241      8   1 -0.550000     4.395622535    19.092784009     2.164080900   0   0   0 # oc23
    242      8   1 -0.550000     5.319496244    18.277244458    11.571327298   0   0   0 # oc23
    243      8   1 -0.550000     2.575338413    18.424769470     3.904438982   0   0   0 # oc23
    244      8   1 -0.550000     8.112465826    17.416637187     7.735867186   0   0   0 # oc23
    245      8   1 -0.550000     3.327316171    15.707489009     8.900481391   0   0   0 # oc23
    246      8   1 -0.550000     5.786700869    14.922556056     4.434786304   0   0   0 # oc23
    247      8   1 -0.550000     3.005920641    17.534831798    10.686482173   0   0   0 # oc23
    248      8   1 -0.550000     5.832892384    16.771712656     6.503298452   0   0   0 # oc23
    249      8   1 -0.550000     1.950743043    16.345990092     6.774533621   0   0   0 # oc23
    250      8   1 -0.550000     6.937660950    16.328668558    10.896273326   0   0   0 # oc23
    251      8   1 -0.550000     4.409141370    16.626724329     3.186295846   0   0   0 # oc23
    252      8   1 -0.550000     7.040180829    15.899286020     2.213523910   0   0   0 # oc23
    253      8   1 -0.550000     1.096983083    15.800716063    10.271499975   0   0   0 # oc23
    254      8   1 -0.550000     4.072174945    14.839249034     6.491150197   0   0   0 # oc23
    255      8   1 -0.550000     0.750909397    18.537822066     5.758880165   0   0   0 # oc23
    256      8   1 -0.550000     5.972508919    17.843613185     9.029676939   0   0   0 # oc23
    257      8   1 -0.550000     1.833576271    17.045864592     1.991476896   0   0   0 # oc23
    258      8   2  1.100000     8.656338619    16.470566818     2.760286648   0   0   0 # sc4
    259      8   2  1.100000     2.694850655    16.012301804    10.337698239   0   0   0 # sc4
    260      8   2  1.100000     5.564631142    15.227443969     6.053377152   0   0   0 # sc4
    261      8   2  1.100000     1.163120107    17.736286990     7.046531633   0   0   0 # sc4
    262      8   2  1.100000     6.485738360    17.829128988    10.562157673   0   0   0 # sc4
    263      8   2  1.100000     3.347858471    17.763398943     2.659928583   0   0   0 # sc4
    264      8   2  1.100000     3.737866611    18.466665130    11.737764162   0   0   0 # sc4
    265      8   2  1.100000     1.056866288    18.854922961     4.265754234   0   0   0 # sc4
    266      8   2  1.100000     6.581806594    17.793522547     7.544709941   0   0   0 # sc4
    267      8   2  1.100000     2.854202042    15.191800823     7.477587054   0   0   0 # sc4
    268      8   2  1.100000     8.187845680    15.355783396    11.143187577   0   0   0 # sc4
    269      8   2  1.100000     5.436281904    15.370196666     2.885236124   0   0   0 # sc4
    270      9   1 -0.550000     3.435132625    15.345512995    22.397494014   0   0   0 # oc23
    271      9   1 -0.550000     8.884948550    15.023161269    15.199281995   0   0   0 # oc23
    272      9   1 -0.550000     6.027913603    14.268919782    19.386597560   0   0   0 # oc23
    273      9   1 -0.550000     1.567627228    18.812439493    19.109939815   0   0   0 # oc23
    274      9   1 -0.550000     7.455157400    19.095617116    22.706701105   0   0   0 # oc23
    275      9   1 -0.550000     4.950424695    18.808600177    14.988269670   0   0   0 # oc23
    276      9   1 -0.550000     4.818364758    18.380584201    23.679002153   0   0   0 # oc23
    277      9   1 -0.550000     2.427283147    18.270681766    15.621948928   0   0   0 # oc23
    278      9   1 -0.550000     7.786827521    17.323173075    19.403857457   0   0   0 # oc23
    279      9   1 -0.550000     2.771336651    16.023032680    20.126856299   0   0   0 # oc23
    280      9   1 -0.550000     8.608215514    15.471627881    12.688146630   0   0   0 # oc23
    281      9   1 -0.550000     5.898794353    15.349896031    16.858510221   0   0   0 # oc23
    282      9   1 -0.550000     2.744788579    17.895881429    21.988231460   0   0   0 # oc23
    283      9   1 -0.550000     5.342584447    16.756588196    18.980040786   0   0   0 # oc23
    284      9   1 -0.550000     1.482176996    16.305872307    18.096100866   0   0   0 # oc23
    285      9   1 -0.550000     7.464073569    16.591560938    23.724647439   0   0   0 # oc23
    286      9   1 -0.550000     4.135083944    16.318817155    15.108546789   0   0   0 # oc23
    287      9   1 -0.550000     6.568667965    15.776148084    14.316886453   0   0   0 # oc23
    288      9   1 -0.550000     0.954318930    15.907889618    21.984758496   0   0   0 # oc23
    289      9   1 -0.550000     3.749403544    14.915970904    18.150763146   0   0   0 # oc23
    290      9   1 -0.550000    33.561908768    18.180776753    16.984420271  -1   0   0 # oc23
    291      9   1 -0.550000     6.069783388    17.402312925    21.455454309   0   0   0 # oc23
    292      9   1 -0.550000     3.276880107    17.971028670    13.195744470   0   0   0 # oc23
    293      9   2  1.100000     8.151872935    15.961516863    14.149152749   0   0   0 # sc4
    294      9   2  1.100000     2.470276040    16.338576153    21.621100217   0   0   0 # sc4
    295      9   2  1.100000     5.282218377    15.291766393    18.343184168   0   0   0 # sc4
    296      9   2  1.100000     0.663707088    17.658140970    18.407258465   0   0   0 # sc4
    297      9   2  1.100000     6.420157065    17.846331595    23.005800343   0   0   0 # sc4
    298      9   2  1.100000     3.700780890    17.834961875    14.737338391   0   0   0 # sc4
    299      9   2  1.100000     3.204434425    18.951787550    23.129703355   0   0   0 # sc4
    300      9   2  1.100000     0.830129413    18.485933646    15.550324927   0   0   0 # sc4
    301      9   2  1.100000     6.291465067    17.710320382    19.837294957   0   0   0 # sc4
    302      9   2  1.100000     2.361411269    15.217792176    18.840379972   0   0   0 # sc4
    303      9   2  1.100000     8.513251789    15.261740573    23.233797050   0   0   0 # sc4
    304      9   2  1.100000     5.398519254    15.331476073    15.323719709   0   0   0 # sc4
    305     10   1 -0.550000     3.334939005    20.004199686    11.449572806   0   0   0 # oc23
    306     10   1 -0.550000     9.112860679    20.399230852     3.901698090   0   0   0 # oc23
    307     10   1 -0.550000     6.525350105    19.259261479     6.906220809   0   0   0 # oc23
    308     10   1 -0.550000     2.035258894    23.801233818     7.787530193   0   0   0 # oc23
    309     10   1 -0.550000     7.742207348    23.806725946    10.769863144   0   0   0 # oc23
    310     10   1 -0.550000     4.390935050    24.074279437     2.156139751   0   0   0 # oc23
    311     10   1 -0.550000     5.314843376    23.262261268    11.574175526   0   0   0 # oc23
    312     10   1 -0.550000     2.578642969    23.396126182     3.894753217   0   0   0 # oc23
    313     10   1 -0.550000     8.126582180    22.415469947     7.741135886   0   0   0 # oc23
    314     10   1 -0.550000     3.341887030    20.689461438     8.897292582   0   0   0 # oc23
    315     10   1 -0.550000     5.800278397    19.908231567     4.428132823   0   0   0 # oc23
    316     10   1 -0.550000     3.005921961    22.514391312    10.686666948   0   0   0 # oc23
    317     10   1 -0.550000     5.855399436    21.758308844     6.497162695   0   0   0 # oc23
    318     10   1 -0.550000     1.962736052    21.323412718     6.770153113   0   0   0 # oc23
    319     10   1 -0.550000     6.930112923    21.313368313    10.892273516   0   0   0 # oc23
    320     10   1 -0.550000     4.412768639    21.602948241     3.173307948   0   0   0 # oc23
    321     10   1 -0.550000     7.047426719    20.877810262     2.203401325   0   0   0 # oc23
    322     10   1 -0.550000     1.110167057    20.769663821    10.260855495   0   0   0 # oc23
    323     10   1 -0.550000     4.089826595    19.825743693     6.484277932   0   0   0 # oc23
    324     10   1 -0.550000     0.756585139    23.510447302     5.753136835   0   0   0 # oc23
    325     10   1 -0.550000     5.975693152    22.837533909     9.028942358   0   0   0 # oc23
    326     10   1 -0.550000     1.833191630    22.022374962     1.982261341   0   0   0 # oc23
    327     10   2  1.100000     8.662212663    21.449667582     2.753357170   0   0   0 # sc4
    328     10   2  1.100000     2.705791346    20.989629096    10.332318470   0   0   0 # sc4
    329     10   2  1.100000     5.581156000    20.214637023     6.046847346   0   0   0 # sc4
    330     10   2  1.100000     1.164957476    22.707785596     7.041387549   0   0   0 # sc4
    331     10   2  1.100000     6.481150639    22.816265806    10.563564589   0   0   0 # sc4
    332     10   2  1.100000     3.348397583    22.738990555     2.647566479   0   0   0 # sc4
    333     10   2  1.100000     3.732344666    23.450369422    11.740423691   0   0   0 # sc4
    334     10   2  1.100000     1.061274731    23.827534326     4.259402793   0   0   0 # sc4
    335     10   2  1.100000     6.593013963    22.783173601     7.545681980   0   0   0 # sc4
    336     10   2  1.100000     2.870451834    20.172193311     7.473719709   0   0   0 # sc4
    337     10   2  1.100000     8.178786909    20.338367420    11.142635966   0   0   0 # sc4
    338     10   2  1.100000     5.444528227    20.348204037     2.876706461   0   0   0 # sc4
    339     11   1 -0.550000     3.426379411    20.327919679    22.393044279   0   0   0 # oc23
    340     11   1 -0.550000     8.873958132    20.013314167    15.200017821   0   0   0 # oc23
    341     11   1 -0.550000     6.017277581    19.253791679    19.384896633   0   0   0 # oc23
    342     11   1 -0.550000     1.578086476    23.796595734    19.119087878   0   0   0 # oc23
    343     11   1 -0.550000     7.459965031    24.071682638    22.708471348   0   0   0 # oc23
    344     11   1 -0.550000     4.940433760    23.789626578    15.000111946   0   0   0 # oc23
    345     11   1 -0.550000     4.823182171    23.355356731    23.677590546   0   0   0 # oc23
    346     11   1 -0.550000     2.417824111    23.241460424    15.631936388   0   0   0 # oc23
    347     11   1 -0.550000     7.789231472    22.291719643    19.396531342   0   0   0 # oc23
    348     11   1 -0.550000     2.765394883    21.005801787    20.124300790   0   0   0 # oc23
    349     11   1 -0.550000     8.599651141    20.458397721    12.684985205   0   0   0 # oc23
    350     11   1 -0.550000     5.893776406    20.330696860    16.854501476   0   0   0 # oc23
    351     11   1 -0.550000     2.748104268    22.877929052    21.985517949   0   0   0 # oc23
    352     11   1 -0.550000     5.343080137    21.740980752    18.975754444   0   0   0 # oc23
    353     11   1 -0.550000     1.473729323    21.297062719    18.100328522   0   0   0 # oc23
    354     11   1 -0.550000     7.474250699    21.566636957    23.721164299   0   0   0 # oc23
    355     11   1 -0.550000     4.127474365    21.298899604    15.106130477   0   0   0 # oc23
    356     11   1 -0.550000     6.561618181    20.768947668    14.315318354   0   0   0 # oc23
    357     11   1 -0.550000     0.945899586    20.898958709    21.983936611   0   0   0 # oc23
    358     11   1 -0.550000     3.742765997    19.907846371    18.143623910   0   0   0 # oc23
    359     11   1 -0.550000    33.555494463    23.177379235    17.001439342  -1   0   0 # oc23
    360     11   1 -0.550000     6.077506945    22.378655660    21.452361506   0   0   0 # oc23
    361     11   1 -0.550000     3.267504765    22.959229817    13.201260261   0   0   0 # oc23
    362     11   2  1.100000     8.144012778    20.950661998    14.146162989   0   0   0 # sc4
    363     11   2  1.100000     2.463677100    21.322924278    21.618931547   0   0   0 # sc4
    364     11   2  1.100000     5.276520051    20.276924099    18.337727119   0   0   0 # sc4
    365     11   2  1.100000     0.661952848    22.650633836    18.421316460   0   0   0 # sc4
    366     11   2  1.100000     6.426477382    22.820310054    23.003699888   0   0   0 # sc4
    367     11   2  1.100000     3.691243499    22.816036506    14.743457895   0   0   0 # sc4
    368     11   2  1.100000     3.206420136    23.928917950    23.131714598   0   0   0 # sc4
    369     11   2  1.100000     0.822687228    23.469949110    15.563440665   0   0   0 # sc4
    370     11   2  1.100000     6.298420512    22.688652525    19.833961842   0   0   0 # sc4
    371     11   2  1.100000     2.356006407    20.203707613    18.836227239   0   0   0 # sc4
    372     11   2  1.100000     8.518498567    20.231802583    23.231720611   0   0   0 # sc4
    373     11   2  1.100000     5.392369760    20.312807887    15.318448054   0   0   0 # sc4
    374     12   1 -0.550000     3.327175047    24.987806166    11.448192226   0   0   0 # oc23
    375     12   1 -0.550000     9.121651119    25.376944891     3.894331516   0   0   0 # oc23
    376     12   1 -0.550000     6.526397422    24.245721139     6.903608004   0   0   0 # oc23
    377     12   1 -0.550000     2.032355107    28.778321439     7.774188882   0   0   0 # oc23
    378     12   1 -0.550000     7.738824889    28.788730999    10.746753600   0   0   0 # oc23
    379     12   1 -0.550000     4.389966619    29.055164567     2.149016982   0   0   0 # oc23
    380     12   1 -0.550000     5.314167157    28.257407286    11.562177950   0   0   0 # oc23
    381     12   1 -0.550000     2.575352129    28.380680168     3.888752615   0   0   0 # oc23
    382     12   1 -0.550000     8.107334240    27.379213872     7.727714353   0   0   0 # oc23
    383     12   1 -0.550000     3.334907315    25.669526069     8.894821586   0   0   0 # oc23
    384     12   1 -0.550000     5.789522722    24.882373616     4.422235417   0   0   0 # oc23
    385     12   1 -0.550000     3.007960174    27.499104071    10.679477307   0   0   0 # oc23
    386     12   1 -0.550000     5.831335463    26.731345098     6.492728873   0   0   0 # oc23
    387     12   1 -0.550000     1.955184825    26.299024468     6.763677570   0   0   0 # oc23
    388     12   1 -0.550000     6.924053257    26.295439993    10.902784706   0   0   0 # oc23
    389     12   1 -0.550000     4.413845545    26.585276605     3.168615334   0   0   0 # oc23
    390     12   1 -0.550000     7.047092611    25.853716464     2.200995036   0   0   0 # oc23
    391     12   1 -0.550000     1.109729869    25.760497652    10.263186671   0   0   0 # oc23
    392     12   1 -0.550000     4.080014152    24.792603278     6.484858221   0   0   0 # oc23
    393     12   1 -0.550000     0.746581616    28.481184448     5.741532171   0   0   0 # oc23
    394     12   1 -0.550000     5.963728022    27.803548987     9.022919296   0   0   0 # oc23
    395     12   1 -0.550000     1.835560750    26.999615770     1.975296417   0   0   0 # oc23
    396     12   2  1.100000     8.661083388    26.428186598     2.750370996   0   0   0 # sc4
    397     12   2  1.100000     2.704183596    25.975365877    10.329887281   0   0   0 # sc4
    398     12   2  1.100000     5.569580399    25.188191907     6.042425652   0   0   0 # sc4
    399     12   2  1.100000     1.159720911    27.685234697     7.031171466   0   0   0 # sc4
    400     12   2  1.100000     6.476745820    27.795528351    10.555279701   0   0   0 # sc4
    401     12   2  1.100000     3.348133093    27.721164449     2.643208463   0   0   0 # sc4
    402     12   2  1.100000     3.732571578    28.437691921    11.733378864   0   0   0 # sc4
    403     12   2  1.100000     1.056090995    28.805281974     4.250006036   0   0   0 # sc4
    404     12   2  1.100000     6.574428701    27.752689211     7.537321076   0   0   0 # sc4
    405     12   2  1.100000     2.859134349    25.147868225     7.472345456   0   0   0 # sc4
    406     12   2  1.100000     8.174029402    25.320197633    11.146643646   0   0   0 # sc4
    407     12   2  1.100000     5.441527378    25.326788809     2.870801637   0   0   0 # sc4
    408     13   1 -0.550000     3.427089874    25.307679012    22.399541139   0   0   0 # oc23
    409     13   1 -0.550000     8.872793037    24.990446344    15.203814689   0   0   0 # oc23
    410     13   1 -0.550000     6.028963040    24.234391457    19.382698065   0   0   0 # oc23
    411     13   1 -0.550000     1.577352585    28.773698485    19.120890911   0   0   0 # oc23
    412     13   1 -0.550000     7.464481935    29.045814693    22.714546932   0   0   0 # oc23
    413     13   1 -0.550000     4.945307423    28.776479817    14.985020356   0   0   0 # oc23
    414     13   1 -0.550000     4.827505975    28.334562425    23.688344373   0   0   0 # oc23
    415     13   1 -0.550000     2.426291464    28.244545432    15.621403670   0   0   0 # oc23
    416     13   1 -0.550000     7.788474065    27.271676160    19.412217875   0   0   0 # oc23
    417     13   1 -0.550000     2.767513880    25.993895606    20.131457680   0   0   0 # oc23
    418     13   1 -0.550000     8.601931700    25.439790489    12.688300457   0   0   0 # oc23
    419     13   1 -0.550000     5.893574821    25.319974325    16.855990534   0   0   0 # oc23
    420     13   1 -0.550000     2.745695920    27.858130005    22.000084165   0   0   0 # oc23
    421     13   1 -0.550000     5.345906576    26.721741109    18.985601966   0   0   0 # oc23
    422     13   1 -0.550000     1.481068793    26.275049815    18.100017574   0   0   0 # oc23
    423     13   1 -0.550000     7.473709351    26.539228195    23.731263600   0   0   0 # oc23
    424     13   1 -0.550000     4.126810256    26.287487498    15.105744305   0   0   0 # oc23
    425     13   1 -0.550000     6.559311715    25.737994037    14.313946559   0   0   0 # oc23
    426     13   1 -0.550000     0.945984485    25.872289180    21.989047681   0   0   0 # oc23
    427     13   1 -0.550000     3.749054300    24.891214120    18.150499533   0   0   0 # oc23
    428     13   1 -0.550000    33.563682436    28.154159411    16.991958930  -1   0   0 # oc23
    429     13   1 -0.550000     6.073074805    27.358432836    21.464629427   0   0   0 # oc23
    430     13   1 -0.550000     3.272572959    27.940689533    13.193429554   0   0   0 # oc23
    431     13   2  1.100000     8.141776417    25.925320932    14.149898597   0   0   0 # sc4
    432     13   2  1.100000     2.463593058    26.304067851    21.627010563   0   0   0 # sc4
    433     13   2  1.100000     5.282387480    25.261107137    18.341401252   0   0   0 # sc4
    434     13   2  1.100000     0.666750771    27.628723963    18.414317454   0   0   0 # sc4
    435     13   2  1.100000     6.427968388    27.797368421    23.015842701   0   0   0 # sc4
    436     13   2  1.100000     3.696043767    27.805239881    14.735149062   0   0   0 # sc4
    437     13   2  1.100000     3.211614528    28.910252626    23.141219871   0   0   0 # sc4
    438     13   2  1.100000     0.830374030    28.457938813    15.555242077   0   0   0 # sc4
    439     13   2  1.100000     6.297329338    27.667521175    19.847410889   0   0   0 # sc4
    440     13   2  1.100000     2.363555023    25.187808287    18.844334832   0   0   0 # sc4
    441     13   2  1.100000     8.520267541    25.207418478    23.238759498   0   0   0 # sc4
    442     13   2  1.100000     5.388328595    25.295346014    15.321842154   0   0   0 # sc4
    443     14   1 -0.550000     3.319711017    29.971823183    11.440321717   0   0   0 # oc23
    444     14   1 -0.550000     9.114805623    30.356466443     3.888994294   0   0   0 # oc23
    445     14   1 -0.550000     6.512286504    29.217319068     6.897456986   0   0   0 # oc23
    446     14   1 -0.550000     2.020418628    33.752860340     7.778655204   0   0   0 # oc23
    447     14   1 -0.550000     7.735746792    33.769671650    10.740629547   0   0   0 # oc23
    448     14   1 -0.550000     4.378645074    34.039345023     2.153069493   0   0   0 # oc23
    449     14   1 -0.550000     5.310595007    33.238590593    11.554625780   0   0   0 # oc23
    450     14   1 -0.550000     2.562518159    33.359650666     3.887969390   0   0   0 # oc23
    451     14   1 -0.550000     8.106516599    32.357154703     7.726120439   0   0   0 # oc23
    452     14   1 -0.550000     3.329686408    30.644746482     8.883007704   0   0   0 # oc23
    453     14   1 -0.550000     5.786219981    29.862486767     4.416037803   0   0   0 # oc23
    454     14   1 -0.550000     3.005469387    32.478018751    10.668102383   0   0   0 # oc23
    455     14   1 -0.550000     5.831683146    31.706497560     6.484603177   0   0   0 # oc23
    456     14   1 -0.550000     1.944860120    31.276424514     6.758363070   0   0   0 # oc23
    457     14   1 -0.550000     6.920920263    31.275597812    10.914282680   0   0   0 # oc23
    458     14   1 -0.550000     4.401873449    31.563858104     3.165847702   0   0   0 # oc23
    459     14   1 -0.550000     7.038752439    30.839693891     2.196162831   0   0   0 # oc23
    460     14   1 -0.550000     1.104213912    30.740628665    10.248568328   0   0   0 # oc23
    461     14   1 -0.550000     4.070552052    29.775624613     6.469826889   0   0   0 # oc23
    462     14   1 -0.550000     0.737311502    33.463652830     5.743442976   0   0   0 # oc23
    463     14   1 -0.550000     5.963108690    32.768475365     9.021346487   0   0   0 # oc23
    464     14   1 -0.550000     1.825242179    31.984629516     1.973208784   0   0   0 # oc23
    465     14   2  1.100000     8.654635908    31.409087264     2.745650481   0   0   0 # sc4
    466     14   2  1.100000     2.698841826    30.955370718    10.317580417   0   0   0 # sc4
    467     14   2  1.100000     5.563666636    30.164717900     6.033576041   0   0   0 # sc4
    468     14   2  1.100000     1.148494418    32.661498382     7.031175791   0   0   0 # sc4
    469     14   2  1.100000     6.474724741    32.772539762    10.554317361   0   0   0 # sc4
    470     14   2  1.100000     3.337912450    32.702673681     2.641804792   0   0   0 # sc4
    471     14   2  1.100000     3.728342925    33.411833350    11.727769296   0   0   0 # sc4
    472     14   2  1.100000     1.042962696    33.785165777     4.251063393   0   0   0 # sc4
    473     14   2  1.100000     6.573195570    32.726086453     7.535149349   0   0   0 # sc4
    474     14   2  1.100000     2.852899253    30.126259790     7.460288413   0   0   0 # sc4
    475     14   2  1.100000     8.170691280    30.297286830    11.149807922   0   0   0 # sc4
    476     14   2  1.100000     5.434561556    30.310035430     2.866805343   0   0   0 # sc4
    477     15   1 -0.550000     3.433159038    30.285041011    22.403340777   0   0   0 # oc23
    478     15   1 -0.550000     8.858884962    29.964242961    15.216039456   0   0   0 # oc23
    479     15   1 -0.550000     6.028730903    29.211208578    19.393836089   0   0   0 # oc23
    480     15   1 -0.550000     1.579603343    33.741261563    19.114692906   0   0   0 # oc23
    481     15   1 -0.550000     7.462350979    34.020527637    22.715233347   0   0   0 # oc23
    482     15   1 -0.550000     4.950415318    33.752659194    14.974151600   0   0   0 # oc23
    483     15   1 -0.550000     4.825318917    33.310914648    23.688417568   0   0   0 # oc23
    484     15   1 -0.550000     2.431987214    33.227198002    15.615061456   0   0   0 # oc23
    485     15   1 -0.550000     7.792997632    32.246769307    19.406444398   0   0   0 # oc23
    486     15   1 -0.550000     2.768980836    30.970395139    20.132982398   0   0   0 # oc23
    487     15   1 -0.550000     8.591736864    30.396658726    12.694616465   0   0   0 # oc23
    488     15   1 -0.550000     5.895663119    30.287025590    16.862357160   0   0   0 # oc23
    489     15   1 -0.550000     2.746949791    32.834493998    21.999147343   0   0   0 # oc23
    490     15   1 -0.550000     5.347744359    31.694272283    18.985287962   0   0   0 # oc23
    491     15   1 -0.550000     1.481199975    31.245992077    18.100343012   0   0   0 # oc23
    492     15   1 -0.550000     7.474522895    31.516716524    23.731625528   0   0   0 # oc23
    493     15   1 -0.550000     4.130341079    31.268333531    15.113629950   0   0   0 # oc23
    494     15   1 -0.550000     6.559910304    30.731949366    14.323391498   0   0   0 # oc23
    495     15   1 -0.550000     0.951710042    30.850013931    21.992758825   0   0   0 # oc23
    496     15   1 -0.550000     3.750938422    29.861250026    18.157547514   0   0   0 # oc23
    497     15   1 -0.550000    33.567283353    33.123518831    16.988009553  -1   0   0 # oc23
    498     15   1 -0.550000     6.077056527    32.331759008    21.464649130   0   0   0 # oc23
    499     15   1 -0.550000     3.274831984    32.905048561    13.187112666   0   0   0 # oc23
    500     15   2  1.100000     8.141278864    30.899507497    14.154749892   0   0   0 # sc4
    501     15   2  1.100000     2.467735497    31.280046414    21.628746454   0   0   0 # sc4
    502     15   2  1.100000     5.283714865    30.231730605    18.346960686   0   0   0 # sc4
    503     15   2  1.100000     0.667165980    32.598672087    18.410744735   0   0   0 # sc4
    504     15   2  1.100000     6.426950002    32.772330678    23.015166801   0   0   0 # sc4
    505     15   2  1.100000     3.699794065    32.782085358    14.729438731   0   0   0 # sc4
    506     15   2  1.100000     3.208493379    33.884693581    23.142365178   0   0   0 # sc4
    507     15   2  1.100000     0.834663900    33.433044348    15.551281605   0   0   0 # sc4
    508     15   2  1.100000     6.300514648    32.639972236    19.846432642   0   0   0 # sc4
    509     15   2  1.100000     2.364709885    30.162929916    18.847863326   0   0   0 # sc4
    510     15   2  1.100000     8.522207665    30.185657747    23.238591530   0   0   0 # sc4
    511     15   2  1.100000     5.390624072    30.276615072    15.326828617   0   0   0 # sc4
    512     16   1 -0.550000    11.660634486     0.091163691    11.465640368   0   0   0 # oc23
    513     16   1 -0.550000    17.451959955     0.498502039     3.904564652   0   0   0 # oc23
    514     16   1 -0.550000    14.863442578    34.190398038     6.910916456   0  -1   0 # oc23
    515     16   1 -0.550000    10.364590415     3.878975228     7.797455801   0   0   0 # oc23
    516     16   1 -0.550000    16.101760147     3.887356002    10.769040141   0   0   0 # oc23
    517     16   1 -0.550000    12.725251598     4.167703547     2.169538706   0   0   0 # oc23
    518     16   1 -0.550000    13.675261003     3.363013524    11.579579257   0   0   0 # oc23
    519     16   1 -0.550000    10.905294819     3.495713623     3.904505491   0   0   0 # oc23
    520     16   1 -0.550000    16.460400363     2.494118218     7.746066510   0   0   0 # oc23
    521     16   1 -0.550000    11.670174821     0.764869723     8.903546836   0   0   0 # oc23
    522     16   1 -0.550000    14.127114622    -0.006096006     4.432065879   0   0   0 # oc23
    523     16   1 -0.550000    11.373951075     2.601299327    10.689676197   0   0   0 # oc23
    524     16   1 -0.550000     8.423776026     2.927482815     3.491276259   0   0   0 # oc23
    525     16   1 -0.550000    14.184337966     1.840674362     6.505890267   0   0   0 # oc23
    526     16   1 -0.550000    10.286969644     1.404384039     6.775779770   0   0   0 # oc23
    527     16   1 -0.550000    15.279686191     1.398337836    10.916208708   0   0   0 # oc23
    528     16   1 -0.550000    12.737823281     1.693694539     3.182845384   0   0   0 # oc23
    529     16   1 -0.550000    15.376595764     0.976668830     2.210857835   0   0   0 # oc23
    530     16   1 -0.550000     9.443736818     0.893537670    10.274705213   0   0   0 # oc23
    531     16   1 -0.550000    12.417499444    -0.093938152     6.491075478   0   0   0 # oc23
    532     16   1 -0.550000     9.082563408     3.597073940     5.761333284   0   0   0 # oc23
    533     16   1 -0.550000    14.321042088     2.906105316     9.040945765   0   0   0 # oc23
    534     16   1 -0.550000    10.164068662     2.121010240     1.987065982   0   0   0 # oc23
    535     16   2  1.100000    16.990904695     1.549570352     2.760781025   0   0   0 # sc4
    536     16   2  1.100000    11.044279150     1.081933579    10.342340592   0   0   0 # sc4
    537     16   2  1.100000    13.910582372     0.297843397     6.052592203   0   0   0 # sc4
    538     16   2  1.100000     9.489693881     2.790169759     7.047962039   0   0   0 # sc4
    539     16   2  1.100000    14.835938427     2.897898201    10.572902153   0   0   0 # sc4
    540     16   2  1.100000    11.678428858     2.835869634     2.659519053   0   0   0 # sc4
    541     16   2  1.100000    12.093253040     3.532804148    11.751399355   0   0   0 # sc4
    542     16   2  1.100000     9.385565172     3.919937931     4.267601355   0   0   0 # sc4
    543     16   2  1.100000    14.927849871     2.861551201     7.553400695   0   0   0 # sc4
    544     16   2  1.100000    11.195292213     0.251489740     7.478102120   0   0   0 # sc4
    545     16   2  1.100000    16.531060195     0.425737234    11.156697313   0   0   0 # sc4
    546     16   2  1.100000    13.773465503     0.442511520     2.881119054   0   0   0 # sc4
    547     17   1 -0.550000    11.774844544     0.411109331    22.413686370   0   0   0 # oc23
    548     17   1 -0.550000    17.244492178     0.097353040    15.206448407   0   0   0 # oc23
    549     17   1 -0.550000    14.383466193    34.179915780    19.405208919   0  -1   0 # oc23
    550     17   1 -0.550000     9.930632821     3.855851261    19.123228903   0   0   0 # oc23
    551     17   1 -0.550000    15.794786969     4.174365645    22.724315677   0   0   0 # oc23
    552     17   1 -0.550000    13.308126594     3.859647979    15.011139083   0   0   0 # oc23
    553     17   1 -0.550000    13.165717604     3.438704101    23.698188122   0   0   0 # oc23
    554     17   1 -0.550000    10.786882234     3.331429660    15.636809416   0   0   0 # oc23
    555     17   1 -0.550000    16.138016944     2.395506879    19.423601181   0   0   0 # oc23
    556     17   1 -0.550000    11.124663549     1.075460547    20.141564095   0   0   0 # oc23
    557     17   1 -0.550000    16.960944097     0.549139318    12.697251925   0   0   0 # oc23
    558     17   1 -0.550000    14.260320991     0.407847419    16.875955906   0   0   0 # oc23
    559     17   1 -0.550000    11.094323522     2.955522494    22.000870800   0   0   0 # oc23
    560     17   1 -0.550000     8.572457617     2.564461206    14.436312735   0   0   0 # oc23
    561     17   1 -0.550000    13.699361246     1.823637762    18.996733272   0   0   0 # oc23
    562     17   1 -0.550000     9.834913299     1.356074161    18.110353959   0   0   0 # oc23
    563     17   1 -0.550000    15.826889621     1.665506596    23.739771951   0   0   0 # oc23
    564     17   1 -0.550000    12.493074494     1.374333810    15.129583872   0   0   0 # oc23
    565     17   1 -0.550000    14.922807831     0.827215453    14.329219117   0   0   0 # oc23
    566     17   1 -0.550000     9.293542423     0.973153970    21.993107157   0   0   0 # oc23
    567     17   1 -0.550000    12.110319358    -0.019619149    18.163023166   0   0   0 # oc23
    568     17   1 -0.550000     8.551469450     3.227456568    16.995025843   0   0   0 # oc23
    569     17   1 -0.550000    14.422453332     2.469710632    21.477652063   0   0   0 # oc23
    570     17   1 -0.550000    11.639134751     3.022151080    13.208339159   0   0   0 # oc23
    571     17   2  1.100000    16.501716647     1.030030925    14.161228358   0   0   0 # sc4
    572     17   2  1.100000    10.812287196     1.399470512    21.632596826   0   0   0 # sc4
    573     17   2  1.100000    13.642251800     0.358296116    18.358556767   0   0   0 # sc4
    574     17   2  1.100000     9.018264366     2.707734976    18.420436900   0   0   0 # sc4
    575     17   2  1.100000    14.771500301     2.915491731    23.027360390   0   0   0 # sc4
    576     17   2  1.100000    12.059563088     2.889478314    14.753063355   0   0   0 # sc4
    577     17   2  1.100000    11.548297453     4.005737850    23.148179113   0   0   0 # sc4
    578     17   2  1.100000     9.189916316     3.544453277    15.564184836   0   0   0 # sc4
    579     17   2  1.100000    14.642841587     2.777802897    19.859215419   0   0   0 # sc4
    580     17   2  1.100000    10.721015234     0.272013562    18.852678335   0   0   0 # sc4
    581     17   2  1.100000    16.873493965     0.334894080    23.244944458   0   0   0 # sc4
    582     17   2  1.100000    13.755829848     0.384874688    15.339851931   0   0   0 # sc4
    583     18   1 -0.550000    11.667552113     5.066922889    11.470713724   0   0   0 # oc23
    584     18   1 -0.550000    17.438486402     5.477824958     3.909934552   0   0   0 # oc23
    585     18   1 -0.550000    14.857068689     4.326966029     6.916594927   0   0   0 # oc23
    586     18   1 -0.550000    10.369219275     8.853483574     7.797918089   0   0   0 # oc23
    587     18   1 -0.550000    16.104769567     8.864323150    10.788705292   0   0   0 # oc23
    588     18   1 -0.550000    12.723328215     9.142388243     2.168874946   0   0   0 # oc23
    589     18   1 -0.550000    13.678666904     8.332036258    11.592955380   0   0   0 # oc23
    590     18   1 -0.550000    10.902317113     8.462155166     3.905517671   0   0   0 # oc23
    591     18   1 -0.550000    16.455986070     7.463932740     7.740827468   0   0   0 # oc23
    592     18   1 -0.550000    11.670507723     5.743467490     8.909910016   0   0   0 # oc23
    593     18   1 -0.550000    14.124838115     4.978518121     4.440232688   0   0   0 # oc23
    594     18   1 -0.550000    11.378763340     7.578170548    10.697322234   0   0   0 # oc23
    595     18   1 -0.550000     8.420339147     7.903583229     3.485362954   0   0   0 # oc23
    596     18   1 -0.550000    14.167283054     6.817620247     6.520769646   0   0   0 # oc23
    597     18   1 -0.550000    10.286128961     6.378243700     6.780345056   0   0   0 # oc23
    598     18   1 -0.550000    15.284232402     6.371849180    10.914665553   0   0   0 # oc23
    599     18   1 -0.550000    12.738073810     6.672974125     3.185691026   0   0   0 # oc23
    600     18   1 -0.550000    15.371283531     5.955366118     2.213894012   0   0   0 # oc23
    601     18   1 -0.550000     9.449053578     5.870851420    10.284815217   0   0   0 # oc23
    602     18   1 -0.550000    12.412383451     4.876568035     6.499331943   0   0   0 # oc23
    603     18   1 -0.550000     9.079874021     8.566923965     5.761282843   0   0   0 # oc23
    604     18   1 -0.550000    14.323241624     7.894622757     9.051402103   0   0   0 # oc23
    605     18   1 -0.550000    10.163191756     7.088328887     1.989306358   0   0   0 # oc23
    606     18   2  1.100000    16.984287990     6.530797165     2.764032637   0   0   0 # sc4
    607     18   2  1.100000    11.049138425     6.059412054    10.349928097   0   0   0 # sc4
    608     18   2  1.100000    13.901855264     5.275766448     6.060966956   0   0   0 # sc4
    609     18   2  1.100000     9.491730126     7.765333943     7.048893825   0   0   0 # sc4
    610     18   2  1.100000    14.840413143     7.875706080    10.583469066   0   0   0 # sc4
    611     18   2  1.100000    11.675863501     7.808297546     2.659137092   0   0   0 # sc4
    612     18   2  1.100000    12.097333414     8.510643305    11.759665758   0   0   0 # sc4
    613     18   2  1.100000     9.384641031     8.890882860     4.266916602   0   0   0 # sc4
    614     18   2  1.100000    14.922623000     7.838285969     7.560508851   0   0   0 # sc4
    615     18   2  1.100000    11.190406267     5.226285836     7.487038958   0   0   0 # sc4
    616     18   2  1.100000    16.534651493     5.399511814    11.155206334   0   0   0 # sc4
    617     18   2  1.100000    13.771057202     5.421411604     2.888216219   0   0   0 # sc4
    618     19   1 -0.550000    11.769869404     5.386048031    22.421782797   0   0   0 # oc23
    619     19   1 -0.550000    17.237786765     5.073517763    15.210923574   0   0   0 # oc23
    620     19   1 -0.550000    14.364741982     4.321032386    19.413709784   0   0   0 # oc23
    621     19   1 -0.550000     9.923930352     8.846259393    19.126530074   0   0   0 # oc23
    622     19   1 -0.550000    15.798534977     9.154362304    22.724958085   0   0   0 # oc23
    623     19   1 -0.550000    13.308498639     8.838858767    15.021612662   0   0   0 # oc23
    624     19   1 -0.550000    13.165455556     8.426127442    23.693466184   0   0   0 # oc23
    625     19   1 -0.550000    10.787538680     8.312197731    15.644714063   0   0   0 # oc23
    626     19   1 -0.550000    16.131142123     7.368410865    19.417915836   0   0   0 # oc23
    627     19   1 -0.550000    11.119779071     6.049868211    20.147973447   0   0   0 # oc23
    628     19   1 -0.550000    16.960091295     5.519489732    12.698180428   0   0   0 # oc23
    629     19   1 -0.550000    14.254038698     5.385495714    16.879542620   0   0   0 # oc23
    630     19   1 -0.550000    11.091823007     7.934203011    22.001732000   0   0   0 # oc23
    631     19   1 -0.550000     8.576453787     7.538072320    14.446222290   0   0   0 # oc23
    632     19   1 -0.550000    13.691117275     6.808168922    18.995560478   0   0   0 # oc23
    633     19   1 -0.550000     9.824911443     6.340589692    18.119728403   0   0   0 # oc23
    634     19   1 -0.550000    15.819615541     6.643767320    23.740212600   0   0   0 # oc23
    635     19   1 -0.550000    12.490354957     6.352240312    15.129956263   0   0   0 # oc23
    636     19   1 -0.550000    14.919862336     5.808048104    14.332445222   0   0   0 # oc23
    637     19   1 -0.550000     9.288576356     5.949347777    21.999390778   0   0   0 # oc23
    638     19   1 -0.550000    12.098051340     4.969514374    18.162527753   0   0   0 # oc23
    639     19   1 -0.550000     8.548264418     8.213125795    17.000578599   0   0   0 # oc23
    640     19   1 -0.550000    14.421196408     7.450099967    21.476101717   0   0   0 # oc23
    641     19   1 -0.550000    11.639571021     8.006882596    13.217952280   0   0   0 # oc23
    642     19   2  1.100000    16.499291896     6.005141506    14.161127656   0   0   0 # sc4
    643     19   2  1.100000    10.808456989     6.376265306    21.638677015   0   0   0 # sc4
    644     19   2  1.100000    13.630770082     5.341511366    18.360266566   0   0   0 # sc4
    645     19   2  1.100000     9.012385362     7.695400041    18.427533400   0   0   0 # sc4
    646     19   2  1.100000    14.770471431     7.897450036    23.025274373   0   0   0 # sc4
    647     19   2  1.100000    12.059376338     7.870117921    14.762257478   0   0   0 # sc4
    648     19   2  1.100000    11.549725988     8.992050150    23.141424011   0   0   0 # sc4
    649     19   2  1.100000     9.189978087     8.523300454    15.570221962   0   0   0 # sc4
    650     19   2  1.100000    14.640116361     7.757434038    19.857678194   0   0   0 # sc4
    651     19   2  1.100000    10.710206520     5.253261480    18.858139252   0   0   0 # sc4
    652     19   2  1.100000    16.860872091     5.309315703    23.246007144   0   0   0 # sc4
    653     19   2  1.100000    13.752914684     5.361876809    15.342663275   0   0   0 # sc4
    654     20   1 -0.550000    11.677670829    10.045462495    11.471970262   0   0   0 # oc23
    655     20   1 -0.550000    17.443577056    10.462165524     3.908613356   0   0   0 # oc23
    656     20   1 -0.550000    14.858244958     9.300879757     6.917981122   0   0   0 # oc23
    657     20   1 -0.550000    10.390928652    13.833723678     7.795367348   0   0   0 # oc23
    658     20   1 -0.550000    16.102052085    13.843520121    10.776134011   0   0   0 # oc23
    659     20   1 -0.550000    12.734460318    14.118708394     2.170793764   0   0   0 # oc23
    660     20   1 -0.550000    13.677913352    13.306469097    11.582930749   0   0   0 # oc23
    661     20   1 -0.550000    10.914651942    13.441430290     3.909233180   0   0   0 # oc23
    662     20   1 -0.550000    16.458380676    12.439318730     7.739548280   0   0   0 # oc23
    663     20   1 -0.550000    11.677879975    10.715865701     8.911141092   0   0   0 # oc23
    664     20   1 -0.550000    14.125522617     9.949069949     4.438362436   0   0   0 # oc23
    665     20   1 -0.550000    11.371712680    12.553949589    10.691902492   0   0   0 # oc23
    666     20   1 -0.550000     8.431645548    12.875809427     3.494535278   0   0   0 # oc23
    667     20   1 -0.550000    14.171175704    11.792383738     6.514451217   0   0   0 # oc23
    668     20   1 -0.550000    10.293644171    11.353236841     6.784634304   0   0   0 # oc23
    669     20   1 -0.550000    15.285894348    11.350412872    10.913217783   0   0   0 # oc23
    670     20   1 -0.550000    12.742345279    11.646975221     3.188596725   0   0   0 # oc23
    671     20   1 -0.550000    15.373017725    10.936354886     2.213789350   0   0   0 # oc23
    672     20   1 -0.550000     9.456048259    10.831073753    10.280851323   0   0   0 # oc23
    673     20   1 -0.550000    12.414394275     9.851123156     6.497566503   0   0   0 # oc23
    674     20   1 -0.550000     9.095750136    13.547293970     5.767959798   0   0   0 # oc23
    675     20   1 -0.550000    14.324152816    12.863738533     9.044327839   0   0   0 # oc23
    676     20   1 -0.550000    10.171827760    12.067901576     1.992597711   0   0   0 # oc23
    677     20   2  1.100000    16.987477247    11.514101787     2.763026284   0   0   0 # sc4
    678     20   2  1.100000    11.053867351    11.031528670    10.349316593   0   0   0 # sc4
    679     20   2  1.100000    13.904705591    10.249692427     6.058916982   0   0   0 # sc4
    680     20   2  1.100000     9.509198926    12.745718246     7.054503620   0   0   0 # sc4
    681     20   2  1.100000    14.841176534    12.851086068    10.574978553   0   0   0 # sc4
    682     20   2  1.100000    11.685499339    12.785890100     2.662664907   0   0   0 # sc4
    683     20   2  1.100000    12.097346742    13.489010069    11.747054964   0   0   0 # sc4
    684     20   2  1.100000     9.396978035    13.866301564     4.272991568   0   0   0 # sc4
    685     20   2  1.100000    14.925290488    12.812599325     7.555559109   0   0   0 # sc4
    686     20   2  1.100000    11.196542262    10.199338049     7.487369868   0   0   0 # sc4
    687     20   2  1.100000    16.536522225    10.379543249    11.160975013   0   0   0 # sc4
    688     20   2  1.100000    13.772895095    10.396241593     2.887316768   0   0   0 # sc4
    689     21   1 -0.550000    11.768447754    10.369413723    22.405268469   0   0   0 # oc23
    690     21   1 -0.550000    17.242121926    10.051917620    15.211258577   0   0   0 # oc23
    691     21   1 -0.550000    14.369851729     9.301408078    19.410125167   0   0   0 # oc23
    692     21   1 -0.550000     9.919158309    13.822296231    19.110998495   0   0   0 # oc23
    693     21   1 -0.550000    15.792099477    14.133988327    22.727169873   0   0   0 # oc23
    694     21   1 -0.550000    13.312968038    13.831061281    14.999699097   0   0   0 # oc23
    695     21   1 -0.550000    13.155342337    13.406831394    23.696099905   0   0   0 # oc23
    696     21   1 -0.550000    10.792710893    13.292392737    15.629470455   0   0   0 # oc23
    697     21   1 -0.550000    16.124821529    12.366582389    19.433288869   0   0   0 # oc23
    698     21   1 -0.550000    11.108708688    11.048364929    20.135478255   0   0   0 # oc23
    699     21   1 -0.550000    16.968504914    10.517395927    12.701257098   0   0   0 # oc23
    700     21   1 -0.550000    14.255441550    10.372095709    16.879021084   0   0   0 # oc23
    701     21   1 -0.550000    11.081570761    12.918545791    22.000066131   0   0   0 # oc23
    702     21   1 -0.550000     8.584823587    12.510029224    14.426074668   0   0   0 # oc23
    703     21   1 -0.550000    13.687591446    11.789000483    18.996844682   0   0   0 # oc23
    704     21   1 -0.550000     9.827673812    11.319029407    18.100243526   0   0   0 # oc23
    705     21   1 -0.550000    15.807316559    11.623206807    23.743436111   0   0   0 # oc23
    706     21   1 -0.550000    12.498652063    11.337081668    15.121244841   0   0   0 # oc23
    707     21   1 -0.550000    14.924404871    10.774455194    14.329072530   0   0   0 # oc23
    708     21   1 -0.550000     9.285546919    10.929814878    21.989440515   0   0   0 # oc23
    709     21   1 -0.550000    12.101373816     9.945372967    18.162931725   0   0   0 # oc23
    710     21   1 -0.550000     8.550867471    13.188743752    16.979932607   0   0   0 # oc23
    711     21   1 -0.550000    14.406466026    12.436107053    21.478119165   0   0   0 # oc23
    712     21   1 -0.550000    11.640941266    12.988356707    13.205767180   0   0   0 # oc23
    713     21   2  1.100000    16.501414920    10.987630211    14.166367728   0   0   0 # sc4
    714     21   2  1.100000    10.803238341    11.362562111    21.630926960   0   0   0 # sc4
    715     21   2  1.100000    13.632699674    10.322968319    18.360937569   0   0   0 # sc4
    716     21   2  1.100000     9.012072542    12.671356174    18.407653454   0   0   0 # sc4
    717     21   2  1.100000    14.760053824    12.878772073    23.028656582   0   0   0 # sc4
    718     21   2  1.100000    12.066945314    12.854611548    14.748944335   0   0   0 # sc4
    719     21   2  1.100000    11.540812174    13.974217367    23.141338419   0   0   0 # sc4
    720     21   2  1.100000     9.195381963    13.500515807    15.549143015   0   0   0 # sc4
    721     21   2  1.100000    14.628065899    12.745410612    19.860920028   0   0   0 # sc4
    722     21   2  1.100000    10.709218519    10.237874012    18.848799007   0   0   0 # sc4
    723     21   2  1.100000    16.856635702    10.293829388    23.250648071   0   0   0 # sc4
    724     21   2  1.100000    13.755961112    10.342425638    15.341955510   0   0   0 # sc4
    725     22   1 -0.550000    11.684959884    15.024280918    11.457973000   0   0   0 # oc23
    726     22   1 -0.550000    17.455181879    15.439093626     3.908153158   0   0   0 # oc23
    727     22   1 -0.550000    14.863238711    14.277160731     6.918052765   0   0   0 # oc23
    728     22   1 -0.550000    10.378497104    18.809951491     7.793182710   0   0   0 # oc23
    729     22   1 -0.550000    16.099618078    18.829333628    10.768077238   0   0   0 # oc23
    730     22   1 -0.550000    12.732595923    19.095049897     2.166032269   0   0   0 # oc23
    731     22   1 -0.550000    13.675762850    18.291695598    11.580800601   0   0   0 # oc23
    732     22   1 -0.550000    10.914723047    18.419701168     3.905959523   0   0   0 # oc23
    733     22   1 -0.550000    16.462920897    17.423636376     7.738763863   0   0   0 # oc23
    734     22   1 -0.550000    11.688026383    15.703338477     8.901835417   0   0   0 # oc23
    735     22   1 -0.550000    14.139052946    14.926959318     4.435705631   0   0   0 # oc23
    736     22   1 -0.550000    11.374639536    17.533489894    10.685370775   0   0   0 # oc23
    737     22   1 -0.550000     8.434615032    17.848905538     3.489769282   0   0   0 # oc23
    738     22   1 -0.550000    14.183967437    16.770570752     6.509255771   0   0   0 # oc23
    739     22   1 -0.550000    10.293543526    16.332174231     6.778140446   0   0   0 # oc23
    740     22   1 -0.550000    15.284504609    16.332450978    10.914417628   0   0   0 # oc23
    741     22   1 -0.550000    12.749313481    16.625445752     3.185977088   0   0   0 # oc23
    742     22   1 -0.550000    15.384125308    15.910879997     2.211796904   0   0   0 # oc23
    743     22   1 -0.550000     9.462381723    15.803933695    10.268421585   0   0   0 # oc23
    744     22   1 -0.550000    12.423161839    14.837534092     6.487041994   0   0   0 # oc23
    745     22   1 -0.550000     9.090143944    18.521645270     5.761554447   0   0   0 # oc23
    746     22   1 -0.550000    14.324807893    17.842125302     9.041125140   0   0   0 # oc23
    747     22   1 -0.550000    10.174295956    17.038240766     1.992599103   0   0   0 # oc23
    748     22   2  1.100000    16.997552544    16.487832119     2.760603646   0   0   0 # sc4
    749     22   2  1.100000    11.060410638    16.011586722    10.339022919   0   0   0 # sc4
    750     22   2  1.100000    13.915942381    15.227784208     6.055148265   0   0   0 # sc4
    751     22   2  1.100000     9.500494368    17.719518348     7.049176747   0   0   0 # sc4
    752     22   2  1.100000    14.839148974    17.833515792    10.571985854   0   0   0 # sc4
    753     22   2  1.100000    11.686713691    17.761462671     2.659587134   0   0   0 # sc4
    754     22   2  1.100000    12.093468554    18.469538378    11.746984458   0   0   0 # sc4
    755     22   2  1.100000     9.395964137    18.842810868     4.267270035   0   0   0 # sc4
    756     22   2  1.100000    14.929473449    17.792904482     7.553740873   0   0   0 # sc4
    757     22   2  1.100000    11.206688762    15.183919787     7.480296123   0   0   0 # sc4
    758     22   2  1.100000    16.533028381    15.357512936    11.160158212   0   0   0 # sc4
    759     22   2  1.100000    13.782851590    15.373961976     2.885781068   0   0   0 # sc4
    760     23   1 -0.550000    11.766381920    15.346389597    22.402180402   0   0   0 # oc23
    761     23   1 -0.550000    17.225448154    15.041379565    15.217726047   0   0   0 # oc23
    762     23   1 -0.550000    14.350751237    14.287943450    19.411511332   0   0   0 # oc23
    763     23   1 -0.550000     9.930059301    18.802276175    19.113542965   0   0   0 # oc23
    764     23   1 -0.550000    15.805489546    19.111842290    22.717412126   0   0   0 # oc23
    765     23   1 -0.550000    13.300477424    18.807381755    15.003619261   0   0   0 # oc23
    766     23   1 -0.550000    13.168928741    18.389959885    23.686509048   0   0   0 # oc23
    767     23   1 -0.550000    10.776477237    18.277614825    15.629200623   0   0   0 # oc23
    768     23   1 -0.550000    16.132844961    17.329677083    19.411003981   0   0   0 # oc23
    769     23   1 -0.550000    11.109893970    16.019952598    20.130758697   0   0   0 # oc23
    770     23   1 -0.550000    16.958550037    15.481311487    12.701872789   0   0   0 # oc23
    771     23   1 -0.550000    14.245869234    15.350249013    16.874523889   0   0   0 # oc23
    772     23   1 -0.550000    11.098850060    17.896668113    21.989770573   0   0   0 # oc23
    773     23   1 -0.550000     8.560717449    17.498873824    14.436339475   0   0   0 # oc23
    774     23   1 -0.550000    13.686147318    16.773040947    18.986968667   0   0   0 # oc23
    775     23   1 -0.550000     9.816346856    16.303877931    18.100835713   0   0   0 # oc23
    776     23   1 -0.550000    15.818273825    16.606115916    23.736499963   0   0   0 # oc23
    777     23   1 -0.550000    12.484138447    16.321614516    15.123004510   0   0   0 # oc23
    778     23   1 -0.550000    14.918337002    15.791978666    14.332220753   0   0   0 # oc23
    779     23   1 -0.550000     9.286726181    15.920743003    21.987568667   0   0   0 # oc23
    780     23   1 -0.550000    12.088394720    14.932194925    18.151669344   0   0   0 # oc23
    781     23   1 -0.550000     8.541801435    18.185514319    16.988436214   0   0   0 # oc23
    782     23   1 -0.550000    14.419959191    17.415155233    21.467049014   0   0   0 # oc23
    783     23   1 -0.550000    11.631224243    17.968887970    13.204835674   0   0   0 # oc23
    784     23   2  1.100000    16.499740313    15.976405612    14.162805310   0   0   0 # sc4
    785     23   2  1.100000    10.806568750    16.341702746    21.625348851   0   0   0 # sc4
    786     23   2  1.100000    13.619896456    15.306438267    18.354409801   0   0   0 # sc4
    787     23   2  1.100000     9.009134124    17.660721107    18.412897894   0   0   0 # sc4
    788     23   2  1.100000    14.772685028    17.859410363    23.017444346   0   0   0 # sc4
    789     23   2  1.100000    12.049751102    17.836993741    14.748234894   0   0   0 # sc4
    790     23   2  1.100000    11.552608636    18.952578925    23.134398291   0   0   0 # sc4
    791     23   2  1.100000     9.179518177    18.490413022    15.555126280   0   0   0 # sc4
    792     23   2  1.100000    14.640643109    17.720904755    19.847559748   0   0   0 # sc4
    793     23   2  1.100000    10.700216171    15.217720614    18.841919603   0   0   0 # sc4
    794     23   2  1.100000    16.858606891    15.270930238    23.247229340   0   0   0 # sc4
    795     23   2  1.100000    13.749900771    15.334836221    15.335918843   0   0   0 # sc4
    796     24   1 -0.550000    11.675344049    20.002998465    11.456729286   0   0   0 # oc23
    797     24   1 -0.550000    17.458734608    20.415922525     3.902406658   0   0   0 # oc23
    798     24   1 -0.550000    14.863129808    19.256287044     6.914047318   0   0   0 # oc23
    799     24   1 -0.550000    10.396567465    23.790979618     7.779966433   0   0   0 # oc23
    800     24   1 -0.550000    16.085015593    23.812604733    10.750926547   0   0   0 # oc23
    801     24   1 -0.550000    12.738776918    24.068650315     2.157838303   0   0   0 # oc23
    802     24   1 -0.550000    13.664305141    23.277804624    11.566077693   0   0   0 # oc23
    803     24   1 -0.550000    10.923106917    23.394373049     3.899186546   0   0   0 # oc23
    804     24   1 -0.550000    16.459222517    22.398111411     7.727412904   0   0   0 # oc23
    805     24   1 -0.550000    11.679462458    20.677124616     8.898509965   0   0   0 # oc23
    806     24   1 -0.550000    14.135666317    19.900777957     4.431190794   0   0   0 # oc23
    807     24   1 -0.550000    11.363299010    22.511858993    10.680011988   0   0   0 # oc23
    808     24   1 -0.550000     8.441526998    22.830041847     3.482132274   0   0   0 # oc23
    809     24   1 -0.550000    14.180334752    21.748433093     6.497721380   0   0   0 # oc23
    810     24   1 -0.550000    10.292196549    21.308274868     6.775581195   0   0   0 # oc23
    811     24   1 -0.550000    15.274155037    21.317456773    10.907854405   0   0   0 # oc23
    812     24   1 -0.550000    12.757980945    21.602583140     3.181144714   0   0   0 # oc23
    813     24   1 -0.550000    15.387058934    20.883968530     2.209479884   0   0   0 # oc23
    814     24   1 -0.550000     9.453738460    20.780749544    10.265096294   0   0   0 # oc23
    815     24   1 -0.550000    12.420782721    19.811004805     6.487160248   0   0   0 # oc23
    816     24   1 -0.550000     9.097472583    23.499008392     5.753148688   0   0   0 # oc23
    817     24   1 -0.550000    14.314982808    22.821242797     9.025200629   0   0   0 # oc23
    818     24   1 -0.550000    10.183119463    22.012004866     1.987243864   0   0   0 # oc23
    819     24   2  1.100000    16.998958424    21.464735197     2.756747194   0   0   0 # sc4
    820     24   2  1.100000    11.051049102    20.988711419    10.334490559   0   0   0 # sc4
    821     24   2  1.100000    13.912381079    20.204199684     6.049764354   0   0   0 # sc4
    822     24   2  1.100000     9.510695870    22.702829878     7.043637437   0   0   0 # sc4
    823     24   2  1.100000    14.825716997    22.816047462    10.557795975   0   0   0 # sc4
    824     24   2  1.100000    11.695452522    22.735446302     2.653824341   0   0   0 # sc4
    825     24   2  1.100000    12.083170150    23.450748640    11.736780777   0   0   0 # sc4
    826     24   2  1.100000     9.405002334    23.821091380     4.260080164   0   0   0 # sc4
    827     24   2  1.100000    14.925718675    22.770571450     7.539700670   0   0   0 # sc4
    828     24   2  1.100000    11.201149430    20.157642132     7.477689472   0   0   0 # sc4
    829     24   2  1.100000    16.526772762    20.345316579    11.150197975   0   0   0 # sc4
    830     24   2  1.100000    13.784882132    20.347082657     2.881420656   0   0   0 # sc4
    831     25   1 -0.550000    11.771573807    20.327938770    22.398726617   0   0   0 # oc23
    832     25   1 -0.550000    17.234312522    20.022431046    15.207673461   0   0   0 # oc23
    833     25   1 -0.550000    14.376252904    19.264177093    19.395913888   0   0   0 # oc23
    834     25   1 -0.550000     9.930556023    23.772080662    19.115443607   0   0   0 # oc23
    835     25   1 -0.550000    15.807723584    24.088270534    22.716820057   0   0   0 # oc23
    836     25   1 -0.550000    13.299128599    23.792662070    14.994849692   0   0   0 # oc23
    837     25   1 -0.550000    13.169329300    23.356976928    23.686995309   0   0   0 # oc23
    838     25   1 -0.550000    10.781073187    23.253413510    15.622167850   0   0   0 # oc23
    839     25   1 -0.550000    16.138512448    22.308221217    19.410082140   0   0   0 # oc23
    840     25   1 -0.550000    11.112778646    21.004821781    20.127976100   0   0   0 # oc23
    841     25   1 -0.550000    16.956851038    20.466498359    12.691199267   0   0   0 # oc23
    842     25   1 -0.550000    14.253551395    20.334237335    16.865083066   0   0   0 # oc23
    843     25   1 -0.550000    11.086708604    22.873009492    21.994979809   0   0   0 # oc23
    844     25   1 -0.550000     8.557311058    22.484980405    14.434652610   0   0   0 # oc23
    845     25   1 -0.550000    13.696814356    21.747944613    18.986060738   0   0   0 # oc23
    846     25   1 -0.550000     9.825491046    21.275162237    18.097666128   0   0   0 # oc23
    847     25   1 -0.550000    15.824685090    21.580413629    23.733339521   0   0   0 # oc23
    848     25   1 -0.550000    12.488604524    21.300756338    15.113260170   0   0   0 # oc23
    849     25   1 -0.550000    14.918543620    20.750950452    14.320215727   0   0   0 # oc23
    850     25   1 -0.550000     9.289981149    20.886830864    21.983892928   0   0   0 # oc23
    851     25   1 -0.550000    12.104076506    19.907411929    18.152791312   0   0   0 # oc23
    852     25   1 -0.550000     8.549638163    23.158049743    16.984768198   0   0   0 # oc23
    853     25   1 -0.550000    14.427198192    22.387085629    21.467578975   0   0   0 # oc23
    854     25   1 -0.550000    11.630410291    22.947310454    13.196250663   0   0   0 # oc23
    855     25   2  1.100000    16.497773351    20.951201776    14.154387013   0   0   0 # sc4
    856     25   2  1.100000    10.806705022    21.318734028    21.621853016   0   0   0 # sc4
    857     25   2  1.100000    13.635724763    20.284389641    18.347272690   0   0   0 # sc4
    858     25   2  1.100000     9.014630179    22.630391149    18.408211021   0   0   0 # sc4
    859     25   2  1.100000    14.775956579    22.832571343    23.018074635   0   0   0 # sc4
    860     25   2  1.100000    12.053937658    22.816649937    14.739196867   0   0   0 # sc4
    861     25   2  1.100000    11.549554865    23.921688823    23.140394974   0   0   0 # sc4
    862     25   2  1.100000     9.183869869    23.467804562    15.552605745   0   0   0 # sc4
    863     25   2  1.100000    14.646630197    22.696185021    19.848849238   0   0   0 # sc4
    864     25   2  1.100000    10.713562494    20.194892429    18.842557734   0   0   0 # sc4
    865     25   2  1.100000    16.867314363    20.248870779    23.243456526   0   0   0 # sc4
    866     25   2  1.100000    13.750169164    20.309892696    15.329765338   0   0   0 # sc4
    867     26   1 -0.550000    11.663904759    24.984563739    11.448561605   0   0   0 # oc23
    868     26   1 -0.550000    17.463682681    25.390771035     3.893832364   0   0   0 # oc23
    869     26   1 -0.550000    14.865790890    24.235854596     6.902245886   0   0   0 # oc23
    870     26   1 -0.550000    10.373741516    28.770606249     7.784559938   0   0   0 # oc23
    871     26   1 -0.550000    16.086816104    28.782994136    10.758955496   0   0   0 # oc23
    872     26   1 -0.550000    12.731188126    29.051182230     2.160472219   0   0   0 # oc23
    873     26   1 -0.550000    13.655174602    28.252723840    11.565518242   0   0   0 # oc23
    874     26   1 -0.550000    10.917470681    28.371097578     3.899074259   0   0   0 # oc23
    875     26   1 -0.550000    16.466391025    27.388204672     7.737044289   0   0   0 # oc23
    876     26   1 -0.550000    11.673178692    25.666452672     8.890923461   0   0   0 # oc23
    877     26   1 -0.550000    14.141195728    24.882413823     4.422286675   0   0   0 # oc23
    878     26   1 -0.550000    11.345694155    27.491677211    10.682246749   0   0   0 # oc23
    879     26   1 -0.550000     8.437255956    27.806827642     3.479057642   0   0   0 # oc23
    880     26   1 -0.550000    14.198458459    26.733580624     6.488655825   0   0   0 # oc23
    881     26   1 -0.550000    10.288692767    26.293021264     6.765985252   0   0   0 # oc23
    882     26   1 -0.550000    15.264095543    26.296452268    10.908602000   0   0   0 # oc23
    883     26   1 -0.550000    12.755794197    26.578388217     3.173487927   0   0   0 # oc23
    884     26   1 -0.550000    15.387687862    25.858821496     2.199574008   0   0   0 # oc23
    885     26   1 -0.550000     9.442562606    25.761174999    10.260990114   0   0   0 # oc23
    886     26   1 -0.550000    12.425879567    24.806765368     6.474721178   0   0   0 # oc23
    887     26   1 -0.550000     9.088031890    28.482513216     5.750676044   0   0   0 # oc23
    888     26   1 -0.550000    14.315870128    27.797823570     9.026303476   0   0   0 # oc23
    889     26   1 -0.550000    10.179127688    26.993181832     1.983568454   0   0   0 # oc23
    890     26   2  1.100000    17.000752425    26.437689124     2.747808692   0   0   0 # sc4
    891     26   2  1.100000    11.039305079    25.970612782    10.328147386   0   0   0 # sc4
    892     26   2  1.100000    13.921187731    25.190312917     6.040174232   0   0   0 # sc4
    893     26   2  1.100000     9.495724430    27.680974958     7.039571019   0   0   0 # sc4
    894     26   2  1.100000    14.821099668    27.794222950    10.560476961   0   0   0 # sc4
    895     26   2  1.100000    11.690842995    27.714818673     2.651651225   0   0   0 # sc4
    896     26   2  1.100000    12.073354728    28.425174791    11.740285103   0   0   0 # sc4
    897     26   2  1.100000     9.398751940    28.800797161     4.258055462   0   0   0 # sc4
    898     26   2  1.100000    14.932789393    27.754281712     7.542930364   0   0   0 # sc4
    899     26   2  1.100000    11.204665609    25.146644616     7.466110578   0   0   0 # sc4
    900     26   2  1.100000    16.513647184    25.321844444    11.147002632   0   0   0 # sc4
    901     26   2  1.100000    13.786663876    25.324914387     2.871971171   0   0   0 # sc4
    902     27   1 -0.550000    11.770530202    25.299957325    22.411247247   0   0   0 # oc23
    903     27   1 -0.550000    17.210798117    24.997471355    15.208828556   0   0   0 # oc23
    904     27   1 -0.550000    14.374355300    24.238961733    19.396887325   0   0   0 # oc23
    905     27   1 -0.550000     9.924635152    28.754524723    19.122459811   0   0   0 # oc23
    906     27   1 -0.550000    15.806348479    29.061588741    22.717096000   0   0   0 # oc23
    907     27   1 -0.550000    13.296089738    28.762900163    14.995043053   0   0   0 # oc23
    908     27   1 -0.550000    13.171694069    28.334923159    23.686873367   0   0   0 # oc23
    909     27   1 -0.550000    10.771381382    28.239808034    15.629031994   0   0   0 # oc23
    910     27   1 -0.550000    16.143817520    27.274282326    19.405987987   0   0   0 # oc23
    911     27   1 -0.550000    11.117771119    25.968493614    20.138620015   0   0   0 # oc23
    912     27   1 -0.550000    16.933856108    25.428097123    12.692239742   0   0   0 # oc23
    913     27   1 -0.550000    14.243857207    25.313344845    16.867112936   0   0   0 # oc23
    914     27   1 -0.550000    11.094832760    27.847296631    21.996218555   0   0   0 # oc23
    915     27   1 -0.550000     8.549418934    27.459934054    14.442621683   0   0   0 # oc23
    916     27   1 -0.550000    13.695897083    26.722331960    18.991010768   0   0   0 # oc23
    917     27   1 -0.550000     9.823107611    26.253485668    18.111289163   0   0   0 # oc23
    918     27   1 -0.550000    15.827607142    26.555992579    23.733964480   0   0   0 # oc23
    919     27   1 -0.550000    12.472542500    26.282889768    15.124570598   0   0   0 # oc23
    920     27   1 -0.550000    14.901408237    25.755252773    14.326132492   0   0   0 # oc23
    921     27   1 -0.550000     9.291228361    25.866935317    21.994276110   0   0   0 # oc23
    922     27   1 -0.550000    12.099100050    24.883289953    18.155053336   0   0   0 # oc23
    923     27   1 -0.550000     8.539776826    28.129117248    16.997305717   0   0   0 # oc23
    924     27   1 -0.550000    14.431500060    27.359734405    21.467157148   0   0   0 # oc23
    925     27   1 -0.550000    11.619914486    27.923234068    13.199905638   0   0   0 # oc23
    926     27   2  1.100000    16.482282958    25.930657433    14.153053786   0   0   0 # sc4
    927     27   2  1.100000    10.809572097    26.291243375    21.630638041   0   0   0 # sc4
    928     27   2  1.100000    13.629989301    25.259367294    18.350765516   0   0   0 # sc4
    929     27   2  1.100000     9.010292810    27.607967572    18.421345120   0   0   0 # sc4
    930     27   2  1.100000    14.777579751    27.807019249    23.017411897   0   0   0 # sc4
    931     27   2  1.100000    12.042367857    27.795955298    14.744059899   0   0   0 # sc4
    932     27   2  1.100000    11.554269800    28.901411283    23.137337910   0   0   0 # sc4
    933     27   2  1.100000     9.173036009    28.443182698    15.563787843   0   0   0 # sc4
    934     27   2  1.100000    14.652167394    27.667552830    19.848700505   0   0   0 # sc4
    935     27   2  1.100000    10.711023056    25.167519091    18.849726518   0   0   0 # sc4
    936     27   2  1.100000    16.873735598    25.225078484    23.240702812   0   0   0 # sc4
    937     27   2  1.100000    13.737246635    25.296147910    15.332208669   0   0   0 # sc4
    938     28   1 -0.550000    11.658289018    29.959184608    11.457319718   0   0   0 # oc23
    939     28   1 -0.550000    17.452200947    30.362655608     3.896695262   0   0   0 # oc23
    940     28   1 -0.550000    14.863320925    29.219599639     6.907147867   0   0   0 # oc23
    941     28   1 -0.550000    10.374235561    33.743765724     7.787466495   0   0   0 # oc23
    942     28   1 -0.550000    16.096720244    33.754153339    10.775095187   0   0   0 # oc23
    943     28   1 -0.550000    12.728625507    34.030015001     2.160435045   0   0   0 # oc23
    944     28   1 -0.550000    13.668093805    33.227895682    11.577566069   0   0   0 # oc23
    945     28   1 -0.550000    10.908159395    33.357323381     3.895484987   0   0   0 # oc23
    946     28   1 -0.550000    16.462672002    32.354068989     7.738780810   0   0   0 # oc23
    947     28   1 -0.550000    11.667212188    30.638820432     8.896746156   0   0   0 # oc23
    948     28   1 -0.550000    14.130211899    29.867023428     4.429846648   0   0   0 # oc23
    949     28   1 -0.550000    11.366441361    32.467073612    10.687140495   0   0   0 # oc23
    950     28   1 -0.550000     8.430292751    32.786114731     3.479464890   0   0   0 # oc23
    951     28   1 -0.550000    14.178149292    31.709617532     6.506253982   0   0   0 # oc23
    952     28   1 -0.550000    10.284675342    31.269069086     6.769069673   0   0   0 # oc23
    953     28   1 -0.550000    15.274088414    31.266083750    10.913230356   0   0   0 # oc23
    954     28   1 -0.550000    12.740606555    31.558766126     3.178048370   0   0   0 # oc23
    955     28   1 -0.550000    15.374478434    30.846167637     2.207691324   0   0   0 # oc23
    956     28   1 -0.550000     9.441808260    30.755310302    10.273906779   0   0   0 # oc23
    957     28   1 -0.550000    12.416899211    29.773869201     6.487859141   0   0   0 # oc23
    958     28   1 -0.550000     9.085814365    33.463179085     5.750452246   0   0   0 # oc23
    959     28   1 -0.550000    14.321684633    32.778344608     9.038908384   0   0   0 # oc23
    960     28   1 -0.550000    10.171331261    31.978047656     1.978711916   0   0   0 # oc23
    961     28   2  1.100000    16.989312480    31.417456119     2.755844908   0   0   0 # sc4
    962     28   2  1.100000    11.041009125    30.949313980    10.335783292   0   0   0 # sc4
    963     28   2  1.100000    13.909475989    30.167964260     6.049137884   0   0   0 # sc4
    964     28   2  1.100000     9.494334791    32.658405010     7.037787953   0   0   0 # sc4
    965     28   2  1.100000    14.831404247    32.766591234    10.572060809   0   0   0 # sc4
    966     28   2  1.100000    11.682930223    32.697051685     2.650410235   0   0   0 # sc4
    967     28   2  1.100000    12.085905490    33.400546515    11.748498888   0   0   0 # sc4
    968     28   2  1.100000     9.389847332    33.781375616     4.257225808   0   0   0 # sc4
    969     28   2  1.100000    14.929385734    32.726866521     7.551438083   0   0   0 # sc4
    970     28   2  1.100000    11.194182213    30.120296039     7.473137403   0   0   0 # sc4
    971     28   2  1.100000    16.524298320    30.292096616    11.149865898   0   0   0 # sc4
    972     28   2  1.100000    13.775204789    30.308727370     2.879719925   0   0   0 # sc4
    973     29   1 -0.550000    11.774043421    30.276552768    22.401258008   0   0   0 # oc23
    974     29   1 -0.550000    17.227381377    29.967170480    15.208184175   0   0   0 # oc23
    975     29   1 -0.550000    14.379083074    29.209801781    19.400263341   0   0   0 # oc23
    976     29   1 -0.550000     9.935672078    33.722560071    19.119929457   0   0   0 # oc23
    977     29   1 -0.550000    15.809531313    34.038138168    22.723138154   0   0   0 # oc23
    978     29   1 -0.550000    13.305321842    33.727363567    15.010465083   0   0   0 # oc23
    979     29   1 -0.550000    13.174563114    33.304235432    23.693155812   0   0   0 # oc23
    980     29   1 -0.550000    10.779581721    33.209943002    15.632549336   0   0   0 # oc23
    981     29   1 -0.550000    16.142577127    32.245204986    19.408938360   0   0   0 # oc23
    982     29   1 -0.550000    11.110282435    30.957396928    20.132768991   0   0   0 # oc23
    983     29   1 -0.550000    16.948696457    30.402647914    12.692822862   0   0   0 # oc23
    984     29   1 -0.550000    14.247753881    30.276702773    16.869999961   0   0   0 # oc23
    985     29   1 -0.550000    11.098494840    32.825392249    21.997997462   0   0   0 # oc23
    986     29   1 -0.550000     8.564286648    32.431347450    14.438196578   0   0   0 # oc23
    987     29   1 -0.550000    13.696382188    31.691744518    18.992537497   0   0   0 # oc23
    988     29   1 -0.550000     9.824341687    31.227700089    18.102827500   0   0   0 # oc23
    989     29   1 -0.550000    15.833089874    31.527300119    23.738416500   0   0   0 # oc23
    990     29   1 -0.550000    12.481151967    31.249928630    15.128178216   0   0   0 # oc23
    991     29   1 -0.550000    14.911859821    30.715792003    14.327560807   0   0   0 # oc23
    992     29   1 -0.550000     9.292621944    30.845436050    21.993461627   0   0   0 # oc23
    993     29   1 -0.550000    12.099018238    29.852355567    18.160895850   0   0   0 # oc23
    994     29   1 -0.550000     8.546783078    33.108260114    16.994003313   0   0   0 # oc23
    995     29   1 -0.550000    14.433881036    32.330237843    21.472493977   0   0   0 # oc23
    996     29   1 -0.550000    11.632305508    32.894272241    13.206333684   0   0   0 # oc23
    997     29   2  1.100000    16.494105611    30.899212047    14.155265076   0   0   0 # sc4
    998     29   2  1.100000    10.810375344    31.271280998    21.628685747   0   0   0 # sc4
    999     29   2  1.100000    13.632277836    30.227519205    18.353896369   0   0   0 # sc4
   1000     29   2  1.100000     9.015519855    32.583016666    18.416470373   0   0   0 # sc4
   1001     29   2  1.100000    14.782427135    32.779233375    23.023477693   0   0   0 # sc4
   1002     29   2  1.100000    12.051629801    32.764131812    14.751123826   0   0   0 # sc4
   1003     29   2  1.100000    11.555905623    33.874257250    23.144050387   0   0   0 # sc4
   1004     29   2  1.100000     9.181704353    33.418778557    15.560084970   0   0   0 # sc4
   1005     29   2  1.100000    14.652231926    32.637118652    19.852656911   0   0   0 # sc4
   1006     29   2  1.100000    10.709231707    30.146192795    18.848960224   0   0   0 # sc4
   1007     29   2  1.100000    16.874076896    30.193507663    23.241718566   0   0   0 # sc4
   1008     29   2  1.100000    13.744461871    30.261493727    15.335316290   0   0   0 # sc4
   1009     30   1 -0.550000    20.021341900     0.094988194    11.456082604   0   0   0 # oc23
   1010     30   1 -0.550000    25.792506158     0.501890358     3.890509291   0   0   0 # oc23
   1011     30   1 -0.550000    23.206768820    34.192354266     6.904904844   0  -1   0 # oc23
   1012     30   1 -0.550000    18.721065015     3.890375932     7.789838759   0   0   0 # oc23
   1013     30   1 -0.550000    24.437032794     3.887801310    10.768303774   0   0   0 # oc23
   1014     30   1 -0.550000    21.060866158     4.174750490     2.169153905   0   0   0 # oc23
   1015     30   1 -0.550000    22.013748406     3.347703456    11.577305401   0   0   0 # oc23
   1016     30   1 -0.550000    19.243572281     3.498618954     3.911161363   0   0   0 # oc23
   1017     30   1 -0.550000    24.803241423     2.496113061     7.728920699   0   0   0 # oc23
   1018     30   1 -0.550000    20.021362028     0.779599763     8.900673396   0   0   0 # oc23
   1019     30   1 -0.550000    22.465831808    -0.002489890     4.428373980   0   0   0 # oc23
   1020     30   1 -0.550000    19.704515939     2.604045440    10.691578103   0   0   0 # oc23
   1021     30   1 -0.550000    16.765740032     2.926993514     3.492650882   0   0   0 # oc23
   1022     30   1 -0.550000    22.526077904     1.842698243     6.497535576   0   0   0 # oc23
   1023     30   1 -0.550000    18.633720595     1.411392350     6.776787410   0   0   0 # oc23
   1024     30   1 -0.550000    23.624190010     1.394653157    10.900664917   0   0   0 # oc23
   1025     30   1 -0.550000    21.080872104     1.703639014     3.187049032   0   0   0 # oc23
   1026     30   1 -0.550000    23.710150000     0.980940460     2.204207019   0   0   0 # oc23
   1027     30   1 -0.550000    17.797845060     0.873730108    10.272669326   0   0   0 # oc23
   1028     30   1 -0.550000    20.761936437    -0.088915066     6.488999638   0   0   0 # oc23
   1029     30   1 -0.550000    17.419482517     3.593770044     5.764247640   0   0   0 # oc23
   1030     30   1 -0.550000    22.662829879     2.911178552     9.033970626   0   0   0 # oc23
   1031     30   1 -0.550000    18.507161145     2.120739577     1.994446027   0   0   0 # oc23
   1032     30   2  1.100000    25.326003690     1.554694802     2.748618979   0   0   0 # sc4
   1033     30   2  1.100000    19.394470932     1.083121363    10.338412544   0   0   0 # sc4
   1034     30   2  1.100000    22.252742595     0.299865331     6.047759073   0   0   0 # sc4
   1035     30   2  1.100000    17.841814189     2.797816119     7.051651650   0   0   0 # sc4
   1036     30   2  1.100000    23.175715018     2.895538517    10.566723626   0   0   0 # sc4
   1037     30   2  1.100000    20.017995280     2.841582063     2.664839219   0   0   0 # sc4
   1038     30   2  1.100000    20.432597006     3.537903101    11.745474062   0   0   0 # sc4
   1039     30   2  1.100000    17.724272853     3.920138672     4.272278683   0   0   0 # sc4
   1040     30   2  1.100000    23.269550349     2.864183131     7.544651058   0   0   0 # sc4
   1041     30   2  1.100000    19.543133266     0.260711873     7.478551242   0   0   0 # sc4
   1042     30   2  1.100000    24.874922842     0.423677094    11.144347432   0   0   0 # sc4
   1043     30   2  1.100000    22.109358346     0.449123059     2.880892917   0   0   0 # sc4
   1044     31   1 -0.550000    20.124119860     0.428550422    22.413275850   0   0   0 # oc23
   1045     31   1 -0.550000    25.566542164     0.103018146    15.203809574   0   0   0 # oc23
   1046     31   1 -0.550000    22.722409339    34.193488380    19.384048089   0  -1   0 # oc23
   1047     31   1 -0.550000    18.266867658     3.891945707    19.131328744   0   0   0 # oc23
   1048     31   1 -0.550000    24.143717891     4.177132141    22.712777270   0   0   0 # oc23
   1049     31   1 -0.550000    21.638613875     3.855210130    15.019732643   0   0   0 # oc23
   1050     31   1 -0.550000    21.511915094     3.460435512    23.688748095   0   0   0 # oc23
   1051     31   1 -0.550000    19.119974932     3.315009832    15.640138599   0   0   0 # oc23
   1052     31   1 -0.550000    24.476640194     2.399798964    19.415097860   0   0   0 # oc23
   1053     31   1 -0.550000    19.473903081     1.095313397    20.141150944   0   0   0 # oc23
   1054     31   1 -0.550000    25.302620905     0.550563785    12.686712945   0   0   0 # oc23
   1055     31   1 -0.550000    22.593592377     0.427235797    16.858289217   0   0   0 # oc23
   1056     31   1 -0.550000    19.444631671     2.979430557    21.996327267   0   0   0 # oc23
   1057     31   1 -0.550000    16.891228844     2.568659373    14.455394697   0   0   0 # oc23
   1058     31   1 -0.550000    22.039631008     1.840924310    18.979128606   0   0   0 # oc23
   1059     31   1 -0.550000    18.175141348     1.388279301    18.117276272   0   0   0 # oc23
   1060     31   1 -0.550000    24.163197541     1.668621925    23.726400138   0   0   0 # oc23
   1061     31   1 -0.550000    20.825872355     1.370038619    15.097323681   0   0   0 # oc23
   1062     31   1 -0.550000    23.258675644     0.834999091    14.310378469   0   0   0 # oc23
   1063     31   1 -0.550000    17.644391176     0.993872849    21.997005992   0   0   0 # oc23
   1064     31   1 -0.550000    20.444714305     0.004428755    18.152217898   0   0   0 # oc23
   1065     31   1 -0.550000    16.887561067     3.257049301    17.007001442   0   0   0 # oc23
   1066     31   1 -0.550000    22.758744346     2.485218080    21.463996824   0   0   0 # oc23
   1067     31   1 -0.550000    19.966832872     3.047971003    13.206409204   0   0   0 # oc23
   1068     31   2  1.100000    24.837502032     1.034381148    14.147552452   0   0   0 # sc4
   1069     31   2  1.100000    19.162691084     1.421058443    21.632405574   0   0   0 # sc4
   1070     31   2  1.100000    21.978885674     0.375679547    18.341104967   0   0   0 # sc4
   1071     31   2  1.100000    17.357351360     2.740031435    18.431920577   0   0   0 # sc4
   1072     31   2  1.100000    23.113023102     2.925137439    23.013918004   0   0   0 # sc4
   1073     31   2  1.100000    20.390499566     2.889859866    14.747070111   0   0   0 # sc4
   1074     31   2  1.100000    19.896611832     4.033623314    23.141641851   0   0   0 # sc4
   1075     31   2  1.100000    17.527056413     3.550357305    15.571094269   0   0   0 # sc4
   1076     31   2  1.100000    22.984302276     2.791741227    19.845960866   0   0   0 # sc4
   1077     31   2  1.100000    19.060156742     0.297737260    18.852793875   0   0   0 # sc4
   1078     31   2  1.100000    25.206059238     0.333519716    23.233055645   0   0   0 # sc4
   1079     31   2  1.100000    22.092401115     0.387256344    15.322735304   0   0   0 # sc4
   1080     32   1 -0.550000    20.027444243     5.073114310    11.452701531   0   0   0 # oc23
   1081     32   1 -0.550000    25.785104400     5.484705373     3.891550255   0   0   0 # oc23
   1082     32   1 -0.550000    23.202606882     4.330405237     6.907661554   0   0   0 # oc23
   1083     32   1 -0.550000    18.715785482     8.867396981     7.793347242   0   0   0 # oc23
   1084     32   1 -0.550000    24.429389049     8.861778706    10.773456297   0   0   0 # oc23
   1085     32   1 -0.550000    21.062735549     9.147590583     2.167939815   0   0   0 # oc23
   1086     32   1 -0.550000    22.008665546     8.325671718    11.580437603   0   0   0 # oc23
   1087     32   1 -0.550000    19.243562180     8.478207627     3.910307463   0   0   0 # oc23
   1088     32   1 -0.550000    24.799125437     7.469933680     7.732457066   0   0   0 # oc23
   1089     32   1 -0.550000    20.023787572     5.755016307     8.893973236   0   0   0 # oc23
   1090     32   1 -0.550000    22.470887301     4.982208770     4.430441334   0   0   0 # oc23
   1091     32   1 -0.550000    19.707086983     7.581491720    10.686851988   0   0   0 # oc23
   1092     32   1 -0.550000    16.762205949     7.912237448     3.492813050   0   0   0 # oc23
   1093     32   1 -0.550000    22.515854389     6.819831834     6.505770216   0   0   0 # oc23
   1094     32   1 -0.550000    18.637406513     6.391268461     6.772552576   0   0   0 # oc23
   1095     32   1 -0.550000    23.610186053     6.369605533    10.903410374   0   0   0 # oc23
   1096     32   1 -0.550000    21.078186724     6.680762496     3.188800453   0   0   0 # oc23
   1097     32   1 -0.550000    23.708383033     5.964738246     2.204437740   0   0   0 # oc23
   1098     32   1 -0.550000    17.801420936     5.847801490    10.271130190   0   0   0 # oc23
   1099     32   1 -0.550000    20.760987371     4.885969750     6.485953699   0   0   0 # oc23
   1100     32   1 -0.550000    17.419478911     8.577392483     5.763734064   0   0   0 # oc23
   1101     32   1 -0.550000    22.657040109     7.892092125     9.038486114   0   0   0 # oc23
   1102     32   1 -0.550000    18.504152658     7.094415695     1.997988582   0   0   0 # oc23
   1103     32   2  1.100000    25.324415751     6.537811054     2.749000509   0   0   0 # sc4
   1104     32   2  1.100000    19.398092558     6.059864126    10.334233967   0   0   0 # sc4
   1105     32   2  1.100000    22.250645986     5.279544071     6.049080745   0   0   0 # sc4
   1106     32   2  1.100000    17.839282166     7.774559303     7.048565129   0   0   0 # sc4
   1107     32   2  1.100000    23.167817765     7.871356248    10.569888623   0   0   0 # sc4
   1108     32   2  1.100000    20.015873001     7.817463816     2.664833180   0   0   0 # sc4
   1109     32   2  1.100000    20.428926632     8.515007446    11.746962570   0   0   0 # sc4
   1110     32   2  1.100000    17.724443971     8.903885225     4.271696430   0   0   0 # sc4
   1111     32   2  1.100000    23.265516916     7.840396132     7.550413959   0   0   0 # sc4
   1112     32   2  1.100000    19.543644052     5.238070218     7.473301920   0   0   0 # sc4
   1113     32   2  1.100000    24.862347904     5.402612332    11.148889023   0   0   0 # sc4
   1114     32   2  1.100000    22.110021881     5.429223593     2.883401249   0   0   0 # sc4
   1115     33   1 -0.550000    20.113447405     5.415414260    22.414576443   0   0   0 # oc23
   1116     33   1 -0.550000    25.566141692     5.077501976    15.203843389   0   0   0 # oc23
   1117     33   1 -0.550000    22.714960194     4.336987688    19.394449316   0   0   0 # oc23
   1118     33   1 -0.550000    18.257382396     8.868926452    19.133758405   0   0   0 # oc23
   1119     33   1 -0.550000    24.131992794     9.154540540    22.721527012   0   0   0 # oc23
   1120     33   1 -0.550000    21.627853011     8.838172391    15.013156592   0   0   0 # oc23
   1121     33   1 -0.550000    21.500536276     8.432866750    23.699581702   0   0   0 # oc23
   1122     33   1 -0.550000    19.115243725     8.292135825    15.639981861   0   0   0 # oc23
   1123     33   1 -0.550000    24.462649368     7.382106642    19.422343524   0   0   0 # oc23
   1124     33   1 -0.550000    19.458189298     6.088891466    20.143775904   0   0   0 # oc23
   1125     33   1 -0.550000    25.290559708     5.531465181    12.689653274   0   0   0 # oc23
   1126     33   1 -0.550000    22.582454349     5.408828727    16.864890287   0   0   0 # oc23
   1127     33   1 -0.550000    19.421239747     7.961409359    22.008472913   0   0   0 # oc23
   1128     33   1 -0.550000    16.891660143     7.543891727    14.454377305   0   0   0 # oc23
   1129     33   1 -0.550000    22.027472558     6.823675453    18.988654222   0   0   0 # oc23
   1130     33   1 -0.550000    18.168267819     6.368687357    18.115006348   0   0   0 # oc23
   1131     33   1 -0.550000    24.153515323     6.644253901    23.733465253   0   0   0 # oc23
   1132     33   1 -0.550000    20.817055587     6.347458013    15.100352609   0   0   0 # oc23
   1133     33   1 -0.550000    23.247657597     5.796748285    14.315661657   0   0   0 # oc23
   1134     33   1 -0.550000    17.630469023     5.969049812    21.997755327   0   0   0 # oc23
   1135     33   1 -0.550000    20.437178750     4.986964849    18.161539355   0   0   0 # oc23
   1136     33   1 -0.550000    16.881716147     8.237307954    17.004627532   0   0   0 # oc23
   1137     33   1 -0.550000    22.742979343     7.465482152    21.471323728   0   0   0 # oc23
   1138     33   1 -0.550000    19.961544719     8.020830148    13.204926626   0   0   0 # oc23
   1139     33   2  1.100000    24.825188237     6.005890395    14.152922957   0   0   0 # sc4
   1140     33   2  1.100000    19.146742031     6.405749802    21.636984564   0   0   0 # sc4
   1141     33   2  1.100000    21.969732591     5.359655345    18.349223057   0   0   0 # sc4
   1142     33   2  1.100000    17.350355320     7.718303083    18.428741584   0   0   0 # sc4
   1143     33   2  1.100000    23.101688731     7.901277811    23.021707045   0   0   0 # sc4
   1144     33   2  1.100000    20.383191677     7.866962420    14.746203298   0   0   0 # sc4
   1145     33   2  1.100000    19.885096232     9.009081454    23.154531372   0   0   0 # sc4
   1146     33   2  1.100000    17.523504128     8.526929901    15.571108090   0   0   0 # sc4
   1147     33   2  1.100000    22.969852154     7.774194981    19.854645065   0   0   0 # sc4
   1148     33   2  1.100000    19.052418707     5.283408719    18.857429867   0   0   0 # sc4
   1149     33   2  1.100000    25.202866113     5.314982286    23.238730124   0   0   0 # sc4
   1150     33   2  1.100000    22.080611609     5.362720600    15.330516943   0   0   0 # sc4
   1151     34   1 -0.550000    20.025676188    10.051836040    11.457351830   0   0   0 # oc23
   1152     34   1 -0.550000    25.786701599    10.461748417     3.895467608   0   0   0 # oc23
   1153     34   1 -0.550000    23.204076337     9.303559959     6.909603842   0   0   0 # oc23
   1154     34   1 -0.550000    18.715713322    13.844557761     7.793819687   0   0   0 # oc23
   1155     34   1 -0.550000    24.417799403    13.835823461    10.783547051   0   0   0 # oc23
   1156     34   1 -0.550000    21.069891994    14.122678577     2.170398623   0   0   0 # oc23
   1157     34   1 -0.550000    21.992245394    13.294065148    11.588176086   0   0   0 # oc23
   1158     34   1 -0.550000    19.251547396    13.451478811     3.908932288   0   0   0 # oc23
   1159     34   1 -0.550000    24.800670643    12.455475844     7.749905791   0   0   0 # oc23
   1160     34   1 -0.550000    20.022747654    10.733953777     8.898801810   0   0   0 # oc23
   1161     34   1 -0.550000    22.472597192     9.953938283     4.430982488   0   0   0 # oc23
   1162     34   1 -0.550000    19.688612162    12.560899040    10.696151759   0   0   0 # oc23
   1163     34   1 -0.550000    16.768008136    12.894378298     3.494166616   0   0   0 # oc23
   1164     34   1 -0.550000    22.529201638    11.795005352     6.506341250   0   0   0 # oc23
   1165     34   1 -0.550000    18.643892740    11.367879286     6.774987083   0   0   0 # oc23
   1166     34   1 -0.550000    23.600992420    11.344221596    10.906294087   0   0   0 # oc23
   1167     34   1 -0.550000    21.080918871    11.651843981     3.186983382   0   0   0 # oc23
   1168     34   1 -0.550000    23.711477503    10.939755221     2.206328864   0   0   0 # oc23
   1169     34   1 -0.550000    17.801068024    10.816976802    10.271881809   0   0   0 # oc23
   1170     34   1 -0.550000    20.763035861     9.861268635     6.492537846   0   0   0 # oc23
   1171     34   1 -0.550000    17.428618910    13.555845217     5.764340744   0   0   0 # oc23
   1172     34   1 -0.550000    22.649379956    12.866809603     9.041634042   0   0   0 # oc23
   1173     34   1 -0.550000    18.507768333    12.075519298     1.995171746   0   0   0 # oc23
   1174     34   2  1.100000    25.326222880    11.514719046     2.753423495   0   0   0 # sc4
   1175     34   2  1.100000    19.394326087    11.037242089    10.338339019   0   0   0 # sc4
   1176     34   2  1.100000    22.254658479    10.253643408     6.051031878   0   0   0 # sc4
   1177     34   2  1.100000    17.843347070    12.750497115     7.048900122   0   0   0 # sc4
   1178     34   2  1.100000    23.155097351    12.845974220    10.576056475   0   0   0 # sc4
   1179     34   2  1.100000    20.021773224    12.792029727     2.662849270   0   0   0 # sc4
   1180     34   2  1.100000    20.412971492    13.495456009    11.752413090   0   0   0 # sc4
   1181     34   2  1.100000    17.734161755    13.881955074     4.273589770   0   0   0 # sc4
   1182     34   2  1.100000    23.266254595    12.816993049     7.557078932   0   0   0 # sc4
   1183     34   2  1.100000    19.544429827    10.213149036     7.478862362   0   0   0 # sc4
   1184     34   2  1.100000    24.852818861    10.376667581    11.153602619   0   0   0 # sc4
   1185     34   2  1.100000    22.112980413    10.401049913     2.883118730   0   0   0 # sc4
   1186     35   1 -0.550000    20.109223102    10.388233282    22.425354683   0   0   0 # oc23
   1187     35   1 -0.550000    25.538208029    10.054784202    15.209804630   0   0   0 # oc23
   1188     35   1 -0.550000    22.698068843     9.315573015    19.400772877   0   0   0 # oc23
   1189     35   1 -0.550000    18.261439922    13.851042197    19.138687808   0   0   0 # oc23
   1190     35   1 -0.550000    24.138942824    14.133669584    22.723800043   0   0   0 # oc23
   1191     35   1 -0.550000    21.622713488    13.817139312    15.015236548   0   0   0 # oc23
   1192     35   1 -0.550000    21.504558727    13.411306147    23.699148676   0   0   0 # oc23
   1193     35   1 -0.550000    19.105013283    13.288421629    15.649793069   0   0   0 # oc23
   1194     35   1 -0.550000    24.466432498    12.348050377    19.414879944   0   0   0 # oc23
   1195     35   1 -0.550000    19.458333765    11.056207389    20.151051187   0   0   0 # oc23
   1196     35   1 -0.550000    25.274503110    10.501890666    12.696034906   0   0   0 # oc23
   1197     35   1 -0.550000    22.570210342    10.380217095    16.863804492   0   0   0 # oc23
   1198     35   1 -0.550000    19.430565915    12.936584271    22.007302296   0   0   0 # oc23
   1199     35   1 -0.550000    16.879476830    12.529673664    14.469694727   0   0   0 # oc23
   1200     35   1 -0.550000    22.024469629    11.800226692    18.988165491   0   0   0 # oc23
   1201     35   1 -0.550000    18.152309710    11.350851381    18.126452580   0   0   0 # oc23
   1202     35   1 -0.550000    24.154424461    11.623925601    23.738747762   0   0   0 # oc23
   1203     35   1 -0.550000    20.799271234    11.332752884    15.108632482   0   0   0 # oc23
   1204     35   1 -0.550000    23.228147001    10.790560601    14.318606528   0   0   0 # oc23
   1205     35   1 -0.550000    17.629780149    10.955315923    22.005203427   0   0   0 # oc23
   1206     35   1 -0.550000    20.422359975     9.968791672    18.160730333   0   0   0 # oc23
   1207     35   1 -0.550000    16.874385357    13.229767898    17.016893517   0   0   0 # oc23
   1208     35   1 -0.550000    22.752909347    12.440037087    21.472446139   0   0   0 # oc23
   1209     35   1 -0.550000    19.941845679    13.011059455    13.212378712   0   0   0 # oc23
   1210     35   2  1.100000    24.807914888    10.986345644    14.155536583   0   0   0 # sc4
   1211     35   2  1.100000    19.149078599    11.380699259    21.642862691   0   0   0 # sc4
   1212     35   2  1.100000    21.956430805    10.336335084    18.349715615   0   0   0 # sc4
   1213     35   2  1.100000    17.343659240    12.706619924    18.440938715   0   0   0 # sc4
   1214     35   2  1.100000    23.107345979    12.880319453    23.024981011   0   0   0 # sc4
   1215     35   2  1.100000    20.369344748    12.854000276    14.752722023   0   0   0 # sc4
   1216     35   2  1.100000    19.889922012    13.987301662    23.151603508   0   0   0 # sc4
   1217     35   2  1.100000    17.512088114    13.518142241    15.580858945   0   0   0 # sc4
   1218     35   2  1.100000    22.976181198    12.744455915    19.852365382   0   0   0 # sc4
   1219     35   2  1.100000    19.039916435    10.262229225    18.862363275   0   0   0 # sc4
   1220     35   2  1.100000    25.197579097    10.289159307    23.244105793   0   0   0 # sc4
   1221     35   2  1.100000    22.063836002    10.346356313    15.330082830   0   0   0 # sc4
   1222     36   1 -0.550000    20.020047065    15.033665157    11.456265019   0   0   0 # oc23
   1223     36   1 -0.550000    25.796509537    15.433968111     3.904771284   0   0   0 # oc23
   1224     36   1 -0.550000    23.202212038    14.280678417     6.915236934   0   0   0 # oc23
   1225     36   1 -0.550000    18.725000817    18.820470987     7.788766321   0   0   0 # oc23
   1226     36   1 -0.550000    24.425361256    18.818401578    10.760650028   0   0   0 # oc23
   1227     36   1 -0.550000    21.077500901    19.097906638     2.165868457   0   0   0 # oc23
   1228     36   1 -0.550000    22.000147651    18.290102071    11.571555616   0   0   0 # oc23
   1229     36   1 -0.550000    19.257106778    18.431144329     3.904749458   0   0   0 # oc23
   1230     36   1 -0.550000    24.801409795    17.423581137     7.738232939   0   0   0 # oc23
   1231     36   1 -0.550000    20.018893217    15.710693519     8.898713876   0   0   0 # oc23
   1232     36   1 -0.550000    22.474175557    14.927787976     4.434356658   0   0   0 # oc23
   1233     36   1 -0.550000    19.694914361    17.541781648    10.687792255   0   0   0 # oc23
   1234     36   1 -0.550000    16.775551401    17.869575999     3.487103162   0   0   0 # oc23
   1235     36   1 -0.550000    22.526499223    16.771155270     6.501381008   0   0   0 # oc23
   1236     36   1 -0.550000    18.640379565    16.345468899     6.772738492   0   0   0 # oc23
   1237     36   1 -0.550000    23.602148849    16.326846388    10.906988267   0   0   0 # oc23
   1238     36   1 -0.550000    21.089597209    16.629721730     3.187566100   0   0   0 # oc23
   1239     36   1 -0.550000    23.722812774    15.908352092     2.212584660   0   0   0 # oc23
   1240     36   1 -0.550000    17.797534151    15.804332002    10.273549574   0   0   0 # oc23
   1241     36   1 -0.550000    20.760976876    14.838914768     6.490817264   0   0   0 # oc23
   1242     36   1 -0.550000    17.433669831    18.534990650     5.760421784   0   0   0 # oc23
   1243     36   1 -0.550000    22.653544774    17.839267421     9.032699604   0   0   0 # oc23
   1244     36   1 -0.550000    18.517340156    17.049003726     1.993163256   0   0   0 # oc23
   1245     36   2  1.100000    25.338671173    16.483666973     2.759208904   0   0   0 # sc4
   1246     36   2  1.100000    19.392272226    16.018840587    10.336938338   0   0   0 # sc4
   1247     36   2  1.100000    22.253103417    15.229258093     6.052227404   0   0   0 # sc4
   1248     36   2  1.100000    17.846678083    17.730697398     7.045608680   0   0   0 # sc4
   1249     36   2  1.100000    23.161300135    17.828250431    10.565176803   0   0   0 # sc4
   1250     36   2  1.100000    20.029874413    17.768035826     2.661254539   0   0   0 # sc4
   1251     36   2  1.100000    20.419979046    18.476682510    11.742018790   0   0   0 # sc4
   1252     36   2  1.100000    17.738805431    18.859351676     4.267939255   0   0   0 # sc4
   1253     36   2  1.100000    23.268162652    17.791895677     7.548113755   0   0   0 # sc4
   1254     36   2  1.100000    19.541557560    15.190885730     7.477032657   0   0   0 # sc4
   1255     36   2  1.100000    24.850461591    15.351845460    11.154187600   0   0   0 # sc4
   1256     36   2  1.100000    22.119998743    15.375821613     2.886063349   0   0   0 # sc4
   1257     37   1 -0.550000    20.114596849    15.366313946    22.422503850   0   0   0 # oc23
   1258     37   1 -0.550000    25.544828137    15.029462039    15.209155501   0   0   0 # oc23
   1259     37   1 -0.550000    22.712415951    14.287836650    19.399526241   0   0   0 # oc23
   1260     37   1 -0.550000    18.267640356    18.826833745    19.129277125   0   0   0 # oc23
   1261     37   1 -0.550000    24.149472460    19.108180852    22.718065392   0   0   0 # oc23
   1262     37   1 -0.550000    21.641264011    18.801056736    15.002362046   0   0   0 # oc23
   1263     37   1 -0.550000    21.511319321    18.393105178    23.696512358   0   0   0 # oc23
   1264     37   1 -0.550000    19.125887415    18.278731345    15.635847447   0   0   0 # oc23
   1265     37   1 -0.550000    24.470125741    17.335009565    19.424120480   0   0   0 # oc23
   1266     37   1 -0.550000    19.463461107    16.038741585    20.150290690   0   0   0 # oc23
   1267     37   1 -0.550000    25.280460163    15.482137428    12.695214577   0   0   0 # oc23
   1268     37   1 -0.550000    22.580127372    15.356353897    16.864633386   0   0   0 # oc23
   1269     37   1 -0.550000    19.436887263    17.914600930    22.006041407   0   0   0 # oc23
   1270     37   1 -0.550000    16.906581049    17.513190703    14.450171560   0   0   0 # oc23
   1271     37   1 -0.550000    22.032045007    16.774876184    18.987624532   0   0   0 # oc23
   1272     37   1 -0.550000    18.173666967    16.326089332    18.117410607   0   0   0 # oc23
   1273     37   1 -0.550000    24.159604776    16.604049328    23.738476276   0   0   0 # oc23
   1274     37   1 -0.550000    20.812039705    16.315078107    15.110682499   0   0   0 # oc23
   1275     37   1 -0.550000    23.236431710    15.759876010    14.317858889   0   0   0 # oc23
   1276     37   1 -0.550000    17.633905372    15.928063219    22.001895230   0   0   0 # oc23
   1277     37   1 -0.550000    20.436670446    14.937268976    18.165745409   0   0   0 # oc23
   1278     37   1 -0.550000    16.892750555    18.199048747    17.001376018   0   0   0 # oc23
   1279     37   1 -0.550000    22.753067011    17.417527489    21.473443052   0   0   0 # oc23
   1280     37   1 -0.550000    19.960687289    17.981902473    13.203153924   0   0   0 # oc23
   1281     37   2  1.100000    24.814949561    15.963957045    14.156928376   0   0   0 # sc4
   1282     37   2  1.100000    19.153630564    16.358370897    21.642419248   0   0   0 # sc4
   1283     37   2  1.100000    21.969995670    15.309161485    18.352272672   0   0   0 # sc4
   1284     37   2  1.100000    17.357319504    17.678318934    18.427242599   0   0   0 # sc4
   1285     37   2  1.100000    23.112451584    17.859084463    23.023307707   0   0   0 # sc4
   1286     37   2  1.100000    20.388671791    17.835614545    14.744674373   0   0   0 # sc4
   1287     37   2  1.100000    19.897109046    18.967092089    23.146856038   0   0   0 # sc4
   1288     37   2  1.100000    17.532016720    18.500132942    15.566728782   0   0   0 # sc4
   1289     37   2  1.100000    22.976361223    17.723999328    19.855997328   0   0   0 # sc4
   1290     37   2  1.100000    19.053069728    15.237955444    18.861946047   0   0   0 # sc4
   1291     37   2  1.100000    25.202466726    15.271104603    23.244616070   0   0   0 # sc4
   1292     37   2  1.100000    22.071156677    15.322353445    15.331087473   0   0   0 # sc4
   1293     38   1 -0.550000    20.012614973    20.012815208    11.449473740   0   0   0 # oc23
   1294     38   1 -0.550000    25.796919018    20.410742952     3.901723355   0   0   0 # oc23
   1295     38   1 -0.550000    23.204694173    19.257462820     6.910022116   0   0   0 # oc23
   1296     38   1 -0.550000    18.722197389    23.791106283     7.792145394   0   0   0 # oc23
   1297     38   1 -0.550000    24.437338524    23.794343980    10.768600491   0   0   0 # oc23
   1298     38   1 -0.550000    21.071975145    24.078314112     2.159255565   0   0   0 # oc23
   1299     38   1 -0.550000    22.003799745    23.280670769    11.570777441   0   0   0 # oc23
   1300     38   1 -0.550000    19.261108558    23.403433689     3.899243943   0   0   0 # oc23
   1301     38   1 -0.550000    24.803312651    22.407183849     7.738868181   0   0   0 # oc23
   1302     38   1 -0.550000    20.019945681    20.688876053     8.894072131   0   0   0 # oc23
   1303     38   1 -0.550000    22.478729864    19.907093658     4.430674613   0   0   0 # oc23
   1304     38   1 -0.550000    19.705312565    22.518976224    10.678305815   0   0   0 # oc23
   1305     38   1 -0.550000    16.778527519    22.843886458     3.488969534   0   0   0 # oc23
   1306     38   1 -0.550000    22.526084851    21.749937612     6.503399479   0   0   0 # oc23
   1307     38   1 -0.550000    18.642103524    21.319599191     6.765540762   0   0   0 # oc23
   1308     38   1 -0.550000    23.606659374    21.307545686    10.916155851   0   0   0 # oc23
   1309     38   1 -0.550000    21.092917874    21.606753958     3.178441063   0   0   0 # oc23
   1310     38   1 -0.550000    23.725854355    20.888094040     2.205765935   0   0   0 # oc23
   1311     38   1 -0.550000    17.792258487    20.795058002    10.263658685   0   0   0 # oc23
   1312     38   1 -0.550000    20.765894724    19.814492114     6.485552988   0   0   0 # oc23
   1313     38   1 -0.550000    17.443734458    23.518169423     5.757638937   0   0   0 # oc23
   1314     38   1 -0.550000    22.660482752    22.820516079     9.035264486   0   0   0 # oc23
   1315     38   1 -0.550000    18.517169354    22.024651337     1.988080868   0   0   0 # oc23
   1316     38   2  1.100000    25.339753962    21.461396611     2.754605660   0   0   0 # sc4
   1317     38   2  1.100000    19.390024315    20.999135147    10.329423061   0   0   0 # sc4
   1318     38   2  1.100000    22.256977033    20.207608858     6.049235708   0   0   0 # sc4
   1319     38   2  1.100000    17.847303097    22.704901052     7.041074266   0   0   0 # sc4
   1320     38   2  1.100000    23.168194422    22.809799481    10.569613176   0   0   0 # sc4
   1321     38   2  1.100000    20.030747522    22.743517001     2.654263412   0   0   0 # sc4
   1322     38   2  1.100000    20.421515304    23.448496214    11.742995233   0   0   0 # sc4
   1323     38   2  1.100000    17.744869067    23.834873859     4.263900526   0   0   0 # sc4
   1324     38   2  1.100000    23.269878642    22.772421766     7.548166404   0   0   0 # sc4
   1325     38   2  1.100000    19.545940333    20.167291728     7.471928299   0   0   0 # sc4
   1326     38   2  1.100000    24.856877477    20.329993837    11.153705348   0   0   0 # sc4
   1327     38   2  1.100000    22.124544881    20.353535636     2.880068154   0   0   0 # sc4
   1328     39   1 -0.550000    20.121415758    20.344495069    22.413046125   0   0   0 # oc23
   1329     39   1 -0.550000    25.543737344    20.010988403    15.213175490   0   0   0 # oc23
   1330     39   1 -0.550000    22.707796339    19.267648331    19.405351739   0   0   0 # oc23
   1331     39   1 -0.550000    18.270058846    23.800069400    19.123865962   0   0   0 # oc23
   1332     39   1 -0.550000    24.149798270    24.085561451    22.713527408   0   0   0 # oc23
   1333     39   1 -0.550000    21.639704983    23.773781437    14.989842913   0   0   0 # oc23
   1334     39   1 -0.550000    21.521402343    23.366165110    23.692002949   0   0   0 # oc23
   1335     39   1 -0.550000    19.116544408    23.259224805    15.624195444   0   0   0 # oc23
   1336     39   1 -0.550000    24.483243905    22.302067964    19.409948770   0   0   0 # oc23
   1337     39   1 -0.550000    19.464882881    21.020856599    20.140931602   0   0   0 # oc23
   1338     39   1 -0.550000    25.278293049    20.437870047    12.697491888   0   0   0 # oc23
   1339     39   1 -0.550000    22.588464276    20.328835661    16.869498658   0   0   0 # oc23
   1340     39   1 -0.550000    19.444146902    22.892350093    22.002796335   0   0   0 # oc23
   1341     39   1 -0.550000    16.890087808    22.490114137    14.445113130   0   0   0 # oc23
   1342     39   1 -0.550000    22.040476558    21.753300836    18.984976974   0   0   0 # oc23
   1343     39   1 -0.550000    18.174471736    21.303194730    18.110752035   0   0   0 # oc23
   1344     39   1 -0.550000    24.173723207    21.578765874    23.730719630   0   0   0 # oc23
   1345     39   1 -0.550000    20.815286028    21.292027876    15.128063328   0   0   0 # oc23
   1346     39   1 -0.550000    23.242475768    20.763421281    14.326767355   0   0   0 # oc23
   1347     39   1 -0.550000    17.640346154    20.908627630    21.998018098   0   0   0 # oc23
   1348     39   1 -0.550000    20.440891779    19.921863000    18.161336095   0   0   0 # oc23
   1349     39   1 -0.550000    16.887587364    23.173813385    16.998574745   0   0   0 # oc23
   1350     39   1 -0.550000    22.765645694    22.391742020    21.467632593   0   0   0 # oc23
   1351     39   1 -0.550000    19.967937634    22.928802972    13.198953382   0   0   0 # oc23
   1352     39   2  1.100000    24.823477420    20.942167542    14.154473349   0   0   0 # sc4
   1353     39   2  1.100000    19.159534195    21.337613087    21.635817214   0   0   0 # sc4
   1354     39   2  1.100000    21.973416762    20.288234393    18.353231648   0   0   0 # sc4
   1355     39   2  1.100000    17.358100652    22.653705949    18.422263914   0   0   0 # sc4
   1356     39   2  1.100000    23.121409067    22.832526600    23.017977489   0   0   0 # sc4
   1357     39   2  1.100000    20.385709979    22.806291566    14.743569722   0   0   0 # sc4
   1358     39   2  1.100000    19.906325340    23.941867928    23.145720462   0   0   0 # sc4
   1359     39   2  1.100000    17.519481071    23.476227905    15.561068293   0   0   0 # sc4
   1360     39   2  1.100000    22.992324659    22.696918273    19.848721676   0   0   0 # sc4
   1361     39   2  1.100000    19.056265774    20.217426261    18.854053656   0   0   0 # sc4
   1362     39   2  1.100000    25.215941720    20.243843507    23.237930884   0   0   0 # sc4
   1363     39   2  1.100000    22.081405236    20.304940567    15.335151223   0   0   0 # sc4
   1364     40   1 -0.550000    19.995734734    24.982896615    11.464724823   0   0   0 # oc23
   1365     40   1 -0.550000    25.796508436    25.388412027     3.896915499   0   0   0 # oc23
   1366     40   1 -0.550000    23.205376269    24.235861397     6.907212889   0   0   0 # oc23
   1367     40   1 -0.550000    18.730669085    28.774968290     7.788091422   0   0   0 # oc23
   1368     40   1 -0.550000    24.444661366    28.772245443    10.766648009   0   0   0 # oc23
   1369     40   1 -0.550000    21.070084278    29.056498459     2.155701272   0   0   0 # oc23
   1370     40   1 -0.550000    22.014910777    28.244366992    11.570670717   0   0   0 # oc23
   1371     40   1 -0.550000    19.256535491    28.380673878     3.895184751   0   0   0 # oc23
   1372     40   1 -0.550000    24.804303411    27.373262378     7.729458851   0   0   0 # oc23
   1373     40   1 -0.550000    20.017078070    25.653540472     8.907699306   0   0   0 # oc23
   1374     40   1 -0.550000    22.470805473    24.885454257     4.427273559   0   0   0 # oc23
   1375     40   1 -0.550000    19.707119084    27.492598896    10.682229721   0   0   0 # oc23
   1376     40   1 -0.550000    16.776243764    27.815328030     3.480817738   0   0   0 # oc23
   1377     40   1 -0.550000    22.521646624    26.727251600     6.502667620   0   0   0 # oc23
   1378     40   1 -0.550000    18.641030187    26.294551598     6.776672311   0   0   0 # oc23
   1379     40   1 -0.550000    23.623820683    26.281640268    10.902640574   0   0   0 # oc23
   1380     40   1 -0.550000    21.088547826    26.585546493     3.175893658   0   0   0 # oc23
   1381     40   1 -0.550000    23.720455469    25.867363789     2.203689234   0   0   0 # oc23
   1382     40   1 -0.550000    17.784702204    25.778447766    10.270922849   0   0   0 # oc23
   1383     40   1 -0.550000    20.763750210    24.790089719     6.491293656   0   0   0 # oc23
   1384     40   1 -0.550000    17.439722752    28.485289891     5.756657430   0   0   0 # oc23
   1385     40   1 -0.550000    22.667658550    27.799144536     9.032852690   0   0   0 # oc23
   1386     40   1 -0.550000    18.516360124    27.003210118     1.980914216   0   0   0 # oc23
   1387     40   2  1.100000    25.336019132    26.439368095     2.751416443   0   0   0 # sc4
   1388     40   2  1.100000    19.384012068    25.971568265    10.340345258   0   0   0 # sc4
   1389     40   2  1.100000    22.252715266    25.184838193     6.048850542   0   0   0 # sc4
   1390     40   2  1.100000    17.852396572    27.685197662     7.044645465   0   0   0 # sc4
   1391     40   2  1.100000    23.179401326    27.784257367    10.565281482   0   0   0 # sc4
   1392     40   2  1.100000    20.027473736    27.722882669     2.648662208   0   0   0 # sc4
   1393     40   2  1.100000    20.432502780    28.426473407    11.739319634   0   0   0 # sc4
   1394     40   2  1.100000    17.738806121    28.806199899     4.261603979   0   0   0 # sc4
   1395     40   2  1.100000    23.272262279    27.748108560     7.543608718   0   0   0 # sc4
   1396     40   2  1.100000    19.544258430    25.139153810     7.481470590   0   0   0 # sc4
   1397     40   2  1.100000    24.873957700    25.307620225    11.146494663   0   0   0 # sc4
   1398     40   2  1.100000    22.119170818    25.332830889     2.876184902   0   0   0 # sc4
   1399     41   1 -0.550000    20.128403819    25.319989038    22.415324419   0   0   0 # oc23
   1400     41   1 -0.550000    25.568509724    24.986222540    15.200106437   0   0   0 # oc23
   1401     41   1 -0.550000    22.725775577    24.237428483    19.392771122   0   0   0 # oc23
   1402     41   1 -0.550000    18.276259474    28.771542707    19.122501701   0   0   0 # oc23
   1403     41   1 -0.550000    24.155773654    29.060554520    22.707382385   0   0   0 # oc23
   1404     41   1 -0.550000    21.652498671    28.749158188    14.994454588   0   0   0 # oc23
   1405     41   1 -0.550000    21.521966038    28.340827069    23.685068215   0   0   0 # oc23
   1406     41   1 -0.550000    19.129908574    28.226530993    15.626029187   0   0   0 # oc23
   1407     41   1 -0.550000    24.489121385    27.282195509    19.410291253   0   0   0 # oc23
   1408     41   1 -0.550000    19.479820826    25.981718226    20.139945825   0   0   0 # oc23
   1409     41   1 -0.550000    25.300381048    25.432553136    12.688014113   0   0   0 # oc23
   1410     41   1 -0.550000    22.596408164    25.296661182    16.857216114   0   0   0 # oc23
   1411     41   1 -0.550000    19.451934320    27.863776868    21.993041034   0   0   0 # oc23
   1412     41   1 -0.550000    16.901757559    27.464189181    14.439744576   0   0   0 # oc23
   1413     41   1 -0.550000    22.048034109    26.719420843    18.976473411   0   0   0 # oc23
   1414     41   1 -0.550000    18.187994937    26.274297434    18.106070975   0   0   0 # oc23
   1415     41   1 -0.550000    24.168258406    26.553827927    23.729492744   0   0   0 # oc23
   1416     41   1 -0.550000    20.829335726    26.266944810    15.110331469   0   0   0 # oc23
   1417     41   1 -0.550000    23.257939390    25.724935771    14.312684740   0   0   0 # oc23
   1418     41   1 -0.550000    17.647541611    25.883202290    21.994715051   0   0   0 # oc23
   1419     41   1 -0.550000    20.449707248    24.880379864    18.156107714   0   0   0 # oc23
   1420     41   1 -0.550000    16.898610278    28.142289792    16.994202844   0   0   0 # oc23
   1421     41   1 -0.550000    22.772441874    27.362968591    21.461643634   0   0   0 # oc23
   1422     41   1 -0.550000    19.975024579    27.924136796    13.198278255   0   0   0 # oc23
   1423     41   2  1.100000    24.838502059    25.920017592    14.148647919   0   0   0 # sc4
   1424     41   2  1.100000    19.167841687    26.308144558    21.631303083   0   0   0 # sc4
   1425     41   2  1.100000    21.983245557    25.253310600    18.342918074   0   0   0 # sc4
   1426     41   2  1.100000    17.366981364    27.622521181    18.418946888   0   0   0 # sc4
   1427     41   2  1.100000    23.123504301    27.808444606    23.012248355   0   0   0 # sc4
   1428     41   2  1.100000    20.399322914    27.783914312    14.740294516   0   0   0 # sc4
   1429     41   2  1.100000    19.907603285    28.914268888    23.137850919   0   0   0 # sc4
   1430     41   2  1.100000    17.533263650    28.445512366    15.558194590   0   0   0 # sc4
   1431     41   2  1.100000    22.995392157    27.669444541    19.842442364   0   0   0 # sc4
   1432     41   2  1.100000    19.065866666    25.184761050    18.850105257   0   0   0 # sc4
   1433     41   2  1.100000    25.211481611    25.221833806    23.234743407   0   0   0 # sc4
   1434     41   2  1.100000    22.090549712    25.275203498    15.321088342   0   0   0 # sc4
   1435     42   1 -0.550000    20.016429777    29.961518925    11.454044575   0   0   0 # oc23
   1436     42   1 -0.550000    25.784669468    30.364001502     3.897214671   0   0   0 # oc23
   1437     42   1 -0.550000    23.208117113    29.212912128     6.904102584   0   0   0 # oc23
   1438     42   1 -0.550000    18.722816611    33.753021969     7.793564184   0   0   0 # oc23
   1439     42   1 -0.550000    24.443781517    33.751107818    10.766112172   0   0   0 # oc23
   1440     42   1 -0.550000    21.059269514    34.039569693     2.163808507   0   0   0 # oc23
   1441     42   1 -0.550000    22.016226845    33.218059966    11.571643505   0   0   0 # oc23
   1442     42   1 -0.550000    19.250687516    33.357406889     3.904220073   0   0   0 # oc23
   1443     42   1 -0.550000    24.808228217    32.357740053     7.728368148   0   0   0 # oc23
   1444     42   1 -0.550000    20.024039110    30.640934662     8.898066348   0   0   0 # oc23
   1445     42   1 -0.550000    22.471758621    29.862449218     4.422171613   0   0   0 # oc23
   1446     42   1 -0.550000    19.707962197    32.469714676    10.685304140   0   0   0 # oc23
   1447     42   1 -0.550000    16.768691284    32.793893550     3.493629316   0   0   0 # oc23
   1448     42   1 -0.550000    22.528305065    31.705799288     6.497281885   0   0   0 # oc23
   1449     42   1 -0.550000    18.643555021    31.277222134     6.774461455   0   0   0 # oc23
   1450     42   1 -0.550000    23.626284831    31.258653283    10.903108813   0   0   0 # oc23
   1451     42   1 -0.550000    21.082380662    31.563106259     3.175913758   0   0   0 # oc23
   1452     42   1 -0.550000    23.715961134    30.844317958     2.200638739   0   0   0 # oc23
   1453     42   1 -0.550000    17.794353936    30.743634962    10.269671466   0   0   0 # oc23
   1454     42   1 -0.550000    20.766336750    29.774422359     6.484981046   0   0   0 # oc23
   1455     42   1 -0.550000    17.433333987    33.464667465     5.763915698   0   0   0 # oc23
   1456     42   1 -0.550000    22.667854770    32.773760283     9.030438541   0   0   0 # oc23
   1457     42   1 -0.550000    18.504439907    31.987598554     1.987870352   0   0   0 # oc23
   1458     42   2  1.100000    25.331056773    31.414574791     2.749625696   0   0   0 # sc4
   1459     42   2  1.100000    19.392549630    30.949636670    10.334443221   0   0   0 # sc4
   1460     42   2  1.100000    22.257920380    30.162892336     6.043827489   0   0   0 # sc4
   1461     42   2  1.100000    17.847346001    32.661027580     7.049730451   0   0   0 # sc4
   1462     42   2  1.100000    23.179755712    32.760103310    10.563055190   0   0   0 # sc4
   1463     42   2  1.100000    20.019498234    32.702781982     2.654536219   0   0   0 # sc4
   1464     42   2  1.100000    20.435036821    33.401464648    11.743248152   0   0   0 # sc4
   1465     42   2  1.100000    17.734609310    33.784579511     4.270503064   0   0   0 # sc4
   1466     42   2  1.100000    23.274664691    32.727066389     7.542657075   0   0   0 # sc4
   1467     42   2  1.100000    19.549504429    30.124307810     7.475313468   0   0   0 # sc4
   1468     42   2  1.100000    24.877403420    30.286194775    11.146335835   0   0   0 # sc4
   1469     42   2  1.100000    22.115333347    30.310857614     2.872874385   0   0   0 # sc4
   1470     43   1 -0.550000    20.126467471    30.294895667    22.410669965   0   0   0 # oc23
   1471     43   1 -0.550000    25.577744630    29.964742251    15.202599139   0   0   0 # oc23
   1472     43   1 -0.550000    22.723419990    29.213699096    19.392421260   0   0   0 # oc23
   1473     43   1 -0.550000    18.271080874    33.748127716    19.124449797   0   0   0 # oc23
   1474     43   1 -0.550000    24.143367845    34.041750640    22.704680608   0   0   0 # oc23
   1475     43   1 -0.550000    21.651689112    33.721631813    15.003400311   0   0   0 # oc23
   1476     43   1 -0.550000    21.517643378    33.317605145    23.684773810   0   0   0 # oc23
   1477     43   1 -0.550000    19.131333260    33.188180363    15.632018196   0   0   0 # oc23
   1478     43   1 -0.550000    24.483644145    32.255733048    19.404942922   0   0   0 # oc23
   1479     43   1 -0.550000    19.471666610    30.963632061    20.138857612   0   0   0 # oc23
   1480     43   1 -0.550000    25.305724505    30.410667470    12.688528566   0   0   0 # oc23
   1481     43   1 -0.550000    22.598985363    30.276628693    16.858795651   0   0   0 # oc23
   1482     43   1 -0.550000    19.440196165    32.840639994    21.999052159   0   0   0 # oc23
   1483     43   1 -0.550000    16.906931654    32.434052166    14.443106891   0   0   0 # oc23
   1484     43   1 -0.550000    22.044807435    31.700500509    18.971502979   0   0   0 # oc23
   1485     43   1 -0.550000    18.185274749    31.248098395    18.107723542   0   0   0 # oc23
   1486     43   1 -0.550000    24.170431376    31.535253908    23.716213234   0   0   0 # oc23
   1487     43   1 -0.550000    20.831934615    31.235607158    15.106245273   0   0   0 # oc23
   1488     43   1 -0.550000    23.265449513    30.699579853    14.313819758   0   0   0 # oc23
   1489     43   1 -0.550000    17.645257144    30.853377072    21.995819883   0   0   0 # oc23
   1490     43   1 -0.550000    20.449973833    29.861763389    18.154914301   0   0   0 # oc23
   1491     43   1 -0.550000    16.896331403    33.116432394    16.994347122   0   0   0 # oc23
   1492     43   1 -0.550000    22.759894016    32.346619972    21.456015372   0   0   0 # oc23
   1493     43   1 -0.550000    19.976916431    32.897514273    13.201499814   0   0   0 # oc23
   1494     43   2  1.100000    24.845237888    30.897413082    14.150079199   0   0   0 # sc4
   1495     43   2  1.100000    19.162539814    31.283840376    21.632207658   0   0   0 # sc4
   1496     43   2  1.100000    21.982876279    30.233110683    18.342089046   0   0   0 # sc4
   1497     43   2  1.100000    17.363760340    32.596624019    18.419726763   0   0   0 # sc4
   1498     43   2  1.100000    23.116764532    32.786429037    23.004423271   0   0   0 # sc4
   1499     43   2  1.100000    20.400729275    32.753754671    14.743330780   0   0   0 # sc4
   1500     43   2  1.100000    19.901879707    33.891625098    23.143002272   0   0   0 # sc4
   1501     43   2  1.100000    17.536909533    33.415566393    15.561066803   0   0   0 # sc4
   1502     43   2  1.100000    22.990444912    32.649499877    19.837522077   0   0   0 # sc4
   1503     43   2  1.100000    19.065159670    30.160447912    18.850659265   0   0   0 # sc4
   1504     43   2  1.100000    25.216217018    30.202157084    23.225852834   0   0   0 # sc4
   1505     43   2  1.100000    22.096931187    30.251200180    15.322981563   0   0   0 # sc4
   1506     44   1 -0.550000    28.361771846     0.100677209    11.441918609   0   0   0 # oc23
   1507     44   1 -0.550000    31.542088580    34.196027795     6.888228544   0  -1   0 # oc23
   1508     44   1 -0.550000    27.062088636     3.891326598     7.780671852   0   0   0 # oc23
   1509     44   1 -0.550000    32.760633001     3.902836383    10.741832754   0   0   0 # oc23
   1510     44   1 -0.550000    29.399298961     4.172094336     2.149050815   0   0   0 # oc23
   1511     44   1 -0.550000    30.336341454     3.371454952    11.560428386   0   0   0 # oc23
   1512     44   1 -0.550000    27.587246053     3.501964879     3.889185316   0   0   0 # oc23
   1513     44   1 -0.550000    33.129051848     2.496495525     7.727843196   0   0   0 # oc23
   1514     44   1 -0.550000    28.364475174     0.783358307     8.885213535   0   0   0 # oc23
   1515     44   1 -0.550000    30.808188725     0.001625138     4.411547022   0   0   0 # oc23
   1516     44   1 -0.550000    28.034375664     2.608092430    10.677540392   0   0   0 # oc23
   1517     44   1 -0.550000    25.105506391     2.934200738     3.480960968   0   0   0 # oc23
   1518     44   1 -0.550000    30.859258288     1.847830183     6.482505294   0   0   0 # oc23
   1519     44   1 -0.550000    26.980136851     1.415662214     6.759771434   0   0   0 # oc23
   1520     44   1 -0.550000    31.942652643     1.411603932    10.902138061   0   0   0 # oc23
   1521     44   1 -0.550000    29.414637717     1.697971055     3.165504820   0   0   0 # oc23
   1522     44   1 -0.550000    32.051440582     0.982482400     2.189378495   0   0   0 # oc23
   1523     44   1 -0.550000    26.139947369     0.869044647    10.257254196   0   0   0 # oc23
   1524     44   1 -0.550000    29.101635081    -0.086205681     6.470169214   0   0   0 # oc23
   1525     44   1 -0.550000    25.770740767     3.605678651     5.749300043   0   0   0 # oc23
   1526     44   1 -0.550000    30.985629660     2.915739216     9.018600070   0   0   0 # oc23
   1527     44   1 -0.550000    26.840544150     2.122457665     1.977485254   0   0   0 # oc23
   1528     44   2  1.100000     0.298404022     1.552966949     2.742403942   1   0   0 # sc4
   1529     44   2  1.100000    27.734561127     1.086148625    10.323010235   0   0   0 # sc4
   1530     44   2  1.100000    30.590905071     0.305332178     6.030021445   0   0   0 # sc4
   1531     44   2  1.100000    26.186190048     2.802312480     7.034373487   0   0   0 # sc4
   1532     44   2  1.100000    31.497561317     2.910740201    10.552364630   0   0   0 # sc4
   1533     44   2  1.100000    28.355227702     2.839620269     2.642212145   0   0   0 # sc4
   1534     44   2  1.100000    28.755164294     3.543228530    11.736320970   0   0   0 # sc4
   1535     44   2  1.100000    26.070293591     3.928401627     4.255475102   0   0   0 # sc4
   1536     44   2  1.100000    31.598540890     2.869074712     7.533268157   0   0   0 # sc4
   1537     44   2  1.100000    27.886084112     0.263414867     7.462591671   0   0   0 # sc4
   1538     44   2  1.100000    33.193649909     0.437200048    11.141734097   0   0   0 # sc4
   1539     44   2  1.100000    30.450848156     0.446788169     2.862232453   0   0   0 # sc4
   1540     45   1 -0.550000    28.460592020     0.426151399    22.410364459   0   0   0 # oc23
   1541     45   1 -0.550000    31.047360711    34.190571369    19.392782747   0  -1   0 # oc23
   1542     45   1 -0.550000    26.610308985     3.881667342    19.125179735   0   0   0 # oc23
   1543     45   1 -0.550000    32.470790618     4.169939805    22.710607099   0   0   0 # oc23
   1544     45   1 -0.550000    29.976194709     3.875707028    14.991520725   0   0   0 # oc23
   1545     45   1 -0.550000    29.845446511     3.447353664    23.685574764   0   0   0 # oc23
   1546     45   1 -0.550000    27.460088504     3.334520432    15.629275771   0   0   0 # oc23
   1547     45   1 -0.550000    32.808718404     2.389690506    19.405336535   0   0   0 # oc23
   1548     45   1 -0.550000    27.809830557     1.094287002    20.135704174   0   0   0 # oc23
   1549     45   1 -0.550000    30.926210927     0.417277562    16.859362077   0   0   0 # oc23
   1550     45   1 -0.550000    27.774346089     2.975121463    21.995031533   0   0   0 # oc23
   1551     45   1 -0.550000    25.234253040     2.572375942    14.445720138   0   0   0 # oc23
   1552     45   1 -0.550000    30.368563548     1.832764482    18.978007359   0   0   0 # oc23
   1553     45   1 -0.550000    26.507414124     1.381711789    18.112098396   0   0   0 # oc23
   1554     45   1 -0.550000    32.498935202     1.663530355    23.726548092   0   0   0 # oc23
   1555     45   1 -0.550000    29.160982941     1.385322781    15.112483662   0   0   0 # oc23
   1556     45   1 -0.550000    31.586544788     0.860031165    14.318857813   0   0   0 # oc23
   1557     45   1 -0.550000    25.979991821     0.989241618    21.986939727   0   0   0 # oc23
   1558     45   1 -0.550000    28.775958111     0.001575073    18.149433490   0   0   0 # oc23
   1559     45   1 -0.550000    25.228995816     3.258296411    16.997092640   0   0   0 # oc23
   1560     45   1 -0.550000    31.093089945     2.472823461    21.460603243   0   0   0 # oc23
   1561     45   1 -0.550000    28.302215985     3.036579653    13.196853751   0   0   0 # oc23
   1562     45   2  1.100000    33.166696078     1.043268964    14.146945713   0   0   0 # sc4
   1563     45   2  1.100000    27.498949754     1.417862600    21.628753913   0   0   0 # sc4
   1564     45   2  1.100000    30.308725931     0.368244062    18.342671306   0   0   0 # sc4
   1565     45   2  1.100000    25.697163644     2.735842122    18.423083504   0   0   0 # sc4
   1566     45   2  1.100000    31.445549162     2.914057095    23.012190992   0   0   0 # sc4
   1567     45   2  1.100000    28.728909418     2.900534610    14.739963938   0   0   0 # sc4
   1568     45   2  1.100000    28.232939771     4.026278948    23.138120942   0   0   0 # sc4
   1569     45   2  1.100000    25.864248214     3.555396831    15.562479818   0   0   0 # sc4
   1570     45   2  1.100000    31.315108678     2.781736051    19.840908781   0   0   0 # sc4
   1571     45   2  1.100000    27.395011727     0.296327618    18.847938864   0   0   0 # sc4
   1572     45   2  1.100000    33.544153680     0.329081867    23.236448041   0   0   0 # sc4
   1573     45   2  1.100000    30.424628758     0.398565736    15.323947120   0   0   0 # sc4
   1574     46   1 -0.550000    28.337419054     5.077874339    11.451619960   0   0   0 # oc23
   1575     46   1 -0.550000    31.537762221     4.334291582     6.895167269   0   0   0 # oc23
   1576     46   1 -0.550000    27.060385566     8.865001207     7.787071478   0   0   0 # oc23
   1577     46   1 -0.550000    32.754525740     8.870309450    10.761913351   0   0   0 # oc23
   1578     46   1 -0.550000    29.401210253     9.151341718     2.155377700   0   0   0 # oc23
   1579     46   1 -0.550000    30.326389306     8.335502233    11.572443059   0   0   0 # oc23
   1580     46   1 -0.550000    27.585926814     8.478786445     3.894222439   0   0   0 # oc23
   1581     46   1 -0.550000    33.131574117     7.482010671     7.733108885   0   0   0 # oc23
   1582     46   1 -0.550000    28.352801305     5.759792505     8.894232994   0   0   0 # oc23
   1583     46   1 -0.550000    30.800011558     4.981318296     4.418327389   0   0   0 # oc23
   1584     46   1 -0.550000    28.023696321     7.586320486    10.682865581   0   0   0 # oc23
   1585     46   1 -0.550000    25.103947272     7.914233295     3.483433090   0   0   0 # oc23
   1586     46   1 -0.550000    30.857913226     6.828122430     6.490178117   0   0   0 # oc23
   1587     46   1 -0.550000    26.973645624     6.392998832     6.764880483   0   0   0 # oc23
   1588     46   1 -0.550000    31.937166083     6.382489196    10.903402524   0   0   0 # oc23
   1589     46   1 -0.550000    29.414037537     6.679776810     3.169272355   0   0   0 # oc23
   1590     46   1 -0.550000    32.048792715     5.960646348     2.196191062   0   0   0 # oc23
   1591     46   1 -0.550000    26.125140758     5.854943419    10.260225067   0   0   0 # oc23
   1592     46   1 -0.550000    29.099008157     4.893637429     6.480418230   0   0   0 # oc23
   1593     46   1 -0.550000    25.769308826     8.585273290     5.754619949   0   0   0 # oc23
   1594     46   1 -0.550000    30.981678297     7.895221110     9.027435373   0   0   0 # oc23
   1595     46   1 -0.550000    26.840494217     7.103418771     1.979718763   0   0   0 # oc23
   1596     46   2  1.100000     0.296837069     6.532486612     2.749202440   1   0   0 # sc4
   1597     46   2  1.100000    27.718740847     6.065113134    10.329324599   0   0   0 # sc4
   1598     46   2  1.100000    30.586969929     5.286368140     6.038142417   0   0   0 # sc4
   1599     46   2  1.100000    26.182024277     7.778616735     7.039733660   0   0   0 # sc4
   1600     46   2  1.100000    31.489457813     7.881202871    10.562146484   0   0   0 # sc4
   1601     46   2  1.100000    28.354250763     7.819580973     2.646319166   0   0   0 # sc4
   1602     46   2  1.100000    28.745903904     8.517535359    11.743965119   0   0   0 # sc4
   1603     46   2  1.100000    26.068886988     8.905505115     4.260876082   0   0   0 # sc4
   1604     46   2  1.100000    31.597939710     7.848789858     7.541343216   0   0   0 # sc4
   1605     46   2  1.100000    27.880389547     5.241993282     7.469851711   0   0   0 # sc4
   1606     46   2  1.100000    33.190544008     5.412509330    11.141505295   0   0   0 # sc4
   1607     46   2  1.100000    30.445415564     5.426970110     2.867441966   0   0   0 # sc4
   1608     47   1 -0.550000    28.456021888     5.406381736    22.410413647   0   0   0 # oc23
   1609     47   1 -0.550000    31.040144874     4.325274631    19.391991749   0   0   0 # oc23
   1610     47   1 -0.550000    26.596830016     8.863749474    19.128122362   0   0   0 # oc23
   1611     47   1 -0.550000    32.485309536     9.139716220    22.715520661   0   0   0 # oc23
   1612     47   1 -0.550000    29.957985005     8.851230355    14.996839544   0   0   0 # oc23
   1613     47   1 -0.550000    29.849107477     8.431008938    23.685914654   0   0   0 # oc23
   1614     47   1 -0.550000    27.438293162     8.315345081    15.632531117   0   0   0 # oc23
   1615     47   1 -0.550000    32.819979205     7.360378115    19.403575663   0   0   0 # oc23
   1616     47   1 -0.550000    27.799297671     6.076661084    20.139330542   0   0   0 # oc23
   1617     47   1 -0.550000    30.918415680     5.396835607    16.861367310   0   0   0 # oc23
   1618     47   1 -0.550000    27.779998518     7.955685757    21.994551433   0   0   0 # oc23
   1619     47   1 -0.550000    25.209421486     7.545492666    14.450947738   0   0   0 # oc23
   1620     47   1 -0.550000    30.374782017     6.814455303    18.978590534   0   0   0 # oc23
   1621     47   1 -0.550000    26.490794259     6.360453478    18.116841335   0   0   0 # oc23
   1622     47   1 -0.550000    32.494136661     6.634497115    23.730955915   0   0   0 # oc23
   1623     47   1 -0.550000    29.146040688     6.364478866    15.119331624   0   0   0 # oc23
   1624     47   1 -0.550000    31.579332436     5.842652376    14.321367990   0   0   0 # oc23
   1625     47   1 -0.550000    25.975143446     5.976739557    21.994156560   0   0   0 # oc23
   1626     47   1 -0.550000    28.767225827     4.990269748    18.148805142   0   0   0 # oc23
   1627     47   1 -0.550000    25.210577153     8.234675851    17.005995147   0   0   0 # oc23
   1628     47   1 -0.550000    31.100940490     7.449470572    21.461845040   0   0   0 # oc23
   1629     47   1 -0.550000    28.286529771     8.012075681    13.201681749   0   0   0 # oc23
   1630     47   2  1.100000    33.161675497     6.016667998    14.148517395   0   0   0 # sc4
   1631     47   2  1.100000    27.495002418     6.399381796    21.630839656   0   0   0 # sc4
   1632     47   2  1.100000    30.303115492     5.350577052    18.343990448   0   0   0 # sc4
   1633     47   2  1.100000    25.681260779     7.716841916    18.429222733   0   0   0 # sc4
   1634     47   2  1.100000    31.449619561     7.890838643    23.014995813   0   0   0 # sc4
   1635     47   2  1.100000    28.708343446     7.878739981    14.744910168   0   0   0 # sc4
   1636     47   2  1.100000    28.233486497     9.007670697    23.138994826   0   0   0 # sc4
   1637     47   2  1.100000    25.842005814     8.532822075    15.566670574   0   0   0 # sc4
   1638     47   2  1.100000    31.327428940     7.756953647    19.842514001   0   0   0 # sc4
   1639     47   2  1.100000    27.385024665     5.278196694    18.851715764   0   0   0 # sc4
   1640     47   2  1.100000    33.536498929     5.299832127    23.236268180   0   0   0 # sc4
   1641     47   2  1.100000    30.413923776     5.380194975    15.326257939   0   0   0 # sc4
   1642     48   1 -0.550000    28.335025225    10.053540722    11.459517157   0   0   0 # oc23
   1643     48   1 -0.550000    31.535894688     9.313692611     6.904744011   0   0   0 # oc23
   1644     48   1 -0.550000    27.067891843    13.842284399     7.794069185   0   0   0 # oc23
   1645     48   1 -0.550000    32.756040763    13.842056593    10.764954735   0   0   0 # oc23
   1646     48   1 -0.550000    29.406002758    14.129748971     2.166719881   0   0   0 # oc23
   1647     48   1 -0.550000    30.327262682    13.306329283    11.574010604   0   0   0 # oc23
   1648     48   1 -0.550000    27.588103306    13.448394299     3.904201256   0   0   0 # oc23
   1649     48   1 -0.550000    33.137112727    12.455557533     7.741149477   0   0   0 # oc23
   1650     48   1 -0.550000    28.349477345    10.732427513     8.904746257   0   0   0 # oc23
   1651     48   1 -0.550000    30.801671349     9.957136548     4.425924152   0   0   0 # oc23
   1652     48   1 -0.550000    28.020896288    12.561675712    10.688077743   0   0   0 # oc23
   1653     48   1 -0.550000    25.105719640    12.889636810     3.492017385   0   0   0 # oc23
   1654     48   1 -0.550000    30.867406750    11.806764220     6.492179029   0   0   0 # oc23
   1655     48   1 -0.550000    26.967787281    11.366372958     6.777370720   0   0   0 # oc23
   1656     48   1 -0.550000    31.938139104    11.351962258    10.907940292   0   0   0 # oc23
   1657     48   1 -0.550000    29.417084396    11.655786630     3.176343714   0   0   0 # oc23
   1658     48   1 -0.550000    32.052118125    10.939719431     2.201802932   0   0   0 # oc23
   1659     48   1 -0.550000    26.119155319    10.828294771    10.268517924   0   0   0 # oc23
   1660     48   1 -0.550000    29.096792400     9.876424498     6.485035610   0   0   0 # oc23
   1661     48   1 -0.550000    25.769196632    13.557779144     5.765504872   0   0   0 # oc23
   1662     48   1 -0.550000    30.985598329    12.863131297     9.033110316   0   0   0 # oc23
   1663     48   1 -0.550000    26.843904380    12.081977541     1.985766768   0   0   0 # oc23
   1664     48   2  1.100000     0.301490801    11.509851083     2.752063145   1   0   0 # sc4
   1665     48   2  1.100000    27.714232561    11.039991389    10.338009308   0   0   0 # sc4
   1666     48   2  1.100000    30.587990400    10.264966949     6.044305223   0   0   0 # sc4
   1667     48   2  1.100000    26.183011569    12.755971190     7.052246614   0   0   0 # sc4
   1668     48   2  1.100000    31.491490459    12.851965418    10.566658190   0   0   0 # sc4
   1669     48   2  1.100000    28.358453456    12.796424401     2.654630015   0   0   0 # sc4
   1670     48   2  1.100000    28.746438640    13.493761456    11.744717462   0   0   0 # sc4
   1671     48   2  1.100000    26.072228758    13.877884922     4.271760007   0   0   0 # sc4
   1672     48   2  1.100000    31.604499739    12.824404294     7.548755920   0   0   0 # sc4
   1673     48   2  1.100000    27.877911426    10.217090996     7.478820084   0   0   0 # sc4
   1674     48   2  1.100000    33.189270171    10.380686967    11.150030455   0   0   0 # sc4
   1675     48   2  1.100000    30.449410864    10.404773253     2.874507449   0   0   0 # sc4
   1676     49   1 -0.550000    28.451703166    10.386732763    22.407773156   0   0   0 # oc23
   1677     49   1 -0.550000    31.057401052     9.301004042    19.390950220   0   0   0 # oc23
   1678     49   1 -0.550000    26.597728988    13.837145870    19.121210540   0   0   0 # oc23
   1679     49   1 -0.550000    32.484968323    14.121124439    22.715098785   0   0   0 # oc23
   1680     49   1 -0.550000    29.959429208    13.826103061    14.995919863   0   0   0 # oc23
   1681     49   1 -0.550000    29.848172891    13.407777099    23.689908138   0   0   0 # oc23
   1682     49   1 -0.550000    27.438233839    13.287998530    15.629280347   0   0   0 # oc23
   1683     49   1 -0.550000    32.803754946    12.342389754    19.410146993   0   0   0 # oc23
   1684     49   1 -0.550000    27.788628608    11.060563289    20.138367843   0   0   0 # oc23
   1685     49   1 -0.550000    30.911519076    10.377086965    16.861453888   0   0   0 # oc23
   1686     49   1 -0.550000    27.767045912    12.932813888    22.000864206   0   0   0 # oc23
   1687     49   1 -0.550000    25.205670151    12.522561128    14.447749227   0   0   0 # oc23
   1688     49   1 -0.550000    30.363166366    11.785305441    18.988918753   0   0   0 # oc23
   1689     49   1 -0.550000    26.499558577    11.336564294    18.109085527   0   0   0 # oc23
   1690     49   1 -0.550000    32.497452588    11.613931276    23.730395103   0   0   0 # oc23
   1691     49   1 -0.550000    29.140730700    11.340571299    15.113780338   0   0   0 # oc23
   1692     49   1 -0.550000    31.571943332    10.806267458    14.320580229   0   0   0 # oc23
   1693     49   1 -0.550000    25.967520643    10.948435957    21.997373520   0   0   0 # oc23
   1694     49   1 -0.550000    28.770968855     9.950162361    18.162695054   0   0   0 # oc23
   1695     49   1 -0.550000    25.209740671    13.208630835    17.000988344   0   0   0 # oc23
   1696     49   1 -0.550000    31.092949082    12.428465760    21.466122122   0   0   0 # oc23
   1697     49   1 -0.550000    28.284677130    12.993414696    13.202202526   0   0   0 # oc23
   1698     49   2  1.100000    33.154140477    10.990309518    14.152291365   0   0   0 # sc4
   1699     49   2  1.100000    27.484966224    11.377957999    21.633166345   0   0   0 # sc4
   1700     49   2  1.100000    30.304493061    10.322156434    18.348165761   0   0   0 # sc4
   1701     49   2  1.100000    25.684081508    12.688753363    18.422664190   0   0   0 # sc4
   1702     49   2  1.100000    31.449696446    12.870632304    23.016274215   0   0   0 # sc4
   1703     49   2  1.100000    28.709079184    12.855739901    14.742919581   0   0   0 # sc4
   1704     49   2  1.100000    28.231543911    13.983291466    23.142873537   0   0   0 # sc4
   1705     49   2  1.100000    25.842124332    13.506937244    15.562767153   0   0   0 # sc4
   1706     49   2  1.100000    31.311601338    12.734961185    19.847920569   0   0   0 # sc4
   1707     49   2  1.100000    27.384127918    10.252267849    18.853863944   0   0   0 # sc4
   1708     49   2  1.100000    33.544457542    10.278353544    23.240374191   0   0   0 # sc4
   1709     49   2  1.100000    30.404528947    10.354159449    15.327461494   0   0   0 # sc4
   1710     50   1 -0.550000    28.339440234    15.029565438    11.457017314   0   0   0 # oc23
   1711     50   1 -0.550000    31.543358750    14.292669880     6.918086683   0   0   0 # oc23
   1712     50   1 -0.550000    27.064404599    18.816143670     7.790489801   0   0   0 # oc23
   1713     50   1 -0.550000    32.765821004    18.818672171    10.782044096   0   0   0 # oc23
   1714     50   1 -0.550000    29.414332149    19.102438022     2.166737913   0   0   0 # oc23
   1715     50   1 -0.550000    30.331120375    18.283806929    11.581422147   0   0   0 # oc23
   1716     50   1 -0.550000    27.597767710    18.428762446     3.904258641   0   0   0 # oc23
   1717     50   1 -0.550000    33.146555789    17.438578320     7.744153457   0   0   0 # oc23
   1718     50   1 -0.550000    28.351636621    15.716375924     8.904195844   0   0   0 # oc23
   1719     50   1 -0.550000    30.814097207    14.933323662     4.436634081   0   0   0 # oc23
   1720     50   1 -0.550000    28.016016076    17.538092644    10.696023605   0   0   0 # oc23
   1721     50   1 -0.550000    25.116494532    17.863513095     3.489533445   0   0   0 # oc23
   1722     50   1 -0.550000    30.870805066    16.785690002     6.504624577   0   0   0 # oc23
   1723     50   1 -0.550000    26.979660307    16.339794080     6.773190489   0   0   0 # oc23
   1724     50   1 -0.550000    31.943924011    16.328771992    10.912044816   0   0   0 # oc23
   1725     50   1 -0.550000    29.433911953    16.633843680     3.185838790   0   0   0 # oc23
   1726     50   1 -0.550000    32.063419653    15.911006078     2.210207531   0   0   0 # oc23
   1727     50   1 -0.550000    26.118540952    15.794041989    10.266708485   0   0   0 # oc23
   1728     50   1 -0.550000    29.108101142    14.847426259     6.494311546   0   0   0 # oc23
   1729     50   1 -0.550000    25.776053098    18.532712093     5.760426811   0   0   0 # oc23
   1730     50   1 -0.550000    30.996454312    17.849013026     9.040231491   0   0   0 # oc23
   1731     50   1 -0.550000    26.857525511    17.048513109     1.992091545   0   0   0 # oc23
   1732     50   2  1.100000     0.311513973    16.485312503     2.757808955   1   0   0 # sc4
   1733     50   2  1.100000    27.713113419    16.015996030    10.338436173   0   0   0 # sc4
   1734     50   2  1.100000    30.597285622    15.242008086     6.054871197   0   0   0 # sc4
   1735     50   2  1.100000    26.186504162    17.726902151     7.046588016   0   0   0 # sc4
   1736     50   2  1.100000    31.499633503    17.831220876    10.575944815   0   0   0 # sc4
   1737     50   2  1.100000    28.370114290    17.768796920     2.659448578   0   0   0 # sc4
   1738     50   2  1.100000    28.748845700    18.469051303    11.751331713   0   0   0 # sc4
   1739     50   2  1.100000    26.079770554    18.854859932     4.267234462   0   0   0 # sc4
   1740     50   2  1.100000    31.611895631    17.806363500     7.555400069   0   0   0 # sc4
   1741     50   2  1.100000    27.885793815    15.192532463     7.480466295   0   0   0 # sc4
   1742     50   2  1.100000    33.192821764    15.352819474    11.152329739   0   0   0 # sc4
   1743     50   2  1.100000    30.460354224    15.378577915     2.884949210   0   0   0 # sc4
   1744     51   1 -0.550000    28.455106224    15.359489405    22.406959675   0   0   0 # oc23
   1745     51   1 -0.550000    31.036959533    14.278066777    19.395724326   0   0   0 # oc23
   1746     51   1 -0.550000    26.606987645    18.815381611    19.123192848   0   0   0 # oc23
   1747     51   1 -0.550000    32.484819289    19.100734927    22.706639732   0   0   0 # oc23
   1748     51   1 -0.550000    29.961924473    18.796804181    15.010228133   0   0   0 # oc23
   1749     51   1 -0.550000    29.858538272    18.376235676    23.681992012   0   0   0 # oc23
   1750     51   1 -0.550000    27.437192871    18.272177573    15.638530891   0   0   0 # oc23
   1751     51   1 -0.550000    32.809890565    17.310437193    19.393417980   0   0   0 # oc23
   1752     51   1 -0.550000    27.795891887    16.029341322    20.135018541   0   0   0 # oc23
   1753     51   1 -0.550000    30.912350120    15.346585558    16.861118965   0   0   0 # oc23
   1754     51   1 -0.550000    27.780662647    17.906544955    21.990711880   0   0   0 # oc23
   1755     51   1 -0.550000    25.208721481    17.501923421    14.455509696   0   0   0 # oc23
   1756     51   1 -0.550000    30.366821987    16.764937363    18.979372152   0   0   0 # oc23
   1757     51   1 -0.550000    26.493070874    16.315340128    18.110412959   0   0   0 # oc23
   1758     51   1 -0.550000    32.512019718    16.594761597    23.726138871   0   0   0 # oc23
   1759     51   1 -0.550000    29.137278520    16.316542285    15.123017616   0   0   0 # oc23
   1760     51   1 -0.550000    31.570018943    15.784420712    14.321424698   0   0   0 # oc23
   1761     51   1 -0.550000    25.973782031    15.927241722    21.996061009   0   0   0 # oc23
   1762     51   1 -0.550000    28.765243184    14.934806551    18.151747636   0   0   0 # oc23
   1763     51   1 -0.550000    25.209977812    18.193240973    17.009609706   0   0   0 # oc23
   1764     51   1 -0.550000    31.108773514    17.397002645    21.457486152   0   0   0 # oc23
   1765     51   1 -0.550000    28.288161525    17.969471650    13.210544852   0   0   0 # oc23
   1766     51   2  1.100000    33.153064339    15.964071529    14.153463909   0   0   0 # sc4
   1767     51   2  1.100000    27.492644150    16.351148659    21.629099946   0   0   0 # sc4
   1768     51   2  1.100000    30.299481258    15.299739828    18.345042787   0   0   0 # sc4
   1769     51   2  1.100000    25.686407545    17.671414975    18.428958576   0   0   0 # sc4
   1770     51   2  1.100000    31.460057922    17.844414003    23.007810632   0   0   0 # sc4
   1771     51   2  1.100000    28.707996705    17.833110823    14.753833621   0   0   0 # sc4
   1772     51   2  1.100000    28.245839397    18.956158184    23.133977202   0   0   0 # sc4
   1773     51   2  1.100000    25.841825581    18.489569452    15.571109648   0   0   0 # sc4
   1774     51   2  1.100000    31.322189719    17.708492998    19.838801243   0   0   0 # sc4
   1775     51   2  1.100000    27.380520526    15.228727948    18.847239674   0   0   0 # sc4
   1776     51   2  1.100000    33.551061544    15.255929141    23.235986508   0   0   0 # sc4
   1777     51   2  1.100000    30.403626854    15.328818378    15.327987992   0   0   0 # sc4
   1778     52   1 -0.550000    28.341507320    20.005594944    11.463569445   0   0   0 # oc23
   1779     52   1 -0.550000    31.544048619    19.272757772     6.920433505   0   0   0 # oc23
   1780     52   1 -0.550000    27.068472930    23.796407269     7.785249735   0   0   0 # oc23
   1781     52   1 -0.550000    32.782471244    23.799971532    10.774471410   0   0   0 # oc23
   1782     52   1 -0.550000    29.413901002    24.078734587     2.159502155   0   0   0 # oc23
   1783     52   1 -0.550000    30.351333092    23.262693381    11.571021965   0   0   0 # oc23
   1784     52   1 -0.550000    27.599153475    23.406531512     3.901773065   0   0   0 # oc23
   1785     52   1 -0.550000    33.145341434    22.400408322     7.727299080   0   0   0 # oc23
   1786     52   1 -0.550000    28.355084576    20.680767841     8.905997895   0   0   0 # oc23
   1787     52   1 -0.550000    30.818931773    19.914009142     4.435482573   0   0   0 # oc23
   1788     52   1 -0.550000    28.039188191    22.513655734    10.685225059   0   0   0 # oc23
   1789     52   1 -0.550000    25.118344859    22.840317548     3.484592352   0   0   0 # oc23
   1790     52   1 -0.550000    30.858724785    21.762157683     6.504279661   0   0   0 # oc23
   1791     52   1 -0.550000    26.975732581    21.318774291     6.774936299   0   0   0 # oc23
   1792     52   1 -0.550000    31.957270747    21.308492772    10.889131674   0   0   0 # oc23
   1793     52   1 -0.550000    29.432499959    21.609728694     3.182320547   0   0   0 # oc23
   1794     52   1 -0.550000    32.065805693    20.888753277     2.207076954   0   0   0 # oc23
   1795     52   1 -0.550000    26.125557810    20.787237573    10.273462780   0   0   0 # oc23
   1796     52   1 -0.550000    29.102852084    19.823525062     6.488427120   0   0   0 # oc23
   1797     52   1 -0.550000    25.773513049    23.509025626     5.756130323   0   0   0 # oc23
   1798     52   1 -0.550000    31.009303453    22.840843892     9.028888766   0   0   0 # oc23
   1799     52   1 -0.550000    26.858003924    22.026960722     1.988768187   0   0   0 # oc23
   1800     52   2  1.100000     0.315649108    21.459540115     2.751812121   1   0   0 # sc4
   1801     52   2  1.100000    27.722676905    20.992178973    10.339574568   0   0   0 # sc4
   1802     52   2  1.100000    30.594464225    20.218486720     6.052931792   0   0   0 # sc4
   1803     52   2  1.100000    26.187044283    22.708221259     7.044944007   0   0   0 # sc4
   1804     52   2  1.100000    31.517415843    22.813349924    10.560880449   0   0   0 # sc4
   1805     52   2  1.100000    28.370994492    22.745996537     2.655992591   0   0   0 # sc4
   1806     52   2  1.100000    28.769953859    23.446859826    11.739626935   0   0   0 # sc4
   1807     52   2  1.100000    26.080223811    23.832437061     4.263175199   0   0   0 # sc4
   1808     52   2  1.100000    31.615186432    22.781966922     7.543192129   0   0   0 # sc4
   1809     52   2  1.100000    27.882471872    20.167129824     7.479529201   0   0   0 # sc4
   1810     52   2  1.100000    33.204184469    20.334756716    11.147251518   0   0   0 # sc4
   1811     52   2  1.100000    30.464034976    20.356362980     2.883841057   0   0   0 # sc4
   1812     53   1 -0.550000    28.469490079    20.335550889    22.404096420   0   0   0 # oc23
   1813     53   1 -0.550000    31.055831119    19.253543496    19.390637013   0   0   0 # oc23
   1814     53   1 -0.550000    26.618176847    23.788552571    19.116470143   0   0   0 # oc23
   1815     53   1 -0.550000    32.479864903    24.077578464    22.713399174   0   0   0 # oc23
   1816     53   1 -0.550000    29.983988945    23.779714913    14.998266275   0   0   0 # oc23
   1817     53   1 -0.550000    29.850008460    23.359719691    23.691558739   0   0   0 # oc23
   1818     53   1 -0.550000    27.463110776    23.246880000    15.627379517   0   0   0 # oc23
   1819     53   1 -0.550000    32.812682846    22.307031364    19.415531998   0   0   0 # oc23
   1820     53   1 -0.550000    27.807314636    21.009825775    20.132795834   0   0   0 # oc23
   1821     53   1 -0.550000    30.924632677    20.330416527    16.860485188   0   0   0 # oc23
   1822     53   1 -0.550000    27.784083658    22.884357261    21.995734342   0   0   0 # oc23
   1823     53   1 -0.550000    25.240793797    22.476757954    14.437153855   0   0   0 # oc23
   1824     53   1 -0.550000    30.374550059    21.742819224    18.983860753   0   0   0 # oc23
   1825     53   1 -0.550000    26.514003994    21.289757724    18.103568480   0   0   0 # oc23
   1826     53   1 -0.550000    32.496572468    21.569046001    23.727050175   0   0   0 # oc23
   1827     53   1 -0.550000    29.159292726    21.293230351    15.109893557   0   0   0 # oc23
   1828     53   1 -0.550000    31.581266302    20.735682121    14.312835673   0   0   0 # oc23
   1829     53   1 -0.550000    25.987814762    20.900189890    21.990778790   0   0   0 # oc23
   1830     53   1 -0.550000    28.780537651    19.905389245    18.154584727   0   0   0 # oc23
   1831     53   1 -0.550000    25.231941332    23.162537379    16.993752996   0   0   0 # oc23
   1832     53   1 -0.550000    31.090944362    22.387601921    21.465623873   0   0   0 # oc23
   1833     53   1 -0.550000    28.309321160    22.949922873    13.199023463   0   0   0 # oc23
   1834     53   2  1.100000    33.159015276    20.945373181    14.151070402   0   0   0 # sc4
   1835     53   2  1.100000    27.505392550    21.328315158    21.627011952   0   0   0 # sc4
   1836     53   2  1.100000    30.312623256    20.277942460    18.345433447   0   0   0 # sc4
   1837     53   2  1.100000    25.702205999    22.643560543    18.417095578   0   0   0 # sc4
   1838     53   2  1.100000    31.448415884    22.825885633    23.015163549   0   0   0 # sc4
   1839     53   2  1.100000    28.733017091    22.810963965    14.741042071   0   0   0 # sc4
   1840     53   2  1.100000    28.238146373    23.935078559    23.142125517   0   0   0 # sc4
   1841     53   2  1.100000    25.868364029    23.464202086    15.557241518   0   0   0 # sc4
   1842     53   2  1.100000    31.319326362    22.693523080    19.847902699   0   0   0 # sc4
   1843     53   2  1.100000    27.395320777    20.204335003    18.847804677   0   0   0 # sc4
   1844     53   2  1.100000    33.543092024    20.239261721    23.230834110   0   0   0 # sc4
   1845     53   2  1.100000    30.415810229    20.299351375    15.327086004   0   0   0 # sc4
   1846     54   1 -0.550000    28.363146095    24.982473295    11.447833130   0   0   0 # oc23
   1847     54   1 -0.550000    31.554801342    24.243777721     6.898336866   0   0   0 # oc23
   1848     54   1 -0.550000    27.062766029    28.774824817     7.783432399   0   0   0 # oc23
   1849     54   1 -0.550000    32.775218380    28.778346599    10.757193158   0   0   0 # oc23
   1850     54   1 -0.550000    29.408371737    29.058981004     2.153749040   0   0   0 # oc23
   1851     54   1 -0.550000    30.352184034    28.238801425    11.568642728   0   0   0 # oc23
   1852     54   1 -0.550000    27.594081551    28.385986041     3.896419791   0   0   0 # oc23
   1853     54   1 -0.550000    33.142961546    27.381970708     7.724390366   0   0   0 # oc23
   1854     54   1 -0.550000    28.367692453    25.660706254     8.890977429   0   0   0 # oc23
   1855     54   1 -0.550000    30.819167213    24.890561258     4.421142145   0   0   0 # oc23
   1856     54   1 -0.550000    28.047428437    27.489619459    10.677980607   0   0   0 # oc23
   1857     54   1 -0.550000    25.113287770    27.816259080     3.482934220   0   0   0 # oc23
   1858     54   1 -0.550000    30.864629543    26.732344357     6.493653329   0   0   0 # oc23
   1859     54   1 -0.550000    26.987310056    26.297509827     6.764884959   0   0   0 # oc23
   1860     54   1 -0.550000    31.963085292    26.284590049    10.903004659   0   0   0 # oc23
   1861     54   1 -0.550000    29.432165666    26.590488407     3.172578110   0   0   0 # oc23
   1862     54   1 -0.550000    32.066394216    25.861969993     2.196566152   0   0   0 # oc23
   1863     54   1 -0.550000    26.142430793    25.752735821    10.260850433   0   0   0 # oc23
   1864     54   1 -0.550000    29.111080006    24.792712363     6.480579452   0   0   0 # oc23
   1865     54   1 -0.550000    25.772786539    28.484384814     5.755021607   0   0   0 # oc23
   1866     54   1 -0.550000    31.002617924    27.794050047     9.026679588   0   0   0 # oc23
   1867     54   1 -0.550000    26.853198805    27.006259790     1.982654282   0   0   0 # oc23
   1868     54   2  1.100000     0.317764526    26.431992492     2.741890583   1   0   0 # sc4
   1869     54   2  1.100000    27.738932540    25.967144541    10.327786008   0   0   0 # sc4
   1870     54   2  1.100000    30.600039560    25.190600696     6.040227473   0   0   0 # sc4
   1871     54   2  1.100000    26.189077047    27.681864738     7.040637558   0   0   0 # sc4
   1872     54   2  1.100000    31.515638717    27.783856400    10.559613397   0   0   0 # sc4
   1873     54   2  1.100000    28.365847323    27.726484079     2.649538962   0   0   0 # sc4
   1874     54   2  1.100000    28.771802092    28.422788081    11.734162468   0   0   0 # sc4
   1875     54   2  1.100000    26.074462578    28.808892472     4.261485292   0   0   0 # sc4
   1876     54   2  1.100000    31.609646713    27.753260966     7.539553326   0   0   0 # sc4
   1877     54   2  1.100000    27.891568837    25.143144133     7.467515850   0   0   0 # sc4
   1878     54   2  1.100000    33.213716778    25.313936544    11.149844101   0   0   0 # sc4
   1879     54   2  1.100000    30.463024145    25.335359862     2.871657015   0   0   0 # sc4
   1880     55   1 -0.550000    28.461868147    25.313978373    22.411941569   0   0   0 # oc23
   1881     55   1 -0.550000    31.051385630    24.236961040    19.393838143   0   0   0 # oc23
   1882     55   1 -0.550000    26.625714857    28.766671550    19.114955198   0   0   0 # oc23
   1883     55   1 -0.550000    32.490746368    29.056062055    22.713216250   0   0   0 # oc23
   1884     55   1 -0.550000    29.989293547    28.760734170    14.982999439   0   0   0 # oc23
   1885     55   1 -0.550000    29.857821054    28.344475734    23.683584371   0   0   0 # oc23
   1886     55   1 -0.550000    27.471617596    28.225489712    15.624011173   0   0   0 # oc23
   1887     55   1 -0.550000    32.815835403    27.282181918    19.404844961   0   0   0 # oc23
   1888     55   1 -0.550000    27.816212465    25.975846016    20.137148703   0   0   0 # oc23
   1889     55   1 -0.550000    30.933215853    25.308870359    16.860180039   0   0   0 # oc23
   1890     55   1 -0.550000    27.785583192    27.862333083    21.990384488   0   0   0 # oc23
   1891     55   1 -0.550000    25.242365668    27.458046551    14.440764864   0   0   0 # oc23
   1892     55   1 -0.550000    30.376198761    26.722170514    18.982448669   0   0   0 # oc23
   1893     55   1 -0.550000    26.519045982    26.266106255    18.105746554   0   0   0 # oc23
   1894     55   1 -0.550000    32.502172578    26.550569711    23.727724833   0   0   0 # oc23
   1895     55   1 -0.550000    29.169512115    26.273596936    15.107851052   0   0   0 # oc23
   1896     55   1 -0.550000    31.596547971    25.730193429    14.315260983   0   0   0 # oc23
   1897     55   1 -0.550000    25.983659687    25.876775944    21.987428091   0   0   0 # oc23
   1898     55   1 -0.550000    28.785641819    24.887085869    18.148387516   0   0   0 # oc23
   1899     55   1 -0.550000    25.240387771    28.140461546    16.991317149   0   0   0 # oc23
   1900     55   1 -0.550000    31.102326831    27.367522794    21.460929309   0   0   0 # oc23
   1901     55   1 -0.550000    28.311996781    27.924250631    13.192597694   0   0   0 # oc23
   1902     55   2  1.100000    33.175929265    25.928275657    14.150062389   0   0   0 # sc4
   1903     55   2  1.100000    27.503011062    26.303641578    21.627731867   0   0   0 # sc4
   1904     55   2  1.100000    30.315908573    25.258007577    18.343658618   0   0   0 # sc4
   1905     55   2  1.100000    25.708463463    27.620717979    18.417702580   0   0   0 # sc4
   1906     55   2  1.100000    31.456934895    27.807065410    23.011821035   0   0   0 # sc4
   1907     55   2  1.100000    28.739314752    27.788795465    14.734426059   0   0   0 # sc4
   1908     55   2  1.100000    28.244838344    28.918483449    23.132800668   0   0   0 # sc4
   1909     55   2  1.100000    25.875408177    28.442292855    15.555861635   0   0   0 # sc4
   1910     55   2  1.100000    31.325850306    27.672681718    19.841065329   0   0   0 # sc4
   1911     55   2  1.100000    27.402836711    25.179385051    18.846079496   0   0   0 # sc4
   1912     55   2  1.100000    33.543089632    25.214400576    23.235978383   0   0   0 # sc4
   1913     55   2  1.100000    30.430366224    25.283905430    15.325186857   0   0   0 # sc4
   1914     56   1 -0.550000    28.365586686    29.959987908    11.445111234   0   0   0 # oc23
   1915     56   1 -0.550000    31.543317814    29.218923855     6.902711947   0   0   0 # oc23
   1916     56   1 -0.550000    27.066124423    33.755420494     7.777237103   0   0   0 # oc23
   1917     56   1 -0.550000    32.767642397    33.766680218    10.748356996   0   0   0 # oc23
   1918     56   1 -0.550000    29.405708290    34.030921516     2.147701573   0   0   0 # oc23
   1919     56   1 -0.550000    30.346803097    33.218909552    11.562931670   0   0   0 # oc23
   1920     56   1 -0.550000    27.593338785    33.357162292     3.890895174   0   0   0 # oc23
   1921     56   1 -0.550000    33.130916821    32.357261341     7.720500400   0   0   0 # oc23
   1922     56   1 -0.550000    28.366039080    30.642119196     8.888697611   0   0   0 # oc23
   1923     56   1 -0.550000    30.813749897    29.865988476     4.418628354   0   0   0 # oc23
   1924     56   1 -0.550000    28.040956700    32.470605071    10.677591128   0   0   0 # oc23
   1925     56   1 -0.550000    25.111718791    32.795102465     3.477442255   0   0   0 # oc23
   1926     56   1 -0.550000    30.854193095    31.711177003     6.490933676   0   0   0 # oc23
   1927     56   1 -0.550000    26.981555923    31.274997394     6.764100126   0   0   0 # oc23
   1928     56   1 -0.550000    31.955671128    31.267201590    10.882983682   0   0   0 # oc23
   1929     56   1 -0.550000    29.429025995    31.564070562     3.168915675   0   0   0 # oc23
   1930     56   1 -0.550000    32.060041612    30.842422959     2.192743541   0   0   0 # oc23
   1931     56   1 -0.550000    26.142915124    30.732176388    10.260045296   0   0   0 # oc23
   1932     56   1 -0.550000    29.102925501    29.772455796     6.477793122   0   0   0 # oc23
   1933     56   1 -0.550000    25.772854481    33.461284323     5.746948115   0   0   0 # oc23
   1934     56   1 -0.550000    30.993354056    32.788697246     9.019508319   0   0   0 # oc23
   1935     56   1 -0.550000    26.850338979    31.974838818     1.979449062   0   0   0 # oc23
   1936     56   2  1.100000     0.308084429    31.414389794     2.739739709   1   0   0 # sc4
   1937     56   2  1.100000    27.737909988    30.946887488    10.326993574   0   0   0 # sc4
   1938     56   2  1.100000    30.592441377    30.167668526     6.038820995   0   0   0 # sc4
   1939     56   2  1.100000    26.189666537    32.662255429     7.035307732   0   0   0 # sc4
   1940     56   2  1.100000    31.508801768    32.769870976    10.550063964   0   0   0 # sc4
   1941     56   2  1.100000    28.363696771    32.697559976     2.644181251   0   0   0 # sc4
   1942     56   2  1.100000    28.767003852    33.406207375    11.732876104   0   0   0 # sc4
   1943     56   2  1.100000    26.075655769    33.786222198     4.254541141   0   0   0 # sc4
   1944     56   2  1.100000    31.600967612    32.734284026     7.531721724   0   0   0 # sc4
   1945     56   2  1.100000    27.885879302    30.121989462     7.467115414   0   0   0 # sc4
   1946     56   2  1.100000    33.205074228    30.294892841    11.134451989   0   0   0 # sc4
   1947     56   2  1.100000    30.458837102    30.311224204     2.868090661   0   0   0 # sc4
   1948     57   1 -0.550000    28.469293087    30.294251756    22.397558635   0   0   0 # oc23
   1949     57   1 -0.550000    31.059910463    29.214277022    19.385766560   0   0   0 # oc23
   1950     57   1 -0.550000    26.614213432    33.745157142    19.119450812   0   0   0 # oc23
   1951     57   1 -0.550000    32.482617926    34.031821766    22.713608283   0   0   0 # oc23
   1952     57   1 -0.550000    29.982875571    33.738342627    14.987335949   0   0   0 # oc23
   1953     57   1 -0.550000    29.849788148    33.306442584    23.683579235   0   0   0 # oc23
   1954     57   1 -0.550000    27.465239130    33.208219767    15.622963116   0   0   0 # oc23
   1955     57   1 -0.550000    32.815342849    32.258557318    19.402379301   0   0   0 # oc23
   1956     57   1 -0.550000    27.820433503    30.961340104    20.125168948   0   0   0 # oc23
   1957     57   1 -0.550000    30.936034845    30.284063446    16.848919277   0   0   0 # oc23
   1958     57   1 -0.550000    27.781955268    32.839302118    21.986065850   0   0   0 # oc23
   1959     57   1 -0.550000    25.242573576    32.435859204    14.442095875   0   0   0 # oc23
   1960     57   1 -0.550000    30.379651400    31.698721772    18.973591314   0   0   0 # oc23
   1961     57   1 -0.550000    26.522807563    31.245377288    18.102474647   0   0   0 # oc23
   1962     57   1 -0.550000    32.501823654    31.524401396    23.730199267   0   0   0 # oc23
   1963     57   1 -0.550000    29.163222050    31.250909373    15.101822381   0   0   0 # oc23
   1964     57   1 -0.550000    31.592943934    30.721648406    14.305468986   0   0   0 # oc23
   1965     57   1 -0.550000    25.989167238    30.853071477    21.976754957   0   0   0 # oc23
   1966     57   1 -0.550000    28.791611193    29.864377282    18.141560893   0   0   0 # oc23
   1967     57   1 -0.550000    25.236392115    33.119138918    16.994789575   0   0   0 # oc23
   1968     57   1 -0.550000    31.102465118    32.334926198    21.459976698   0   0   0 # oc23
   1969     57   1 -0.550000    28.305319542    32.911369505    13.192020110   0   0   0 # oc23
   1970     57   2  1.100000    33.172166388    30.913154467    14.137739632   0   0   0 # sc4
   1971     57   2  1.100000    27.507492757    31.283749578    21.617451469   0   0   0 # sc4
   1972     57   2  1.100000    30.322327156    30.234671315    18.334969390   0   0   0 # sc4
   1973     57   2  1.100000    25.705549476    32.596495086    18.417078099   0   0   0 # sc4
   1974     57   2  1.100000    31.453106103    32.776587889    23.012545206   0   0   0 # sc4
   1975     57   2  1.100000    28.732115987    32.769261187    14.734356888   0   0   0 # sc4
   1976     57   2  1.100000    28.236557831    33.886735598    23.135070267   0   0   0 # sc4
   1977     57   2  1.100000    25.869775487    33.423157020    15.558263368   0   0   0 # sc4
   1978     57   2  1.100000    31.323324166    32.647344518    19.839867027   0   0   0 # sc4
   1979     57   2  1.100000    27.409292234    30.158743922    18.838537978   0   0   0 # sc4
   1980     57   2  1.100000    33.549463342    30.193273989    23.241293507   0   0   0 # sc4
   1981     57   2  1.100000    30.429693336    30.264787655    15.314219651   0   0   0 # sc4
   1982     58   1 -0.550000     0.756952959     0.499423858     3.885865297   1   0   0 # oc23
   1983     59   1 -0.550000     0.524210014     0.111676337    15.201214295   1   0   0 # oc23
   1984     59   1 -0.550000    33.618470295     0.544721352    12.685867312   0   0   0 # oc23
   1985     60   1 -0.550000     0.751490920     5.478382539     3.893618489   0   0   0 # oc23
   1986     61   1 -0.550000     0.519871753     5.082161345    15.204706130   0   0   0 # oc23
   1987     61   1 -0.550000    33.611394369     5.517303947    12.687985172   0   0   0 # oc23
   1988     62   1 -0.550000     0.760808835    10.457502991     3.895111701   0   0   0 # oc23
   1989     63   1 -0.550000     0.515839216    10.056649494    15.206382717   0   0   0 # oc23
   1990     63   1 -0.550000    33.610578426    10.494247030    12.692681452   0   0   0 # oc23
   1991     64   1 -0.550000     0.765218522    15.432499610     3.903263224   0   0   0 # oc23
   1992     65   1 -0.550000     0.512238786    15.031799101    15.211600710   0   0   0 # oc23
   1993     65   1 -0.550000    33.611424106    15.465019747    12.696245791   0   0   0 # oc23
   1994     66   1 -0.550000     0.777366841    20.410397003     3.897094335   0   0   0 # oc23
   1995     67   1 -0.550000     0.527754794    20.009325798    15.198986842   0   0   0 # oc23
   1996     67   1 -0.550000     0.259952617    20.471030597    12.688478445   1   0   0 # oc23
   1997     68   1 -0.550000     0.780335934    25.382500637     3.887980395   0   0   0 # oc23
   1998     69   1 -0.550000     0.537308891    24.994321798    15.204124192   0   0   0 # oc23
   1999     69   1 -0.550000     0.272005647    25.440510279    12.690673652   1   0   0 # oc23
   2000     70   1 -0.550000     0.769126135    30.361993897     3.883812772   0   0   0 # oc23
   2001     71   1 -0.550000     0.529377685    29.979928728    15.196470954   0   0   0 # oc23
   2002     71   1 -0.550000     0.263564873    30.421145233    12.677068954   1   0   0 # oc23
   2003     72   1 -0.550000    33.442670919     2.930236729     3.477502524   0   0   0 # oc23
   2004     73   1 -0.550000    33.582008307     2.576137258    14.432438834   0   0   0 # oc23
   2005     74   1 -0.550000    33.444991172     7.909858959     3.484283134   0   0   0 # oc23
   2006     75   1 -0.550000    33.583391297     7.549861205    14.431909010   0   0   0 # oc23
   2007     76   1 -0.550000    33.447890927    12.886201282     3.487942311   0   0   0 # oc23
   2008     77   1 -0.550000    33.569996276    12.525034905    14.440016641   0   0   0 # oc23
   2009     78   1 -0.550000    33.459294921    17.863911286     3.489435497   0   0   0 # oc23
   2010     79   1 -0.550000    33.568304199    17.499620773    14.434985044   0   0   0 # oc23
   2011     80   1 -0.550000    33.463471532    22.837308698     3.483114247   0   0   0 # oc23
   2012     81   1 -0.550000    33.548490356    22.485148059    14.451143392   0   0   0 # oc23
   2013     82   1 -0.550000    33.463403185    27.811481439     3.472128294  -1   0   0 # oc23
   2014     83   1 -0.550000    33.571655387    27.467565783    14.441112702  -1   0   0 # oc23
   2015     84   1 -0.550000    33.449816272    32.792026160     3.471073822   0   0   0 # oc23
   2016     85   1 -0.550000    33.576376065    32.449741337    14.429224351   0   0   0 # oc23

Bonds

     1   1      1     24
     2   1      1    471
     3   1      2     23
     4   1      2    968
     5   1      3     25
     6   1      3    473
     7   1      4     26
     8   1      4    129
     9   1      5     27
    10   1      5    130
    11   1      6     28
    12   1      6    131
    13   1      7     27
    14   1      7     29
    15   1      8     28
    16   1      8     30
    17   1      9     31
    18   1      9    538
    19   1     10     24
    20   1     10     32
    21   1     11     25
    22   1     11     34
    23   1     12     24
    24   1     12     29
    25   1     13     25
    26   1     13     31
    27   1     14     26
    28   1     14     32
    29   1     15     27
    30   1     15     33
    31   1     16     28
    32   1     16     34
    33   1     17     23
    34   1     17     34
    35   1     18     24
    36   1     18   1538
    37   1     19     25
    38   1     19     32
    39   1     20     26
    40   1     20     30
    41   1     21     27
    42   1     21     31
    43   1     22     28
    44   1     22   1528
    45   1    524     23
    46   1    534     23
    47   1   1513     26
    48   1     98     29
    49   1     57     29
    50   1   1985     30
    51   1   2003     30
    52   1    100     31
    53   1    446     32
    54   1    530     33
    55   1     45     33
    56   1    447     33
    57   1    448     34
    58   1     35     59
    59   1     35    506
    60   1     36     58
    61   1     36   1004
    62   1     37     60
    63   1     37    508
    64   1     38     61
    65   1     38    164
    66   1     39     62
    67   1     39    165
    68   1     40     63
    69   1     40    166
    70   1     41     62
    71   1     41     64
    72   1     42     63
    73   1     42     65
    74   1     43     66
    75   1     43    574
    76   1     44     59
    77   1     44     67
    78   1     45     58
    79   1     46     60
    80   1     46     69
    81   1     47     59
    82   1     47     64
    83   1     48     60
    84   1     48     66
    85   1     49     61
    86   1     49     67
    87   1     50     62
    88   1     50     68
    89   1     51     63
    90   1     51     69
    91   1     52     58
    92   1     52     69
    93   1     53     59
    94   1     53   1572
    95   1     54     60
    96   1     54     67
    97   1     55     61
    98   1     55     65
    99   1     56     62
   100   1     56     66
   101   1     57     63
   102   1    560     58
   103   1   1547     61
   104   1    132     64
   105   1     70     64
   106   1   1986     65
   107   1   2004     65
   108   1    134     66
   109   1    480     67
   110   1    566     68
   111   1    481     68
   112   1     83     68
   113   1    482     69
   114   1     70   1640
   115   1     71    161
   116   1     71   1708
   117   1     72    230
   118   1     72   1776
   119   1     73    299
   120   1     73   1844
   121   1     74    368
   122   1     74   1912
   123   1     75    437
   124   1     75   1980
   125   1     76    506
   126   1     76   1572
   127   1     77    577
   128   1     77    165
   129   1     78    648
   130   1     78    234
   131   1     79    719
   132   1     79    303
   133   1     80    790
   134   1     80    372
   135   1     81    861
   136   1     81    441
   137   1     82    932
   138   1     82    510
   139   1     83   1003
   140   1     84   1074
   141   1     84    652
   142   1     85   1145
   143   1     85    723
   144   1     86   1216
   145   1     86    794
   146   1     87   1287
   147   1     87    865
   148   1     88   1358
   149   1     88    936
   150   1     89   1429
   151   1     89   1007
   152   1     90   1500
   153   1     90    581
   154   1     91   1568
   155   1     91   1149
   156   1     92   1636
   157   1     92   1220
   158   1     93   1704
   159   1     93   1291
   160   1     94   1772
   161   1     94   1362
   162   1     95   1840
   163   1     95   1433
   164   1     96   1908
   165   1     96   1504
   166   1     97   1976
   167   1     97   1078
   168   1     98    121
   169   1     99    120
   170   1     99    542
   171   1    100    122
   172   1    101    123
   173   1    101    198
   174   1    102    124
   175   1    102    199
   176   1    103    125
   177   1    103    200
   178   1    104    124
   179   1    104    126
   180   1    105    125
   181   1    105    127
   182   1    106    128
   183   1    106    609
   184   1    107    121
   185   1    107    129
   186   1    108    122
   187   1    108    131
   188   1    109    121
   189   1    109    126
   190   1    110    122
   191   1    110    128
   192   1    111    123
   193   1    111    129
   194   1    112    124
   195   1    112    130
   196   1    113    125
   197   1    113    131
   198   1    114    120
   199   1    114    131
   200   1    115    121
   201   1    115   1606
   202   1    116    122
   203   1    116    129
   204   1    117    123
   205   1    117    127
   206   1    118    124
   207   1    118    128
   208   1    119    125
   209   1    119   1596
   210   1    595    120
   211   1    605    120
   212   1   1581    123
   213   1    167    126
   214   1    154    126
   215   1   1988    127
   216   1   2005    127
   217   1    169    128
   218   1    601    130
   219   1    142    130
   220   1    132    156
   221   1    133    155
   222   1    133    578
   223   1    134    157
   224   1    135    158
   225   1    135    233
   226   1    136    159
   227   1    136    234
   228   1    137    160
   229   1    137    235
   230   1    138    159
   231   1    138    161
   232   1    139    160
   233   1    139    162
   234   1    140    163
   235   1    140    645
   236   1    141    156
   237   1    141    164
   238   1    142    155
   239   1    143    157
   240   1    143    166
   241   1    144    156
   242   1    144    161
   243   1    145    157
   244   1    145    163
   245   1    146    158
   246   1    146    164
   247   1    147    159
   248   1    147    165
   249   1    148    160
   250   1    148    166
   251   1    149    155
   252   1    149    166
   253   1    150    156
   254   1    150   1640
   255   1    151    157
   256   1    151    164
   257   1    152    158
   258   1    152    162
   259   1    153    159
   260   1    153    163
   261   1    154    160
   262   1    631    155
   263   1   1615    158
   264   1    201    161
   265   1   1989    162
   266   1   2006    162
   267   1    203    163
   268   1    637    165
   269   1    167    190
   270   1    168    189
   271   1    168    613
   272   1    169    191
   273   1    170    192
   274   1    170    267
   275   1    171    193
   276   1    171    268
   277   1    172    194
   278   1    172    269
   279   1    173    193
   280   1    173    195
   281   1    174    194
   282   1    174    196
   283   1    175    197
   284   1    175    680
   285   1    176    190
   286   1    176    198
   287   1    177    191
   288   1    177    200
   289   1    178    190
   290   1    178    195
   291   1    179    191
   292   1    179    197
   293   1    180    192
   294   1    180    198
   295   1    181    193
   296   1    181    199
   297   1    182    194
   298   1    182    200
   299   1    183    189
   300   1    183    200
   301   1    184    190
   302   1    184   1674
   303   1    185    191
   304   1    185    198
   305   1    186    192
   306   1    186    196
   307   1    187    193
   308   1    187    197
   309   1    188    194
   310   1    188   1664
   311   1    666    189
   312   1    676    189
   313   1   1649    192
   314   1    236    195
   315   1    223    195
   316   1   1991    196
   317   1   2007    196
   318   1    238    197
   319   1    672    199
   320   1    211    199
   321   1    201    225
   322   1    202    224
   323   1    202    649
   324   1    203    226
   325   1    204    227
   326   1    204    302
   327   1    205    228
   328   1    205    303
   329   1    206    229
   330   1    206    304
   331   1    207    228
   332   1    207    230
   333   1    208    229
   334   1    208    231
   335   1    209    232
   336   1    209    716
   337   1    210    225
   338   1    210    233
   339   1    211    224
   340   1    212    226
   341   1    212    235
   342   1    213    225
   343   1    213    230
   344   1    214    226
   345   1    214    232
   346   1    215    227
   347   1    215    233
   348   1    216    228
   349   1    216    234
   350   1    217    229
   351   1    217    235
   352   1    218    224
   353   1    218    235
   354   1    219    225
   355   1    219   1708
   356   1    220    226
   357   1    220    233
   358   1    221    227
   359   1    221    231
   360   1    222    228
   361   1    222    232
   362   1    223    229
   363   1    702    224
   364   1   1683    227
   365   1    270    230
   366   1   1992    231
   367   1   2008    231
   368   1    272    232
   369   1    708    234
   370   1    236    259
   371   1    237    258
   372   1    237    684
   373   1    238    260
   374   1    239    261
   375   1    239    336
   376   1    240    262
   377   1    240    337
   378   1    241    263
   379   1    241    338
   380   1    242    262
   381   1    242    264
   382   1    243    263
   383   1    243    265
   384   1    244    266
   385   1    244    751
   386   1    245    259
   387   1    245    267
   388   1    246    260
   389   1    246    269
   390   1    247    259
   391   1    247    264
   392   1    248    260
   393   1    248    266
   394   1    249    261
   395   1    249    267
   396   1    250    262
   397   1    250    268
   398   1    251    263
   399   1    251    269
   400   1    252    258
   401   1    252    269
   402   1    253    259
   403   1    253   1742
   404   1    254    260
   405   1    254    267
   406   1    255    261
   407   1    255    265
   408   1    256    262
   409   1    256    266
   410   1    257    263
   411   1    257   1732
   412   1    737    258
   413   1    747    258
   414   1   1717    261
   415   1    305    264
   416   1    292    264
   417   1   1994    265
   418   1   2009    265
   419   1    307    266
   420   1    743    268
   421   1    280    268
   422   1    270    294
   423   1    271    293
   424   1    271    720
   425   1    272    295
   426   1    273    296
   427   1    273    371
   428   1    274    297
   429   1    274    372
   430   1    275    298
   431   1    275    373
   432   1    276    297
   433   1    276    299
   434   1    277    298
   435   1    277    300
   436   1    278    301
   437   1    278    787
   438   1    279    294
   439   1    279    302
   440   1    280    293
   441   1    281    295
   442   1    281    304
   443   1    282    294
   444   1    282    299
   445   1    283    295
   446   1    283    301
   447   1    284    296
   448   1    284    302
   449   1    285    297
   450   1    285    303
   451   1    286    298
   452   1    286    304
   453   1    287    293
   454   1    287    304
   455   1    288    294
   456   1    288   1776
   457   1    289    295
   458   1    289    302
   459   1    290    296
   460   1    290    300
   461   1    291    297
   462   1    291    301
   463   1    292    298
   464   1    773    293
   465   1   1751    296
   466   1    339    299
   467   1   1995    300
   468   1   2010    300
   469   1    341    301
   470   1    779    303
   471   1    305    328
   472   1    306    327
   473   1    306    755
   474   1    307    329
   475   1    308    330
   476   1    308    405
   477   1    309    331
   478   1    309    406
   479   1    310    332
   480   1    310    407
   481   1    311    331
   482   1    311    333
   483   1    312    332
   484   1    312    334
   485   1    313    335
   486   1    313    822
   487   1    314    328
   488   1    314    336
   489   1    315    329
   490   1    315    338
   491   1    316    328
   492   1    316    333
   493   1    317    329
   494   1    317    335
   495   1    318    330
   496   1    318    336
   497   1    319    331
   498   1    319    337
   499   1    320    332
   500   1    320    338
   501   1    321    327
   502   1    321    338
   503   1    322    328
   504   1    322   1810
   505   1    323    329
   506   1    323    336
   507   1    324    330
   508   1    324    334
   509   1    325    331
   510   1    325    335
   511   1    326    332
   512   1    326   1800
   513   1    808    327
   514   1    818    327
   515   1   1785    330
   516   1    374    333
   517   1    361    333
   518   1   1997    334
   519   1   2011    334
   520   1    376    335
   521   1    814    337
   522   1    349    337
   523   1    339    363
   524   1    340    362
   525   1    340    791
   526   1    341    364
   527   1    342    365
   528   1    342    440
   529   1    343    366
   530   1    343    441
   531   1    344    367
   532   1    344    442
   533   1    345    366
   534   1    345    368
   535   1    346    367
   536   1    346    369
   537   1    347    370
   538   1    347    858
   539   1    348    363
   540   1    348    371
   541   1    349    362
   542   1    350    364
   543   1    350    373
   544   1    351    363
   545   1    351    368
   546   1    352    364
   547   1    352    370
   548   1    353    365
   549   1    353    371
   550   1    354    366
   551   1    354    372
   552   1    355    367
   553   1    355    373
   554   1    356    362
   555   1    356    373
   556   1    357    363
   557   1    357   1844
   558   1    358    364
   559   1    358    371
   560   1    359    365
   561   1    359    369
   562   1    360    366
   563   1    360    370
   564   1    361    367
   565   1    844    362
   566   1   1819    365
   567   1    408    368
   568   1   1998    369
   569   1   2012    369
   570   1    410    370
   571   1    850    372
   572   1    374    397
   573   1    375    396
   574   1    375    826
   575   1    376    398
   576   1    377    399
   577   1    377    474
   578   1    378    400
   579   1    378    475
   580   1    379    401
   581   1    379    476
   582   1    380    400
   583   1    380    402
   584   1    381    401
   585   1    381    403
   586   1    382    404
   587   1    382    893
   588   1    383    397
   589   1    383    405
   590   1    384    398
   591   1    384    407
   592   1    385    397
   593   1    385    402
   594   1    386    398
   595   1    386    404
   596   1    387    399
   597   1    387    405
   598   1    388    400
   599   1    388    406
   600   1    389    401
   601   1    389    407
   602   1    390    396
   603   1    390    407
   604   1    391    397
   605   1    391   1878
   606   1    392    398
   607   1    392    405
   608   1    393    399
   609   1    393    403
   610   1    394    400
   611   1    394    404
   612   1    395    401
   613   1    395   1868
   614   1    879    396
   615   1    889    396
   616   1   1853    399
   617   1    443    402
   618   1    430    402
   619   1   2000    403
   620   1   2013    403
   621   1    445    404
   622   1    885    406
   623   1    418    406
   624   1    408    432
   625   1    409    431
   626   1    409    862
   627   1    410    433
   628   1    411    434
   629   1    411    509
   630   1    412    435
   631   1    412    510
   632   1    413    436
   633   1    413    511
   634   1    414    435
   635   1    414    437
   636   1    415    436
   637   1    415    438
   638   1    416    439
   639   1    416    929
   640   1    417    432
   641   1    417    440
   642   1    418    431
   643   1    419    433
   644   1    419    442
   645   1    420    432
   646   1    420    437
   647   1    421    433
   648   1    421    439
   649   1    422    434
   650   1    422    440
   651   1    423    435
   652   1    423    441
   653   1    424    436
   654   1    424    442
   655   1    425    431
   656   1    425    442
   657   1    426    432
   658   1    426   1912
   659   1    427    433
   660   1    427    440
   661   1    428    434
   662   1    428    438
   663   1    429    435
   664   1    429    439
   665   1    430    436
   666   1    915    431
   667   1   1887    434
   668   1    477    437
   669   1   2001    438
   670   1   2014    438
   671   1    479    439
   672   1    921    441
   673   1    443    466
   674   1    444    465
   675   1    444    897
   676   1    445    467
   677   1    446    468
   678   1    447    469
   679   1    448    470
   680   1    449    469
   681   1    449    471
   682   1    450    470
   683   1    450    472
   684   1    451    473
   685   1    451    964
   686   1    452    466
   687   1    452    474
   688   1    453    467
   689   1    453    476
   690   1    454    466
   691   1    454    471
   692   1    455    467
   693   1    455    473
   694   1    456    468
   695   1    456    474
   696   1    457    469
   697   1    457    475
   698   1    458    470
   699   1    458    476
   700   1    459    465
   701   1    459    476
   702   1    460    466
   703   1    460   1946
   704   1    461    467
   705   1    461    474
   706   1    462    468
   707   1    462    472
   708   1    463    469
   709   1    463    473
   710   1    464    470
   711   1    464   1936
   712   1    950    465
   713   1    960    465
   714   1   1921    468
   715   1    499    471
   716   1   2015    472
   717   1   1982    472
   718   1    956    475
   719   1    487    475
   720   1    477    501
   721   1    478    500
   722   1    478    933
   723   1    479    502
   724   1    480    503
   725   1    481    504
   726   1    482    505
   727   1    483    504
   728   1    483    506
   729   1    484    505
   730   1    484    507
   731   1    485    508
   732   1    485   1000
   733   1    486    501
   734   1    486    509
   735   1    487    500
   736   1    488    502
   737   1    488    511
   738   1    489    501
   739   1    489    506
   740   1    490    502
   741   1    490    508
   742   1    491    503
   743   1    491    509
   744   1    492    504
   745   1    492    510
   746   1    493    505
   747   1    493    511
   748   1    494    500
   749   1    494    511
   750   1    495    501
   751   1    495   1980
   752   1    496    502
   753   1    496    509
   754   1    497    503
   755   1    497    507
   756   1    498    504
   757   1    498    508
   758   1    499    505
   759   1    986    500
   760   1   1955    503
   761   1   2016    507
   762   1   1983    507
   763   1    992    510
   764   1    512    536
   765   1    512    967
   766   1    513    535
   767   1    513   1465
   768   1    514    537
   769   1    514    969
   770   1    515    538
   771   1    515    615
   772   1    516    539
   773   1    516    616
   774   1    517    540
   775   1    517    617
   776   1    518    539
   777   1    518    541
   778   1    519    540
   779   1    519    542
   780   1    520    543
   781   1    520   1035
   782   1    521    536
   783   1    521    544
   784   1    522    537
   785   1    522    546
   786   1    523    536
   787   1    523    541
   788   1    524    542
   789   1    525    537
   790   1    525    543
   791   1    526    538
   792   1    526    544
   793   1    527    539
   794   1    527    545
   795   1    528    540
   796   1    528    546
   797   1    529    535
   798   1    529    546
   799   1    530    536
   800   1    531    537
   801   1    531    544
   802   1    532    538
   803   1    532    542
   804   1    533    539
   805   1    533    543
   806   1    534    540
   807   1   1021    535
   808   1   1031    535
   809   1    583    541
   810   1    570    541
   811   1    585    543
   812   1    941    544
   813   1   1027    545
   814   1    557    545
   815   1    942    545
   816   1    943    546
   817   1    547    572
   818   1    547   1003
   819   1    548    571
   820   1    548   1501
   821   1    549    573
   822   1    549   1005
   823   1    550    574
   824   1    550    651
   825   1    551    575
   826   1    551    652
   827   1    552    576
   828   1    552    653
   829   1    553    575
   830   1    553    577
   831   1    554    576
   832   1    554    578
   833   1    555    579
   834   1    555   1071
   835   1    556    572
   836   1    556    580
   837   1    557    571
   838   1    558    573
   839   1    558    582
   840   1    559    572
   841   1    559    577
   842   1    560    578
   843   1    561    573
   844   1    561    579
   845   1    562    574
   846   1    562    580
   847   1    563    575
   848   1    563    581
   849   1    564    576
   850   1    564    582
   851   1    565    571
   852   1    565    582
   853   1    566    572
   854   1    567    573
   855   1    567    580
   856   1    568    574
   857   1    568    578
   858   1    569    575
   859   1    569    579
   860   1    570    576
   861   1   1057    571
   862   1    618    577
   863   1    620    579
   864   1    976    580
   865   1   1063    581
   866   1    977    581
   867   1    978    582
   868   1    583    607
   869   1    584    606
   870   1    584   1039
   871   1    585    608
   872   1    586    609
   873   1    586    686
   874   1    587    610
   875   1    587    687
   876   1    588    611
   877   1    588    688
   878   1    589    610
   879   1    589    612
   880   1    590    611
   881   1    590    613
   882   1    591    614
   883   1    591   1106
   884   1    592    607
   885   1    592    615
   886   1    593    608
   887   1    593    617
   888   1    594    607
   889   1    594    612
   890   1    595    613
   891   1    596    608
   892   1    596    614
   893   1    597    609
   894   1    597    615
   895   1    598    610
   896   1    598    616
   897   1    599    611
   898   1    599    617
   899   1    600    606
   900   1    600    617
   901   1    601    607
   902   1    602    608
   903   1    602    615
   904   1    603    609
   905   1    603    613
   906   1    604    610
   907   1    604    614
   908   1    605    611
   909   1   1092    606
   910   1   1102    606
   911   1    654    612
   912   1    641    612
   913   1    656    614
   914   1   1098    616
   915   1    628    616
   916   1    618    643
   917   1    619    642
   918   1    619   1075
   919   1    620    644
   920   1    621    645
   921   1    621    722
   922   1    622    646
   923   1    622    723
   924   1    623    647
   925   1    623    724
   926   1    624    646
   927   1    624    648
   928   1    625    647
   929   1    625    649
   930   1    626    650
   931   1    626   1142
   932   1    627    643
   933   1    627    651
   934   1    628    642
   935   1    629    644
   936   1    629    653
   937   1    630    643
   938   1    630    648
   939   1    631    649
   940   1    632    644
   941   1    632    650
   942   1    633    645
   943   1    633    651
   944   1    634    646
   945   1    634    652
   946   1    635    647
   947   1    635    653
   948   1    636    642
   949   1    636    653
   950   1    637    643
   951   1    638    644
   952   1    638    651
   953   1    639    645
   954   1    639    649
   955   1    640    646
   956   1    640    650
   957   1    641    647
   958   1   1128    642
   959   1    689    648
   960   1    691    650
   961   1   1134    652
   962   1    654    678
   963   1    655    677
   964   1    655   1110
   965   1    656    679
   966   1    657    680
   967   1    657    757
   968   1    658    681
   969   1    658    758
   970   1    659    682
   971   1    659    759
   972   1    660    681
   973   1    660    683
   974   1    661    682
   975   1    661    684
   976   1    662    685
   977   1    662   1177
   978   1    663    678
   979   1    663    686
   980   1    664    679
   981   1    664    688
   982   1    665    678
   983   1    665    683
   984   1    666    684
   985   1    667    679
   986   1    667    685
   987   1    668    680
   988   1    668    686
   989   1    669    681
   990   1    669    687
   991   1    670    682
   992   1    670    688
   993   1    671    677
   994   1    671    688
   995   1    672    678
   996   1    673    679
   997   1    673    686
   998   1    674    680
   999   1    674    684
  1000   1    675    681
  1001   1    675    685
  1002   1    676    682
  1003   1   1163    677
  1004   1   1173    677
  1005   1    725    683
  1006   1    712    683
  1007   1    727    685
  1008   1   1169    687
  1009   1    699    687
  1010   1    689    714
  1011   1    690    713
  1012   1    690   1146
  1013   1    691    715
  1014   1    692    716
  1015   1    692    793
  1016   1    693    717
  1017   1    693    794
  1018   1    694    718
  1019   1    694    795
  1020   1    695    717
  1021   1    695    719
  1022   1    696    718
  1023   1    696    720
  1024   1    697    721
  1025   1    697   1213
  1026   1    698    714
  1027   1    698    722
  1028   1    699    713
  1029   1    700    715
  1030   1    700    724
  1031   1    701    714
  1032   1    701    719
  1033   1    702    720
  1034   1    703    715
  1035   1    703    721
  1036   1    704    716
  1037   1    704    722
  1038   1    705    717
  1039   1    705    723
  1040   1    706    718
  1041   1    706    724
  1042   1    707    713
  1043   1    707    724
  1044   1    708    714
  1045   1    709    715
  1046   1    709    722
  1047   1    710    716
  1048   1    710    720
  1049   1    711    717
  1050   1    711    721
  1051   1    712    718
  1052   1   1199    713
  1053   1    760    719
  1054   1    762    721
  1055   1   1205    723
  1056   1    725    749
  1057   1    726    748
  1058   1    726   1181
  1059   1    727    750
  1060   1    728    751
  1061   1    728    828
  1062   1    729    752
  1063   1    729    829
  1064   1    730    753
  1065   1    730    830
  1066   1    731    752
  1067   1    731    754
  1068   1    732    753
  1069   1    732    755
  1070   1    733    756
  1071   1    733   1248
  1072   1    734    749
  1073   1    734    757
  1074   1    735    750
  1075   1    735    759
  1076   1    736    749
  1077   1    736    754
  1078   1    737    755
  1079   1    738    750
  1080   1    738    756
  1081   1    739    751
  1082   1    739    757
  1083   1    740    752
  1084   1    740    758
  1085   1    741    753
  1086   1    741    759
  1087   1    742    748
  1088   1    742    759
  1089   1    743    749
  1090   1    744    750
  1091   1    744    757
  1092   1    745    751
  1093   1    745    755
  1094   1    746    752
  1095   1    746    756
  1096   1    747    753
  1097   1   1234    748
  1098   1   1244    748
  1099   1    796    754
  1100   1    783    754
  1101   1    798    756
  1102   1   1240    758
  1103   1    770    758
  1104   1    760    785
  1105   1    761    784
  1106   1    761   1217
  1107   1    762    786
  1108   1    763    787
  1109   1    763    864
  1110   1    764    788
  1111   1    764    865
  1112   1    765    789
  1113   1    765    866
  1114   1    766    788
  1115   1    766    790
  1116   1    767    789
  1117   1    767    791
  1118   1    768    792
  1119   1    768   1284
  1120   1    769    785
  1121   1    769    793
  1122   1    770    784
  1123   1    771    786
  1124   1    771    795
  1125   1    772    785
  1126   1    772    790
  1127   1    773    791
  1128   1    774    786
  1129   1    774    792
  1130   1    775    787
  1131   1    775    793
  1132   1    776    788
  1133   1    776    794
  1134   1    777    789
  1135   1    777    795
  1136   1    778    784
  1137   1    778    795
  1138   1    779    785
  1139   1    780    786
  1140   1    780    793
  1141   1    781    787
  1142   1    781    791
  1143   1    782    788
  1144   1    782    792
  1145   1    783    789
  1146   1   1270    784
  1147   1    831    790
  1148   1    833    792
  1149   1   1276    794
  1150   1    796    820
  1151   1    797    819
  1152   1    797   1252
  1153   1    798    821
  1154   1    799    822
  1155   1    799    899
  1156   1    800    823
  1157   1    800    900
  1158   1    801    824
  1159   1    801    901
  1160   1    802    823
  1161   1    802    825
  1162   1    803    824
  1163   1    803    826
  1164   1    804    827
  1165   1    804   1319
  1166   1    805    820
  1167   1    805    828
  1168   1    806    821
  1169   1    806    830
  1170   1    807    820
  1171   1    807    825
  1172   1    808    826
  1173   1    809    821
  1174   1    809    827
  1175   1    810    822
  1176   1    810    828
  1177   1    811    823
  1178   1    811    829
  1179   1    812    824
  1180   1    812    830
  1181   1    813    819
  1182   1    813    830
  1183   1    814    820
  1184   1    815    821
  1185   1    815    828
  1186   1    816    822
  1187   1    816    826
  1188   1    817    823
  1189   1    817    827
  1190   1    818    824
  1191   1   1305    819
  1192   1   1315    819
  1193   1    867    825
  1194   1    854    825
  1195   1    869    827
  1196   1   1311    829
  1197   1    841    829
  1198   1    831    856
  1199   1    832    855
  1200   1    832   1288
  1201   1    833    857
  1202   1    834    858
  1203   1    834    935
  1204   1    835    859
  1205   1    835    936
  1206   1    836    860
  1207   1    836    937
  1208   1    837    859
  1209   1    837    861
  1210   1    838    860
  1211   1    838    862
  1212   1    839    863
  1213   1    839   1355
  1214   1    840    856
  1215   1    840    864
  1216   1    841    855
  1217   1    842    857
  1218   1    842    866
  1219   1    843    856
  1220   1    843    861
  1221   1    844    862
  1222   1    845    857
  1223   1    845    863
  1224   1    846    858
  1225   1    846    864
  1226   1    847    859
  1227   1    847    865
  1228   1    848    860
  1229   1    848    866
  1230   1    849    855
  1231   1    849    866
  1232   1    850    856
  1233   1    851    857
  1234   1    851    864
  1235   1    852    858
  1236   1    852    862
  1237   1    853    859
  1238   1    853    863
  1239   1    854    860
  1240   1   1341    855
  1241   1    902    861
  1242   1    904    863
  1243   1   1347    865
  1244   1    867    891
  1245   1    868    890
  1246   1    868   1323
  1247   1    869    892
  1248   1    870    893
  1249   1    870    970
  1250   1    871    894
  1251   1    871    971
  1252   1    872    895
  1253   1    872    972
  1254   1    873    894
  1255   1    873    896
  1256   1    874    895
  1257   1    874    897
  1258   1    875    898
  1259   1    875   1390
  1260   1    876    891
  1261   1    876    899
  1262   1    877    892
  1263   1    877    901
  1264   1    878    891
  1265   1    878    896
  1266   1    879    897
  1267   1    880    892
  1268   1    880    898
  1269   1    881    893
  1270   1    881    899
  1271   1    882    894
  1272   1    882    900
  1273   1    883    895
  1274   1    883    901
  1275   1    884    890
  1276   1    884    901
  1277   1    885    891
  1278   1    886    892
  1279   1    886    899
  1280   1    887    893
  1281   1    887    897
  1282   1    888    894
  1283   1    888    898
  1284   1    889    895
  1285   1   1376    890
  1286   1   1386    890
  1287   1    938    896
  1288   1    925    896
  1289   1    940    898
  1290   1   1382    900
  1291   1    912    900
  1292   1    902    927
  1293   1    903    926
  1294   1    903   1359
  1295   1    904    928
  1296   1    905    929
  1297   1    905   1006
  1298   1    906    930
  1299   1    906   1007
  1300   1    907    931
  1301   1    907   1008
  1302   1    908    930
  1303   1    908    932
  1304   1    909    931
  1305   1    909    933
  1306   1    910    934
  1307   1    910   1426
  1308   1    911    927
  1309   1    911    935
  1310   1    912    926
  1311   1    913    928
  1312   1    913    937
  1313   1    914    927
  1314   1    914    932
  1315   1    915    933
  1316   1    916    928
  1317   1    916    934
  1318   1    917    929
  1319   1    917    935
  1320   1    918    930
  1321   1    918    936
  1322   1    919    931
  1323   1    919    937
  1324   1    920    926
  1325   1    920    937
  1326   1    921    927
  1327   1    922    928
  1328   1    922    935
  1329   1    923    929
  1330   1    923    933
  1331   1    924    930
  1332   1    924    934
  1333   1    925    931
  1334   1   1412    926
  1335   1    973    932
  1336   1    975    934
  1337   1   1418    936
  1338   1    938    962
  1339   1    939    961
  1340   1    939   1394
  1341   1    940    963
  1342   1    941    964
  1343   1    942    965
  1344   1    943    966
  1345   1    944    965
  1346   1    944    967
  1347   1    945    966
  1348   1    945    968
  1349   1    946    969
  1350   1    946   1461
  1351   1    947    962
  1352   1    947    970
  1353   1    948    963
  1354   1    948    972
  1355   1    949    962
  1356   1    949    967
  1357   1    950    968
  1358   1    951    963
  1359   1    951    969
  1360   1    952    964
  1361   1    952    970
  1362   1    953    965
  1363   1    953    971
  1364   1    954    966
  1365   1    954    972
  1366   1    955    961
  1367   1    955    972
  1368   1    956    962
  1369   1    957    963
  1370   1    957    970
  1371   1    958    964
  1372   1    958    968
  1373   1    959    965
  1374   1    959    969
  1375   1    960    966
  1376   1   1447    961
  1377   1   1457    961
  1378   1    996    967
  1379   1   1453    971
  1380   1    983    971
  1381   1    973    998
  1382   1    974    997
  1383   1    974   1430
  1384   1    975    999
  1385   1    976   1000
  1386   1    977   1001
  1387   1    978   1002
  1388   1    979   1001
  1389   1    979   1003
  1390   1    980   1002
  1391   1    980   1004
  1392   1    981   1005
  1393   1    981   1497
  1394   1    982    998
  1395   1    982   1006
  1396   1    983    997
  1397   1    984    999
  1398   1    984   1008
  1399   1    985    998
  1400   1    985   1003
  1401   1    986   1004
  1402   1    987    999
  1403   1    987   1005
  1404   1    988   1000
  1405   1    988   1006
  1406   1    989   1001
  1407   1    989   1007
  1408   1    990   1002
  1409   1    990   1008
  1410   1    991    997
  1411   1    991   1008
  1412   1    992    998
  1413   1    993    999
  1414   1    993   1006
  1415   1    994   1000
  1416   1    994   1004
  1417   1    995   1001
  1418   1    995   1005
  1419   1    996   1002
  1420   1   1483    997
  1421   1   1489   1007
  1422   1   1009   1033
  1423   1   1009   1464
  1424   1   1010   1032
  1425   1   1010   1943
  1426   1   1011   1034
  1427   1   1011   1466
  1428   1   1012   1035
  1429   1   1012   1112
  1430   1   1013   1036
  1431   1   1013   1113
  1432   1   1014   1037
  1433   1   1014   1114
  1434   1   1015   1036
  1435   1   1015   1038
  1436   1   1016   1037
  1437   1   1016   1039
  1438   1   1017   1040
  1439   1   1017   1531
  1440   1   1018   1033
  1441   1   1018   1041
  1442   1   1019   1034
  1443   1   1019   1043
  1444   1   1020   1033
  1445   1   1020   1038
  1446   1   1021   1039
  1447   1   1022   1034
  1448   1   1022   1040
  1449   1   1023   1035
  1450   1   1023   1041
  1451   1   1024   1036
  1452   1   1024   1042
  1453   1   1025   1037
  1454   1   1025   1043
  1455   1   1026   1032
  1456   1   1026   1043
  1457   1   1027   1033
  1458   1   1028   1034
  1459   1   1028   1041
  1460   1   1029   1035
  1461   1   1029   1039
  1462   1   1030   1036
  1463   1   1030   1040
  1464   1   1031   1037
  1465   1   1517   1032
  1466   1   1527   1032
  1467   1   1080   1038
  1468   1   1067   1038
  1469   1   1082   1040
  1470   1   1438   1041
  1471   1   1523   1042
  1472   1   1054   1042
  1473   1   1439   1042
  1474   1   1440   1043
  1475   1   1044   1069
  1476   1   1044   1500
  1477   1   1045   1068
  1478   1   1045   1977
  1479   1   1046   1070
  1480   1   1046   1502
  1481   1   1047   1071
  1482   1   1047   1148
  1483   1   1048   1072
  1484   1   1048   1149
  1485   1   1049   1073
  1486   1   1049   1150
  1487   1   1050   1072
  1488   1   1050   1074
  1489   1   1051   1073
  1490   1   1051   1075
  1491   1   1052   1076
  1492   1   1052   1565
  1493   1   1053   1069
  1494   1   1053   1077
  1495   1   1054   1068
  1496   1   1055   1070
  1497   1   1055   1079
  1498   1   1056   1069
  1499   1   1056   1074
  1500   1   1057   1075
  1501   1   1058   1070
  1502   1   1058   1076
  1503   1   1059   1071
  1504   1   1059   1077
  1505   1   1060   1072
  1506   1   1060   1078
  1507   1   1061   1073
  1508   1   1061   1079
  1509   1   1062   1068
  1510   1   1062   1079
  1511   1   1063   1069
  1512   1   1064   1070
  1513   1   1064   1077
  1514   1   1065   1071
  1515   1   1065   1075
  1516   1   1066   1072
  1517   1   1066   1076
  1518   1   1067   1073
  1519   1   1551   1068
  1520   1   1115   1074
  1521   1   1117   1076
  1522   1   1473   1077
  1523   1   1557   1078
  1524   1   1474   1078
  1525   1   1475   1079
  1526   1   1080   1104
  1527   1   1081   1103
  1528   1   1081   1535
  1529   1   1082   1105
  1530   1   1083   1106
  1531   1   1083   1183
  1532   1   1084   1107
  1533   1   1084   1184
  1534   1   1085   1108
  1535   1   1085   1185
  1536   1   1086   1107
  1537   1   1086   1109
  1538   1   1087   1108
  1539   1   1087   1110
  1540   1   1088   1111
  1541   1   1088   1599
  1542   1   1089   1104
  1543   1   1089   1112
  1544   1   1090   1105
  1545   1   1090   1114
  1546   1   1091   1104
  1547   1   1091   1109
  1548   1   1092   1110
  1549   1   1093   1105
  1550   1   1093   1111
  1551   1   1094   1106
  1552   1   1094   1112
  1553   1   1095   1107
  1554   1   1095   1113
  1555   1   1096   1108
  1556   1   1096   1114
  1557   1   1097   1103
  1558   1   1097   1114
  1559   1   1098   1104
  1560   1   1099   1105
  1561   1   1099   1112
  1562   1   1100   1106
  1563   1   1100   1110
  1564   1   1101   1107
  1565   1   1101   1111
  1566   1   1102   1108
  1567   1   1585   1103
  1568   1   1595   1103
  1569   1   1151   1109
  1570   1   1138   1109
  1571   1   1153   1111
  1572   1   1591   1113
  1573   1   1125   1113
  1574   1   1115   1140
  1575   1   1116   1139
  1576   1   1116   1569
  1577   1   1117   1141
  1578   1   1118   1142
  1579   1   1118   1219
  1580   1   1119   1143
  1581   1   1119   1220
  1582   1   1120   1144
  1583   1   1120   1221
  1584   1   1121   1143
  1585   1   1121   1145
  1586   1   1122   1144
  1587   1   1122   1146
  1588   1   1123   1147
  1589   1   1123   1633
  1590   1   1124   1140
  1591   1   1124   1148
  1592   1   1125   1139
  1593   1   1126   1141
  1594   1   1126   1150
  1595   1   1127   1140
  1596   1   1127   1145
  1597   1   1128   1146
  1598   1   1129   1141
  1599   1   1129   1147
  1600   1   1130   1142
  1601   1   1130   1148
  1602   1   1131   1143
  1603   1   1131   1149
  1604   1   1132   1144
  1605   1   1132   1150
  1606   1   1133   1139
  1607   1   1133   1150
  1608   1   1134   1140
  1609   1   1135   1141
  1610   1   1135   1148
  1611   1   1136   1142
  1612   1   1136   1146
  1613   1   1137   1143
  1614   1   1137   1147
  1615   1   1138   1144
  1616   1   1619   1139
  1617   1   1186   1145
  1618   1   1188   1147
  1619   1   1625   1149
  1620   1   1151   1175
  1621   1   1152   1174
  1622   1   1152   1603
  1623   1   1153   1176
  1624   1   1154   1177
  1625   1   1154   1254
  1626   1   1155   1178
  1627   1   1155   1255
  1628   1   1156   1179
  1629   1   1156   1256
  1630   1   1157   1178
  1631   1   1157   1180
  1632   1   1158   1179
  1633   1   1158   1181
  1634   1   1159   1182
  1635   1   1159   1667
  1636   1   1160   1175
  1637   1   1160   1183
  1638   1   1161   1176
  1639   1   1161   1185
  1640   1   1162   1175
  1641   1   1162   1180
  1642   1   1163   1181
  1643   1   1164   1176
  1644   1   1164   1182
  1645   1   1165   1177
  1646   1   1165   1183
  1647   1   1166   1178
  1648   1   1166   1184
  1649   1   1167   1179
  1650   1   1167   1185
  1651   1   1168   1174
  1652   1   1168   1185
  1653   1   1169   1175
  1654   1   1170   1176
  1655   1   1170   1183
  1656   1   1171   1177
  1657   1   1171   1181
  1658   1   1172   1178
  1659   1   1172   1182
  1660   1   1173   1179
  1661   1   1653   1174
  1662   1   1663   1174
  1663   1   1222   1180
  1664   1   1209   1180
  1665   1   1224   1182
  1666   1   1659   1184
  1667   1   1196   1184
  1668   1   1186   1211
  1669   1   1187   1210
  1670   1   1187   1637
  1671   1   1188   1212
  1672   1   1189   1213
  1673   1   1189   1290
  1674   1   1190   1214
  1675   1   1190   1291
  1676   1   1191   1215
  1677   1   1191   1292
  1678   1   1192   1214
  1679   1   1192   1216
  1680   1   1193   1215
  1681   1   1193   1217
  1682   1   1194   1218
  1683   1   1194   1701
  1684   1   1195   1211
  1685   1   1195   1219
  1686   1   1196   1210
  1687   1   1197   1212
  1688   1   1197   1221
  1689   1   1198   1211
  1690   1   1198   1216
  1691   1   1199   1217
  1692   1   1200   1212
  1693   1   1200   1218
  1694   1   1201   1213
  1695   1   1201   1219
  1696   1   1202   1214
  1697   1   1202   1220
  1698   1   1203   1215
  1699   1   1203   1221
  1700   1   1204   1210
  1701   1   1204   1221
  1702   1   1205   1211
  1703   1   1206   1212
  1704   1   1206   1219
  1705   1   1207   1213
  1706   1   1207   1217
  1707   1   1208   1214
  1708   1   1208   1218
  1709   1   1209   1215
  1710   1   1687   1210
  1711   1   1257   1216
  1712   1   1259   1218
  1713   1   1693   1220
  1714   1   1222   1246
  1715   1   1223   1245
  1716   1   1223   1671
  1717   1   1224   1247
  1718   1   1225   1248
  1719   1   1225   1325
  1720   1   1226   1249
  1721   1   1226   1326
  1722   1   1227   1250
  1723   1   1227   1327
  1724   1   1228   1249
  1725   1   1228   1251
  1726   1   1229   1250
  1727   1   1229   1252
  1728   1   1230   1253
  1729   1   1230   1735
  1730   1   1231   1246
  1731   1   1231   1254
  1732   1   1232   1247
  1733   1   1232   1256
  1734   1   1233   1246
  1735   1   1233   1251
  1736   1   1234   1252
  1737   1   1235   1247
  1738   1   1235   1253
  1739   1   1236   1248
  1740   1   1236   1254
  1741   1   1237   1249
  1742   1   1237   1255
  1743   1   1238   1250
  1744   1   1238   1256
  1745   1   1239   1245
  1746   1   1239   1256
  1747   1   1240   1246
  1748   1   1241   1247
  1749   1   1241   1254
  1750   1   1242   1248
  1751   1   1242   1252
  1752   1   1243   1249
  1753   1   1243   1253
  1754   1   1244   1250
  1755   1   1721   1245
  1756   1   1731   1245
  1757   1   1293   1251
  1758   1   1280   1251
  1759   1   1295   1253
  1760   1   1727   1255
  1761   1   1267   1255
  1762   1   1257   1282
  1763   1   1258   1281
  1764   1   1258   1705
  1765   1   1259   1283
  1766   1   1260   1284
  1767   1   1260   1361
  1768   1   1261   1285
  1769   1   1261   1362
  1770   1   1262   1286
  1771   1   1262   1363
  1772   1   1263   1285
  1773   1   1263   1287
  1774   1   1264   1286
  1775   1   1264   1288
  1776   1   1265   1289
  1777   1   1265   1769
  1778   1   1266   1282
  1779   1   1266   1290
  1780   1   1267   1281
  1781   1   1268   1283
  1782   1   1268   1292
  1783   1   1269   1282
  1784   1   1269   1287
  1785   1   1270   1288
  1786   1   1271   1283
  1787   1   1271   1289
  1788   1   1272   1284
  1789   1   1272   1290
  1790   1   1273   1285
  1791   1   1273   1291
  1792   1   1274   1286
  1793   1   1274   1292
  1794   1   1275   1281
  1795   1   1275   1292
  1796   1   1276   1282
  1797   1   1277   1283
  1798   1   1277   1290
  1799   1   1278   1284
  1800   1   1278   1288
  1801   1   1279   1285
  1802   1   1279   1289
  1803   1   1280   1286
  1804   1   1755   1281
  1805   1   1328   1287
  1806   1   1330   1289
  1807   1   1761   1291
  1808   1   1293   1317
  1809   1   1294   1316
  1810   1   1294   1739
  1811   1   1295   1318
  1812   1   1296   1319
  1813   1   1296   1396
  1814   1   1297   1320
  1815   1   1297   1397
  1816   1   1298   1321
  1817   1   1298   1398
  1818   1   1299   1320
  1819   1   1299   1322
  1820   1   1300   1321
  1821   1   1300   1323
  1822   1   1301   1324
  1823   1   1301   1803
  1824   1   1302   1317
  1825   1   1302   1325
  1826   1   1303   1318
  1827   1   1303   1327
  1828   1   1304   1317
  1829   1   1304   1322
  1830   1   1305   1323
  1831   1   1306   1318
  1832   1   1306   1324
  1833   1   1307   1319
  1834   1   1307   1325
  1835   1   1308   1320
  1836   1   1308   1326
  1837   1   1309   1321
  1838   1   1309   1327
  1839   1   1310   1316
  1840   1   1310   1327
  1841   1   1311   1317
  1842   1   1312   1318
  1843   1   1312   1325
  1844   1   1313   1319
  1845   1   1313   1323
  1846   1   1314   1320
  1847   1   1314   1324
  1848   1   1315   1321
  1849   1   1789   1316
  1850   1   1799   1316
  1851   1   1364   1322
  1852   1   1351   1322
  1853   1   1366   1324
  1854   1   1795   1326
  1855   1   1338   1326
  1856   1   1328   1353
  1857   1   1329   1352
  1858   1   1329   1773
  1859   1   1330   1354
  1860   1   1331   1355
  1861   1   1331   1432
  1862   1   1332   1356
  1863   1   1332   1433
  1864   1   1333   1357
  1865   1   1333   1434
  1866   1   1334   1356
  1867   1   1334   1358
  1868   1   1335   1357
  1869   1   1335   1359
  1870   1   1336   1360
  1871   1   1336   1837
  1872   1   1337   1353
  1873   1   1337   1361
  1874   1   1338   1352
  1875   1   1339   1354
  1876   1   1339   1363
  1877   1   1340   1353
  1878   1   1340   1358
  1879   1   1341   1359
  1880   1   1342   1354
  1881   1   1342   1360
  1882   1   1343   1355
  1883   1   1343   1361
  1884   1   1344   1356
  1885   1   1344   1362
  1886   1   1345   1357
  1887   1   1345   1363
  1888   1   1346   1352
  1889   1   1346   1363
  1890   1   1347   1353
  1891   1   1348   1354
  1892   1   1348   1361
  1893   1   1349   1355
  1894   1   1349   1359
  1895   1   1350   1356
  1896   1   1350   1360
  1897   1   1351   1357
  1898   1   1823   1352
  1899   1   1399   1358
  1900   1   1401   1360
  1901   1   1829   1362
  1902   1   1364   1388
  1903   1   1365   1387
  1904   1   1365   1807
  1905   1   1366   1389
  1906   1   1367   1390
  1907   1   1367   1467
  1908   1   1368   1391
  1909   1   1368   1468
  1910   1   1369   1392
  1911   1   1369   1469
  1912   1   1370   1391
  1913   1   1370   1393
  1914   1   1371   1392
  1915   1   1371   1394
  1916   1   1372   1395
  1917   1   1372   1871
  1918   1   1373   1388
  1919   1   1373   1396
  1920   1   1374   1389
  1921   1   1374   1398
  1922   1   1375   1388
  1923   1   1375   1393
  1924   1   1376   1394
  1925   1   1377   1389
  1926   1   1377   1395
  1927   1   1378   1390
  1928   1   1378   1396
  1929   1   1379   1391
  1930   1   1379   1397
  1931   1   1380   1392
  1932   1   1380   1398
  1933   1   1381   1387
  1934   1   1381   1398
  1935   1   1382   1388
  1936   1   1383   1389
  1937   1   1383   1396
  1938   1   1384   1390
  1939   1   1384   1394
  1940   1   1385   1391
  1941   1   1385   1395
  1942   1   1386   1392
  1943   1   1857   1387
  1944   1   1867   1387
  1945   1   1435   1393
  1946   1   1422   1393
  1947   1   1437   1395
  1948   1   1863   1397
  1949   1   1409   1397
  1950   1   1399   1424
  1951   1   1400   1423
  1952   1   1400   1841
  1953   1   1401   1425
  1954   1   1402   1426
  1955   1   1402   1503
  1956   1   1403   1427
  1957   1   1403   1504
  1958   1   1404   1428
  1959   1   1404   1505
  1960   1   1405   1427
  1961   1   1405   1429
  1962   1   1406   1428
  1963   1   1406   1430
  1964   1   1407   1431
  1965   1   1407   1905
  1966   1   1408   1424
  1967   1   1408   1432
  1968   1   1409   1423
  1969   1   1410   1425
  1970   1   1410   1434
  1971   1   1411   1424
  1972   1   1411   1429
  1973   1   1412   1430
  1974   1   1413   1425
  1975   1   1413   1431
  1976   1   1414   1426
  1977   1   1414   1432
  1978   1   1415   1427
  1979   1   1415   1433
  1980   1   1416   1428
  1981   1   1416   1434
  1982   1   1417   1423
  1983   1   1417   1434
  1984   1   1418   1424
  1985   1   1419   1425
  1986   1   1419   1432
  1987   1   1420   1426
  1988   1   1420   1430
  1989   1   1421   1427
  1990   1   1421   1431
  1991   1   1422   1428
  1992   1   1891   1423
  1993   1   1470   1429
  1994   1   1472   1431
  1995   1   1897   1433
  1996   1   1435   1459
  1997   1   1436   1458
  1998   1   1436   1875
  1999   1   1437   1460
  2000   1   1438   1461
  2001   1   1439   1462
  2002   1   1440   1463
  2003   1   1441   1462
  2004   1   1441   1464
  2005   1   1442   1463
  2006   1   1442   1465
  2007   1   1443   1466
  2008   1   1443   1939
  2009   1   1444   1459
  2010   1   1444   1467
  2011   1   1445   1460
  2012   1   1445   1469
  2013   1   1446   1459
  2014   1   1446   1464
  2015   1   1447   1465
  2016   1   1448   1460
  2017   1   1448   1466
  2018   1   1449   1461
  2019   1   1449   1467
  2020   1   1450   1462
  2021   1   1450   1468
  2022   1   1451   1463
  2023   1   1451   1469
  2024   1   1452   1458
  2025   1   1452   1469
  2026   1   1453   1459
  2027   1   1454   1460
  2028   1   1454   1467
  2029   1   1455   1461
  2030   1   1455   1465
  2031   1   1456   1462
  2032   1   1456   1466
  2033   1   1457   1463
  2034   1   1925   1458
  2035   1   1935   1458
  2036   1   1493   1464
  2037   1   1931   1468
  2038   1   1480   1468
  2039   1   1470   1495
  2040   1   1471   1494
  2041   1   1471   1909
  2042   1   1472   1496
  2043   1   1473   1497
  2044   1   1474   1498
  2045   1   1475   1499
  2046   1   1476   1498
  2047   1   1476   1500
  2048   1   1477   1499
  2049   1   1477   1501
  2050   1   1478   1502
  2051   1   1478   1973
  2052   1   1479   1495
  2053   1   1479   1503
  2054   1   1480   1494
  2055   1   1481   1496
  2056   1   1481   1505
  2057   1   1482   1495
  2058   1   1482   1500
  2059   1   1483   1501
  2060   1   1484   1496
  2061   1   1484   1502
  2062   1   1485   1497
  2063   1   1485   1503
  2064   1   1486   1498
  2065   1   1486   1504
  2066   1   1487   1499
  2067   1   1487   1505
  2068   1   1488   1494
  2069   1   1488   1505
  2070   1   1489   1495
  2071   1   1490   1496
  2072   1   1490   1503
  2073   1   1491   1497
  2074   1   1491   1501
  2075   1   1492   1498
  2076   1   1492   1502
  2077   1   1493   1499
  2078   1   1959   1494
  2079   1   1965   1504
  2080   1   1506   1529
  2081   1   1506   1942
  2082   1   1507   1530
  2083   1   1507   1944
  2084   1   1508   1531
  2085   1   1508   1605
  2086   1   1509   1532
  2087   1   1509   1606
  2088   1   1510   1533
  2089   1   1510   1607
  2090   1   1511   1532
  2091   1   1511   1534
  2092   1   1512   1533
  2093   1   1512   1535
  2094   1   1513   1536
  2095   1   1514   1529
  2096   1   1514   1537
  2097   1   1515   1530
  2098   1   1515   1539
  2099   1   1516   1529
  2100   1   1516   1534
  2101   1   1517   1535
  2102   1   1518   1530
  2103   1   1518   1536
  2104   1   1519   1531
  2105   1   1519   1537
  2106   1   1520   1532
  2107   1   1520   1538
  2108   1   1521   1533
  2109   1   1521   1539
  2110   1   1522   1528
  2111   1   1522   1539
  2112   1   1523   1529
  2113   1   1524   1530
  2114   1   1524   1537
  2115   1   1525   1531
  2116   1   1525   1535
  2117   1   1526   1532
  2118   1   1526   1536
  2119   1   1527   1533
  2120   1   2003   1528
  2121   1   1982   1528
  2122   1   1574   1534
  2123   1   1561   1534
  2124   1   1575   1536
  2125   1   1916   1537
  2126   1   1917   1538
  2127   1   1984   1538
  2128   1   1918   1539
  2129   1   1540   1563
  2130   1   1540   1976
  2131   1   1541   1564
  2132   1   1541   1978
  2133   1   1542   1565
  2134   1   1542   1639
  2135   1   1543   1566
  2136   1   1543   1640
  2137   1   1544   1567
  2138   1   1544   1641
  2139   1   1545   1566
  2140   1   1545   1568
  2141   1   1546   1567
  2142   1   1546   1569
  2143   1   1547   1570
  2144   1   1548   1563
  2145   1   1548   1571
  2146   1   1549   1564
  2147   1   1549   1573
  2148   1   1550   1563
  2149   1   1550   1568
  2150   1   1551   1569
  2151   1   1552   1564
  2152   1   1552   1570
  2153   1   1553   1565
  2154   1   1553   1571
  2155   1   1554   1566
  2156   1   1554   1572
  2157   1   1555   1567
  2158   1   1555   1573
  2159   1   1556   1562
  2160   1   1556   1573
  2161   1   1557   1563
  2162   1   1558   1564
  2163   1   1558   1571
  2164   1   1559   1565
  2165   1   1559   1569
  2166   1   1560   1566
  2167   1   1560   1570
  2168   1   1561   1567
  2169   1   2004   1562
  2170   1   1983   1562
  2171   1   1984   1562
  2172   1   1608   1568
  2173   1   1609   1570
  2174   1   1950   1571
  2175   1   1951   1572
  2176   1   1952   1573
  2177   1   1574   1597
  2178   1   1575   1598
  2179   1   1576   1599
  2180   1   1576   1673
  2181   1   1577   1600
  2182   1   1577   1674
  2183   1   1578   1601
  2184   1   1578   1675
  2185   1   1579   1600
  2186   1   1579   1602
  2187   1   1580   1601
  2188   1   1580   1603
  2189   1   1581   1604
  2190   1   1582   1597
  2191   1   1582   1605
  2192   1   1583   1598
  2193   1   1583   1607
  2194   1   1584   1597
  2195   1   1584   1602
  2196   1   1585   1603
  2197   1   1586   1598
  2198   1   1586   1604
  2199   1   1587   1599
  2200   1   1587   1605
  2201   1   1588   1600
  2202   1   1588   1606
  2203   1   1589   1601
  2204   1   1589   1607
  2205   1   1590   1596
  2206   1   1590   1607
  2207   1   1591   1597
  2208   1   1592   1598
  2209   1   1592   1605
  2210   1   1593   1599
  2211   1   1593   1603
  2212   1   1594   1600
  2213   1   1594   1604
  2214   1   1595   1601
  2215   1   2005   1596
  2216   1   1985   1596
  2217   1   1642   1602
  2218   1   1629   1602
  2219   1   1643   1604
  2220   1   1987   1606
  2221   1   1608   1631
  2222   1   1609   1632
  2223   1   1610   1633
  2224   1   1610   1707
  2225   1   1611   1634
  2226   1   1611   1708
  2227   1   1612   1635
  2228   1   1612   1709
  2229   1   1613   1634
  2230   1   1613   1636
  2231   1   1614   1635
  2232   1   1614   1637
  2233   1   1615   1638
  2234   1   1616   1631
  2235   1   1616   1639
  2236   1   1617   1632
  2237   1   1617   1641
  2238   1   1618   1631
  2239   1   1618   1636
  2240   1   1619   1637
  2241   1   1620   1632
  2242   1   1620   1638
  2243   1   1621   1633
  2244   1   1621   1639
  2245   1   1622   1634
  2246   1   1622   1640
  2247   1   1623   1635
  2248   1   1623   1641
  2249   1   1624   1630
  2250   1   1624   1641
  2251   1   1625   1631
  2252   1   1626   1632
  2253   1   1626   1639
  2254   1   1627   1633
  2255   1   1627   1637
  2256   1   1628   1634
  2257   1   1628   1638
  2258   1   1629   1635
  2259   1   2006   1630
  2260   1   1986   1630
  2261   1   1987   1630
  2262   1   1676   1636
  2263   1   1677   1638
  2264   1   1642   1665
  2265   1   1643   1666
  2266   1   1644   1667
  2267   1   1644   1741
  2268   1   1645   1668
  2269   1   1645   1742
  2270   1   1646   1669
  2271   1   1646   1743
  2272   1   1647   1668
  2273   1   1647   1670
  2274   1   1648   1669
  2275   1   1648   1671
  2276   1   1649   1672
  2277   1   1650   1665
  2278   1   1650   1673
  2279   1   1651   1666
  2280   1   1651   1675
  2281   1   1652   1665
  2282   1   1652   1670
  2283   1   1653   1671
  2284   1   1654   1666
  2285   1   1654   1672
  2286   1   1655   1667
  2287   1   1655   1673
  2288   1   1656   1668
  2289   1   1656   1674
  2290   1   1657   1669
  2291   1   1657   1675
  2292   1   1658   1664
  2293   1   1658   1675
  2294   1   1659   1665
  2295   1   1660   1666
  2296   1   1660   1673
  2297   1   1661   1667
  2298   1   1661   1671
  2299   1   1662   1668
  2300   1   1662   1672
  2301   1   1663   1669
  2302   1   2007   1664
  2303   1   1988   1664
  2304   1   1710   1670
  2305   1   1697   1670
  2306   1   1711   1672
  2307   1   1990   1674
  2308   1   1676   1699
  2309   1   1677   1700
  2310   1   1678   1701
  2311   1   1678   1775
  2312   1   1679   1702
  2313   1   1679   1776
  2314   1   1680   1703
  2315   1   1680   1777
  2316   1   1681   1702
  2317   1   1681   1704
  2318   1   1682   1703
  2319   1   1682   1705
  2320   1   1683   1706
  2321   1   1684   1699
  2322   1   1684   1707
  2323   1   1685   1700
  2324   1   1685   1709
  2325   1   1686   1699
  2326   1   1686   1704
  2327   1   1687   1705
  2328   1   1688   1700
  2329   1   1688   1706
  2330   1   1689   1701
  2331   1   1689   1707
  2332   1   1690   1702
  2333   1   1690   1708
  2334   1   1691   1703
  2335   1   1691   1709
  2336   1   1692   1698
  2337   1   1692   1709
  2338   1   1693   1699
  2339   1   1694   1700
  2340   1   1694   1707
  2341   1   1695   1701
  2342   1   1695   1705
  2343   1   1696   1702
  2344   1   1696   1706
  2345   1   1697   1703
  2346   1   2008   1698
  2347   1   1989   1698
  2348   1   1990   1698
  2349   1   1744   1704
  2350   1   1745   1706
  2351   1   1710   1733
  2352   1   1711   1734
  2353   1   1712   1735
  2354   1   1712   1809
  2355   1   1713   1736
  2356   1   1713   1810
  2357   1   1714   1737
  2358   1   1714   1811
  2359   1   1715   1736
  2360   1   1715   1738
  2361   1   1716   1737
  2362   1   1716   1739
  2363   1   1717   1740
  2364   1   1718   1733
  2365   1   1718   1741
  2366   1   1719   1734
  2367   1   1719   1743
  2368   1   1720   1733
  2369   1   1720   1738
  2370   1   1721   1739
  2371   1   1722   1734
  2372   1   1722   1740
  2373   1   1723   1735
  2374   1   1723   1741
  2375   1   1724   1736
  2376   1   1724   1742
  2377   1   1725   1737
  2378   1   1725   1743
  2379   1   1726   1732
  2380   1   1726   1743
  2381   1   1727   1733
  2382   1   1728   1734
  2383   1   1728   1741
  2384   1   1729   1735
  2385   1   1729   1739
  2386   1   1730   1736
  2387   1   1730   1740
  2388   1   1731   1737
  2389   1   2009   1732
  2390   1   1991   1732
  2391   1   1778   1738
  2392   1   1765   1738
  2393   1   1779   1740
  2394   1   1993   1742
  2395   1   1744   1767
  2396   1   1745   1768
  2397   1   1746   1769
  2398   1   1746   1843
  2399   1   1747   1770
  2400   1   1747   1844
  2401   1   1748   1771
  2402   1   1748   1845
  2403   1   1749   1770
  2404   1   1749   1772
  2405   1   1750   1771
  2406   1   1750   1773
  2407   1   1751   1774
  2408   1   1752   1767
  2409   1   1752   1775
  2410   1   1753   1768
  2411   1   1753   1777
  2412   1   1754   1767
  2413   1   1754   1772
  2414   1   1755   1773
  2415   1   1756   1768
  2416   1   1756   1774
  2417   1   1757   1769
  2418   1   1757   1775
  2419   1   1758   1770
  2420   1   1758   1776
  2421   1   1759   1771
  2422   1   1759   1777
  2423   1   1760   1766
  2424   1   1760   1777
  2425   1   1761   1767
  2426   1   1762   1768
  2427   1   1762   1775
  2428   1   1763   1769
  2429   1   1763   1773
  2430   1   1764   1770
  2431   1   1764   1774
  2432   1   1765   1771
  2433   1   2010   1766
  2434   1   1992   1766
  2435   1   1993   1766
  2436   1   1812   1772
  2437   1   1813   1774
  2438   1   1778   1801
  2439   1   1779   1802
  2440   1   1780   1803
  2441   1   1780   1877
  2442   1   1781   1804
  2443   1   1781   1878
  2444   1   1782   1805
  2445   1   1782   1879
  2446   1   1783   1804
  2447   1   1783   1806
  2448   1   1784   1805
  2449   1   1784   1807
  2450   1   1785   1808
  2451   1   1786   1801
  2452   1   1786   1809
  2453   1   1787   1802
  2454   1   1787   1811
  2455   1   1788   1801
  2456   1   1788   1806
  2457   1   1789   1807
  2458   1   1790   1802
  2459   1   1790   1808
  2460   1   1791   1803
  2461   1   1791   1809
  2462   1   1792   1804
  2463   1   1792   1810
  2464   1   1793   1805
  2465   1   1793   1811
  2466   1   1794   1800
  2467   1   1794   1811
  2468   1   1795   1801
  2469   1   1796   1802
  2470   1   1796   1809
  2471   1   1797   1803
  2472   1   1797   1807
  2473   1   1798   1804
  2474   1   1798   1808
  2475   1   1799   1805
  2476   1   2011   1800
  2477   1   1994   1800
  2478   1   1846   1806
  2479   1   1833   1806
  2480   1   1847   1808
  2481   1   1996   1810
  2482   1   1812   1835
  2483   1   1813   1836
  2484   1   1814   1837
  2485   1   1814   1911
  2486   1   1815   1838
  2487   1   1815   1912
  2488   1   1816   1839
  2489   1   1816   1913
  2490   1   1817   1838
  2491   1   1817   1840
  2492   1   1818   1839
  2493   1   1818   1841
  2494   1   1819   1842
  2495   1   1820   1835
  2496   1   1820   1843
  2497   1   1821   1836
  2498   1   1821   1845
  2499   1   1822   1835
  2500   1   1822   1840
  2501   1   1823   1841
  2502   1   1824   1836
  2503   1   1824   1842
  2504   1   1825   1837
  2505   1   1825   1843
  2506   1   1826   1838
  2507   1   1826   1844
  2508   1   1827   1839
  2509   1   1827   1845
  2510   1   1828   1834
  2511   1   1828   1845
  2512   1   1829   1835
  2513   1   1830   1836
  2514   1   1830   1843
  2515   1   1831   1837
  2516   1   1831   1841
  2517   1   1832   1838
  2518   1   1832   1842
  2519   1   1833   1839
  2520   1   2012   1834
  2521   1   1995   1834
  2522   1   1996   1834
  2523   1   1880   1840
  2524   1   1881   1842
  2525   1   1846   1869
  2526   1   1847   1870
  2527   1   1848   1871
  2528   1   1848   1945
  2529   1   1849   1872
  2530   1   1849   1946
  2531   1   1850   1873
  2532   1   1850   1947
  2533   1   1851   1872
  2534   1   1851   1874
  2535   1   1852   1873
  2536   1   1852   1875
  2537   1   1853   1876
  2538   1   1854   1869
  2539   1   1854   1877
  2540   1   1855   1870
  2541   1   1855   1879
  2542   1   1856   1869
  2543   1   1856   1874
  2544   1   1857   1875
  2545   1   1858   1870
  2546   1   1858   1876
  2547   1   1859   1871
  2548   1   1859   1877
  2549   1   1860   1872
  2550   1   1860   1878
  2551   1   1861   1873
  2552   1   1861   1879
  2553   1   1862   1868
  2554   1   1862   1879
  2555   1   1863   1869
  2556   1   1864   1870
  2557   1   1864   1877
  2558   1   1865   1871
  2559   1   1865   1875
  2560   1   1866   1872
  2561   1   1866   1876
  2562   1   1867   1873
  2563   1   2013   1868
  2564   1   1997   1868
  2565   1   1914   1874
  2566   1   1901   1874
  2567   1   1915   1876
  2568   1   1999   1878
  2569   1   1880   1903
  2570   1   1881   1904
  2571   1   1882   1905
  2572   1   1882   1979
  2573   1   1883   1906
  2574   1   1883   1980
  2575   1   1884   1907
  2576   1   1884   1981
  2577   1   1885   1906
  2578   1   1885   1908
  2579   1   1886   1907
  2580   1   1886   1909
  2581   1   1887   1910
  2582   1   1888   1903
  2583   1   1888   1911
  2584   1   1889   1904
  2585   1   1889   1913
  2586   1   1890   1903
  2587   1   1890   1908
  2588   1   1891   1909
  2589   1   1892   1904
  2590   1   1892   1910
  2591   1   1893   1905
  2592   1   1893   1911
  2593   1   1894   1906
  2594   1   1894   1912
  2595   1   1895   1907
  2596   1   1895   1913
  2597   1   1896   1902
  2598   1   1896   1913
  2599   1   1897   1903
  2600   1   1898   1904
  2601   1   1898   1911
  2602   1   1899   1905
  2603   1   1899   1909
  2604   1   1900   1906
  2605   1   1900   1910
  2606   1   1901   1907
  2607   1   2014   1902
  2608   1   1998   1902
  2609   1   1999   1902
  2610   1   1948   1908
  2611   1   1949   1910
  2612   1   1914   1937
  2613   1   1915   1938
  2614   1   1916   1939
  2615   1   1917   1940
  2616   1   1918   1941
  2617   1   1919   1940
  2618   1   1919   1942
  2619   1   1920   1941
  2620   1   1920   1943
  2621   1   1921   1944
  2622   1   1922   1937
  2623   1   1922   1945
  2624   1   1923   1938
  2625   1   1923   1947
  2626   1   1924   1937
  2627   1   1924   1942
  2628   1   1925   1943
  2629   1   1926   1938
  2630   1   1926   1944
  2631   1   1927   1939
  2632   1   1927   1945
  2633   1   1928   1940
  2634   1   1928   1946
  2635   1   1929   1941
  2636   1   1929   1947
  2637   1   1930   1936
  2638   1   1930   1947
  2639   1   1931   1937
  2640   1   1932   1938
  2641   1   1932   1945
  2642   1   1933   1939
  2643   1   1933   1943
  2644   1   1934   1940
  2645   1   1934   1944
  2646   1   1935   1941
  2647   1   2015   1936
  2648   1   2000   1936
  2649   1   1969   1942
  2650   1   2002   1946
  2651   1   1948   1971
  2652   1   1949   1972
  2653   1   1950   1973
  2654   1   1951   1974
  2655   1   1952   1975
  2656   1   1953   1974
  2657   1   1953   1976
  2658   1   1954   1975
  2659   1   1954   1977
  2660   1   1955   1978
  2661   1   1956   1971
  2662   1   1956   1979
  2663   1   1957   1972
  2664   1   1957   1981
  2665   1   1958   1971
  2666   1   1958   1976
  2667   1   1959   1977
  2668   1   1960   1972
  2669   1   1960   1978
  2670   1   1961   1973
  2671   1   1961   1979
  2672   1   1962   1974
  2673   1   1962   1980
  2674   1   1963   1975
  2675   1   1963   1981
  2676   1   1964   1970
  2677   1   1964   1981
  2678   1   1965   1971
  2679   1   1966   1972
  2680   1   1966   1979
  2681   1   1967   1973
  2682   1   1967   1977
  2683   1   1968   1974
  2684   1   1968   1978
  2685   1   1969   1975
  2686   1   2016   1970
  2687   1   2001   1970
  2688   1   2002   1970

Angles

     1   1     24      1    471
     2   1     23      2    968
     3   1     25      3    473
     4   1     26      4    129
     5   1     27      5    130
     6   1     28      6    131
     7   1     27      7     29
     8   1     28      8     30
     9   1     31      9    538
    10   1     24     10     32
    11   1     25     11     34
    12   1     24     12     29
    13   1     25     13     31
    14   1     26     14     32
    15   1     27     15     33
    16   1     28     16     34
    17   1     23     17     34
    18   1     24     18   1538
    19   1     25     19     32
    20   1     26     20     30
    21   1     27     21     31
    22   1     28     22   1528
    23   2      2     23     17
    24   2      2     23    524
    25   2      2     23    534
    26   2     17     23    524
    27   2     17     23    534
    28   2    524     23    534
    29   2      1     24     10
    30   2      1     24     12
    31   2      1     24     18
    32   2     10     24     12
    33   2     10     24     18
    34   2     12     24     18
    35   2      3     25     11
    36   2      3     25     13
    37   2      3     25     19
    38   2     11     25     13
    39   2     11     25     19
    40   2     13     25     19
    41   2      4     26     14
    42   2      4     26     20
    43   2      4     26   1513
    44   2     14     26     20
    45   2     14     26   1513
    46   2     20     26   1513
    47   2      5     27      7
    48   2      5     27     15
    49   2      5     27     21
    50   2      7     27     15
    51   2      7     27     21
    52   2     15     27     21
    53   2      6     28      8
    54   2      6     28     16
    55   2      6     28     22
    56   2      8     28     16
    57   2      8     28     22
    58   2     16     28     22
    59   2      7     29     12
    60   2      7     29     98
    61   2      7     29     57
    62   2     12     29     98
    63   2     12     29     57
    64   2     98     29     57
    65   2      8     30     20
    66   2      8     30   1985
    67   2      8     30   2003
    68   2     20     30   1985
    69   2     20     30   2003
    70   2   1985     30   2003
    71   2      9     31     13
    72   2      9     31     21
    73   2      9     31    100
    74   2     13     31     21
    75   2     13     31    100
    76   2     21     31    100
    77   2     10     32     14
    78   2     10     32     19
    79   2     10     32    446
    80   2     14     32     19
    81   2     14     32    446
    82   2     19     32    446
    83   2     15     33    530
    84   2     15     33     45
    85   2     15     33    447
    86   2    530     33     45
    87   2    530     33    447
    88   2     45     33    447
    89   2     11     34     16
    90   2     11     34     17
    91   2     11     34    448
    92   2     16     34     17
    93   2     16     34    448
    94   2     17     34    448
    95   1     59     35    506
    96   1     58     36   1004
    97   1     60     37    508
    98   1     61     38    164
    99   1     62     39    165
   100   1     63     40    166
   101   1     62     41     64
   102   1     63     42     65
   103   1     66     43    574
   104   1     59     44     67
   105   1     33     45     58
   106   1     60     46     69
   107   1     59     47     64
   108   1     60     48     66
   109   1     61     49     67
   110   1     62     50     68
   111   1     63     51     69
   112   1     58     52     69
   113   1     59     53   1572
   114   1     60     54     67
   115   1     61     55     65
   116   1     62     56     66
   117   1     29     57     63
   118   2     36     58     45
   119   2     36     58     52
   120   2     36     58    560
   121   2     45     58     52
   122   2     45     58    560
   123   2     52     58    560
   124   2     35     59     44
   125   2     35     59     47
   126   2     35     59     53
   127   2     44     59     47
   128   2     44     59     53
   129   2     47     59     53
   130   2     37     60     46
   131   2     37     60     48
   132   2     37     60     54
   133   2     46     60     48
   134   2     46     60     54
   135   2     48     60     54
   136   2     38     61     49
   137   2     38     61     55
   138   2     38     61   1547
   139   2     49     61     55
   140   2     49     61   1547
   141   2     55     61   1547
   142   2     39     62     41
   143   2     39     62     50
   144   2     39     62     56
   145   2     41     62     50
   146   2     41     62     56
   147   2     50     62     56
   148   2     40     63     42
   149   2     40     63     51
   150   2     40     63     57
   151   2     42     63     51
   152   2     42     63     57
   153   2     51     63     57
   154   2     41     64     47
   155   2     41     64    132
   156   2     41     64     70
   157   2     47     64    132
   158   2     47     64     70
   159   2    132     64     70
   160   2     42     65     55
   161   2     42     65   1986
   162   2     42     65   2004
   163   2     55     65   1986
   164   2     55     65   2004
   165   2   1986     65   2004
   166   2     43     66     48
   167   2     43     66     56
   168   2     43     66    134
   169   2     48     66     56
   170   2     48     66    134
   171   2     56     66    134
   172   2     44     67     49
   173   2     44     67     54
   174   2     44     67    480
   175   2     49     67     54
   176   2     49     67    480
   177   2     54     67    480
   178   2     50     68    566
   179   2     50     68    481
   180   2     50     68     83
   181   2    566     68    481
   182   2    566     68     83
   183   2    481     68     83
   184   2     46     69     51
   185   2     46     69     52
   186   2     46     69    482
   187   2     51     69     52
   188   2     51     69    482
   189   2     52     69    482
   190   1     64     70   1640
   191   1    161     71   1708
   192   1    230     72   1776
   193   1    299     73   1844
   194   1    368     74   1912
   195   1    437     75   1980
   196   1    506     76   1572
   197   1    577     77    165
   198   1    648     78    234
   199   1    719     79    303
   200   1    790     80    372
   201   1    861     81    441
   202   1    932     82    510
   203   1   1003     83     68
   204   1   1074     84    652
   205   1   1145     85    723
   206   1   1216     86    794
   207   1   1287     87    865
   208   1   1358     88    936
   209   1   1429     89   1007
   210   1   1500     90    581
   211   1   1568     91   1149
   212   1   1636     92   1220
   213   1   1704     93   1291
   214   1   1772     94   1362
   215   1   1840     95   1433
   216   1   1908     96   1504
   217   1   1976     97   1078
   218   1     29     98    121
   219   1    120     99    542
   220   1     31    100    122
   221   1    123    101    198
   222   1    124    102    199
   223   1    125    103    200
   224   1    124    104    126
   225   1    125    105    127
   226   1    128    106    609
   227   1    121    107    129
   228   1    122    108    131
   229   1    121    109    126
   230   1    122    110    128
   231   1    123    111    129
   232   1    124    112    130
   233   1    125    113    131
   234   1    120    114    131
   235   1    121    115   1606
   236   1    122    116    129
   237   1    123    117    127
   238   1    124    118    128
   239   1    125    119   1596
   240   2     99    120    114
   241   2     99    120    595
   242   2     99    120    605
   243   2    114    120    595
   244   2    114    120    605
   245   2    595    120    605
   246   2     98    121    107
   247   2     98    121    109
   248   2     98    121    115
   249   2    107    121    109
   250   2    107    121    115
   251   2    109    121    115
   252   2    100    122    108
   253   2    100    122    110
   254   2    100    122    116
   255   2    108    122    110
   256   2    108    122    116
   257   2    110    122    116
   258   2    101    123    111
   259   2    101    123    117
   260   2    101    123   1581
   261   2    111    123    117
   262   2    111    123   1581
   263   2    117    123   1581
   264   2    102    124    104
   265   2    102    124    112
   266   2    102    124    118
   267   2    104    124    112
   268   2    104    124    118
   269   2    112    124    118
   270   2    103    125    105
   271   2    103    125    113
   272   2    103    125    119
   273   2    105    125    113
   274   2    105    125    119
   275   2    113    125    119
   276   2    104    126    109
   277   2    104    126    167
   278   2    104    126    154
   279   2    109    126    167
   280   2    109    126    154
   281   2    167    126    154
   282   2    105    127    117
   283   2    105    127   1988
   284   2    105    127   2005
   285   2    117    127   1988
   286   2    117    127   2005
   287   2   1988    127   2005
   288   2    106    128    110
   289   2    106    128    118
   290   2    106    128    169
   291   2    110    128    118
   292   2    110    128    169
   293   2    118    128    169
   294   2      4    129    107
   295   2      4    129    111
   296   2      4    129    116
   297   2    107    129    111
   298   2    107    129    116
   299   2    111    129    116
   300   2      5    130    112
   301   2      5    130    601
   302   2      5    130    142
   303   2    112    130    601
   304   2    112    130    142
   305   2    601    130    142
   306   2      6    131    108
   307   2      6    131    113
   308   2      6    131    114
   309   2    108    131    113
   310   2    108    131    114
   311   2    113    131    114
   312   1     64    132    156
   313   1    155    133    578
   314   1     66    134    157
   315   1    158    135    233
   316   1    159    136    234
   317   1    160    137    235
   318   1    159    138    161
   319   1    160    139    162
   320   1    163    140    645
   321   1    156    141    164
   322   1    130    142    155
   323   1    157    143    166
   324   1    156    144    161
   325   1    157    145    163
   326   1    158    146    164
   327   1    159    147    165
   328   1    160    148    166
   329   1    155    149    166
   330   1    156    150   1640
   331   1    157    151    164
   332   1    158    152    162
   333   1    159    153    163
   334   1    126    154    160
   335   2    133    155    142
   336   2    133    155    149
   337   2    133    155    631
   338   2    142    155    149
   339   2    142    155    631
   340   2    149    155    631
   341   2    132    156    141
   342   2    132    156    144
   343   2    132    156    150
   344   2    141    156    144
   345   2    141    156    150
   346   2    144    156    150
   347   2    134    157    143
   348   2    134    157    145
   349   2    134    157    151
   350   2    143    157    145
   351   2    143    157    151
   352   2    145    157    151
   353   2    135    158    146
   354   2    135    158    152
   355   2    135    158   1615
   356   2    146    158    152
   357   2    146    158   1615
   358   2    152    158   1615
   359   2    136    159    138
   360   2    136    159    147
   361   2    136    159    153
   362   2    138    159    147
   363   2    138    159    153
   364   2    147    159    153
   365   2    137    160    139
   366   2    137    160    148
   367   2    137    160    154
   368   2    139    160    148
   369   2    139    160    154
   370   2    148    160    154
   371   2     71    161    138
   372   2     71    161    144
   373   2     71    161    201
   374   2    138    161    144
   375   2    138    161    201
   376   2    144    161    201
   377   2    139    162    152
   378   2    139    162   1989
   379   2    139    162   2006
   380   2    152    162   1989
   381   2    152    162   2006
   382   2   1989    162   2006
   383   2    140    163    145
   384   2    140    163    153
   385   2    140    163    203
   386   2    145    163    153
   387   2    145    163    203
   388   2    153    163    203
   389   2     38    164    141
   390   2     38    164    146
   391   2     38    164    151
   392   2    141    164    146
   393   2    141    164    151
   394   2    146    164    151
   395   2     39    165     77
   396   2     39    165    147
   397   2     39    165    637
   398   2     77    165    147
   399   2     77    165    637
   400   2    147    165    637
   401   2     40    166    143
   402   2     40    166    148
   403   2     40    166    149
   404   2    143    166    148
   405   2    143    166    149
   406   2    148    166    149
   407   1    126    167    190
   408   1    189    168    613
   409   1    128    169    191
   410   1    192    170    267
   411   1    193    171    268
   412   1    194    172    269
   413   1    193    173    195
   414   1    194    174    196
   415   1    197    175    680
   416   1    190    176    198
   417   1    191    177    200
   418   1    190    178    195
   419   1    191    179    197
   420   1    192    180    198
   421   1    193    181    199
   422   1    194    182    200
   423   1    189    183    200
   424   1    190    184   1674
   425   1    191    185    198
   426   1    192    186    196
   427   1    193    187    197
   428   1    194    188   1664
   429   2    168    189    183
   430   2    168    189    666
   431   2    168    189    676
   432   2    183    189    666
   433   2    183    189    676
   434   2    666    189    676
   435   2    167    190    176
   436   2    167    190    178
   437   2    167    190    184
   438   2    176    190    178
   439   2    176    190    184
   440   2    178    190    184
   441   2    169    191    177
   442   2    169    191    179
   443   2    169    191    185
   444   2    177    191    179
   445   2    177    191    185
   446   2    179    191    185
   447   2    170    192    180
   448   2    170    192    186
   449   2    170    192   1649
   450   2    180    192    186
   451   2    180    192   1649
   452   2    186    192   1649
   453   2    171    193    173
   454   2    171    193    181
   455   2    171    193    187
   456   2    173    193    181
   457   2    173    193    187
   458   2    181    193    187
   459   2    172    194    174
   460   2    172    194    182
   461   2    172    194    188
   462   2    174    194    182
   463   2    174    194    188
   464   2    182    194    188
   465   2    173    195    178
   466   2    173    195    236
   467   2    173    195    223
   468   2    178    195    236
   469   2    178    195    223
   470   2    236    195    223
   471   2    174    196    186
   472   2    174    196   1991
   473   2    174    196   2007
   474   2    186    196   1991
   475   2    186    196   2007
   476   2   1991    196   2007
   477   2    175    197    179
   478   2    175    197    187
   479   2    175    197    238
   480   2    179    197    187
   481   2    179    197    238
   482   2    187    197    238
   483   2    101    198    176
   484   2    101    198    180
   485   2    101    198    185
   486   2    176    198    180
   487   2    176    198    185
   488   2    180    198    185
   489   2    102    199    181
   490   2    102    199    672
   491   2    102    199    211
   492   2    181    199    672
   493   2    181    199    211
   494   2    672    199    211
   495   2    103    200    177
   496   2    103    200    182
   497   2    103    200    183
   498   2    177    200    182
   499   2    177    200    183
   500   2    182    200    183
   501   1    161    201    225
   502   1    224    202    649
   503   1    163    203    226
   504   1    227    204    302
   505   1    228    205    303
   506   1    229    206    304
   507   1    228    207    230
   508   1    229    208    231
   509   1    232    209    716
   510   1    225    210    233
   511   1    199    211    224
   512   1    226    212    235
   513   1    225    213    230
   514   1    226    214    232
   515   1    227    215    233
   516   1    228    216    234
   517   1    229    217    235
   518   1    224    218    235
   519   1    225    219   1708
   520   1    226    220    233
   521   1    227    221    231
   522   1    228    222    232
   523   1    195    223    229
   524   2    202    224    211
   525   2    202    224    218
   526   2    202    224    702
   527   2    211    224    218
   528   2    211    224    702
   529   2    218    224    702
   530   2    201    225    210
   531   2    201    225    213
   532   2    201    225    219
   533   2    210    225    213
   534   2    210    225    219
   535   2    213    225    219
   536   2    203    226    212
   537   2    203    226    214
   538   2    203    226    220
   539   2    212    226    214
   540   2    212    226    220
   541   2    214    226    220
   542   2    204    227    215
   543   2    204    227    221
   544   2    204    227   1683
   545   2    215    227    221
   546   2    215    227   1683
   547   2    221    227   1683
   548   2    205    228    207
   549   2    205    228    216
   550   2    205    228    222
   551   2    207    228    216
   552   2    207    228    222
   553   2    216    228    222
   554   2    206    229    208
   555   2    206    229    217
   556   2    206    229    223
   557   2    208    229    217
   558   2    208    229    223
   559   2    217    229    223
   560   2     72    230    207
   561   2     72    230    213
   562   2     72    230    270
   563   2    207    230    213
   564   2    207    230    270
   565   2    213    230    270
   566   2    208    231    221
   567   2    208    231   1992
   568   2    208    231   2008
   569   2    221    231   1992
   570   2    221    231   2008
   571   2   1992    231   2008
   572   2    209    232    214
   573   2    209    232    222
   574   2    209    232    272
   575   2    214    232    222
   576   2    214    232    272
   577   2    222    232    272
   578   2    135    233    210
   579   2    135    233    215
   580   2    135    233    220
   581   2    210    233    215
   582   2    210    233    220
   583   2    215    233    220
   584   2     78    234    136
   585   2     78    234    216
   586   2     78    234    708
   587   2    136    234    216
   588   2    136    234    708
   589   2    216    234    708
   590   2    137    235    212
   591   2    137    235    217
   592   2    137    235    218
   593   2    212    235    217
   594   2    212    235    218
   595   2    217    235    218
   596   1    195    236    259
   597   1    258    237    684
   598   1    197    238    260
   599   1    261    239    336
   600   1    262    240    337
   601   1    263    241    338
   602   1    262    242    264
   603   1    263    243    265
   604   1    266    244    751
   605   1    259    245    267
   606   1    260    246    269
   607   1    259    247    264
   608   1    260    248    266
   609   1    261    249    267
   610   1    262    250    268
   611   1    263    251    269
   612   1    258    252    269
   613   1    259    253   1742
   614   1    260    254    267
   615   1    261    255    265
   616   1    262    256    266
   617   1    263    257   1732
   618   2    237    258    252
   619   2    237    258    737
   620   2    237    258    747
   621   2    252    258    737
   622   2    252    258    747
   623   2    737    258    747
   624   2    236    259    245
   625   2    236    259    247
   626   2    236    259    253
   627   2    245    259    247
   628   2    245    259    253
   629   2    247    259    253
   630   2    238    260    246
   631   2    238    260    248
   632   2    238    260    254
   633   2    246    260    248
   634   2    246    260    254
   635   2    248    260    254
   636   2    239    261    249
   637   2    239    261    255
   638   2    239    261   1717
   639   2    249    261    255
   640   2    249    261   1717
   641   2    255    261   1717
   642   2    240    262    242
   643   2    240    262    250
   644   2    240    262    256
   645   2    242    262    250
   646   2    242    262    256
   647   2    250    262    256
   648   2    241    263    243
   649   2    241    263    251
   650   2    241    263    257
   651   2    243    263    251
   652   2    243    263    257
   653   2    251    263    257
   654   2    242    264    247
   655   2    242    264    305
   656   2    242    264    292
   657   2    247    264    305
   658   2    247    264    292
   659   2    305    264    292
   660   2    243    265    255
   661   2    243    265   1994
   662   2    243    265   2009
   663   2    255    265   1994
   664   2    255    265   2009
   665   2   1994    265   2009
   666   2    244    266    248
   667   2    244    266    256
   668   2    244    266    307
   669   2    248    266    256
   670   2    248    266    307
   671   2    256    266    307
   672   2    170    267    245
   673   2    170    267    249
   674   2    170    267    254
   675   2    245    267    249
   676   2    245    267    254
   677   2    249    267    254
   678   2    171    268    250
   679   2    171    268    743
   680   2    171    268    280
   681   2    250    268    743
   682   2    250    268    280
   683   2    743    268    280
   684   2    172    269    246
   685   2    172    269    251
   686   2    172    269    252
   687   2    246    269    251
   688   2    246    269    252
   689   2    251    269    252
   690   1    230    270    294
   691   1    293    271    720
   692   1    232    272    295
   693   1    296    273    371
   694   1    297    274    372
   695   1    298    275    373
   696   1    297    276    299
   697   1    298    277    300
   698   1    301    278    787
   699   1    294    279    302
   700   1    268    280    293
   701   1    295    281    304
   702   1    294    282    299
   703   1    295    283    301
   704   1    296    284    302
   705   1    297    285    303
   706   1    298    286    304
   707   1    293    287    304
   708   1    294    288   1776
   709   1    295    289    302
   710   1    296    290    300
   711   1    297    291    301
   712   1    264    292    298
   713   2    271    293    280
   714   2    271    293    287
   715   2    271    293    773
   716   2    280    293    287
   717   2    280    293    773
   718   2    287    293    773
   719   2    270    294    279
   720   2    270    294    282
   721   2    270    294    288
   722   2    279    294    282
   723   2    279    294    288
   724   2    282    294    288
   725   2    272    295    281
   726   2    272    295    283
   727   2    272    295    289
   728   2    281    295    283
   729   2    281    295    289
   730   2    283    295    289
   731   2    273    296    284
   732   2    273    296    290
   733   2    273    296   1751
   734   2    284    296    290
   735   2    284    296   1751
   736   2    290    296   1751
   737   2    274    297    276
   738   2    274    297    285
   739   2    274    297    291
   740   2    276    297    285
   741   2    276    297    291
   742   2    285    297    291
   743   2    275    298    277
   744   2    275    298    286
   745   2    275    298    292
   746   2    277    298    286
   747   2    277    298    292
   748   2    286    298    292
   749   2     73    299    276
   750   2     73    299    282
   751   2     73    299    339
   752   2    276    299    282
   753   2    276    299    339
   754   2    282    299    339
   755   2    277    300    290
   756   2    277    300   1995
   757   2    277    300   2010
   758   2    290    300   1995
   759   2    290    300   2010
   760   2   1995    300   2010
   761   2    278    301    283
   762   2    278    301    291
   763   2    278    301    341
   764   2    283    301    291
   765   2    283    301    341
   766   2    291    301    341
   767   2    204    302    279
   768   2    204    302    284
   769   2    204    302    289
   770   2    279    302    284
   771   2    279    302    289
   772   2    284    302    289
   773   2     79    303    205
   774   2     79    303    285
   775   2     79    303    779
   776   2    205    303    285
   777   2    205    303    779
   778   2    285    303    779
   779   2    206    304    281
   780   2    206    304    286
   781   2    206    304    287
   782   2    281    304    286
   783   2    281    304    287
   784   2    286    304    287
   785   1    264    305    328
   786   1    327    306    755
   787   1    266    307    329
   788   1    330    308    405
   789   1    331    309    406
   790   1    332    310    407
   791   1    331    311    333
   792   1    332    312    334
   793   1    335    313    822
   794   1    328    314    336
   795   1    329    315    338
   796   1    328    316    333
   797   1    329    317    335
   798   1    330    318    336
   799   1    331    319    337
   800   1    332    320    338
   801   1    327    321    338
   802   1    328    322   1810
   803   1    329    323    336
   804   1    330    324    334
   805   1    331    325    335
   806   1    332    326   1800
   807   2    306    327    321
   808   2    306    327    808
   809   2    306    327    818
   810   2    321    327    808
   811   2    321    327    818
   812   2    808    327    818
   813   2    305    328    314
   814   2    305    328    316
   815   2    305    328    322
   816   2    314    328    316
   817   2    314    328    322
   818   2    316    328    322
   819   2    307    329    315
   820   2    307    329    317
   821   2    307    329    323
   822   2    315    329    317
   823   2    315    329    323
   824   2    317    329    323
   825   2    308    330    318
   826   2    308    330    324
   827   2    308    330   1785
   828   2    318    330    324
   829   2    318    330   1785
   830   2    324    330   1785
   831   2    309    331    311
   832   2    309    331    319
   833   2    309    331    325
   834   2    311    331    319
   835   2    311    331    325
   836   2    319    331    325
   837   2    310    332    312
   838   2    310    332    320
   839   2    310    332    326
   840   2    312    332    320
   841   2    312    332    326
   842   2    320    332    326
   843   2    311    333    316
   844   2    311    333    374
   845   2    311    333    361
   846   2    316    333    374
   847   2    316    333    361
   848   2    374    333    361
   849   2    312    334    324
   850   2    312    334   1997
   851   2    312    334   2011
   852   2    324    334   1997
   853   2    324    334   2011
   854   2   1997    334   2011
   855   2    313    335    317
   856   2    313    335    325
   857   2    313    335    376
   858   2    317    335    325
   859   2    317    335    376
   860   2    325    335    376
   861   2    239    336    314
   862   2    239    336    318
   863   2    239    336    323
   864   2    314    336    318
   865   2    314    336    323
   866   2    318    336    323
   867   2    240    337    319
   868   2    240    337    814
   869   2    240    337    349
   870   2    319    337    814
   871   2    319    337    349
   872   2    814    337    349
   873   2    241    338    315
   874   2    241    338    320
   875   2    241    338    321
   876   2    315    338    320
   877   2    315    338    321
   878   2    320    338    321
   879   1    299    339    363
   880   1    362    340    791
   881   1    301    341    364
   882   1    365    342    440
   883   1    366    343    441
   884   1    367    344    442
   885   1    366    345    368
   886   1    367    346    369
   887   1    370    347    858
   888   1    363    348    371
   889   1    337    349    362
   890   1    364    350    373
   891   1    363    351    368
   892   1    364    352    370
   893   1    365    353    371
   894   1    366    354    372
   895   1    367    355    373
   896   1    362    356    373
   897   1    363    357   1844
   898   1    364    358    371
   899   1    365    359    369
   900   1    366    360    370
   901   1    333    361    367
   902   2    340    362    349
   903   2    340    362    356
   904   2    340    362    844
   905   2    349    362    356
   906   2    349    362    844
   907   2    356    362    844
   908   2    339    363    348
   909   2    339    363    351
   910   2    339    363    357
   911   2    348    363    351
   912   2    348    363    357
   913   2    351    363    357
   914   2    341    364    350
   915   2    341    364    352
   916   2    341    364    358
   917   2    350    364    352
   918   2    350    364    358
   919   2    352    364    358
   920   2    342    365    353
   921   2    342    365    359
   922   2    342    365   1819
   923   2    353    365    359
   924   2    353    365   1819
   925   2    359    365   1819
   926   2    343    366    345
   927   2    343    366    354
   928   2    343    366    360
   929   2    345    366    354
   930   2    345    366    360
   931   2    354    366    360
   932   2    344    367    346
   933   2    344    367    355
   934   2    344    367    361
   935   2    346    367    355
   936   2    346    367    361
   937   2    355    367    361
   938   2     74    368    345
   939   2     74    368    351
   940   2     74    368    408
   941   2    345    368    351
   942   2    345    368    408
   943   2    351    368    408
   944   2    346    369    359
   945   2    346    369   1998
   946   2    346    369   2012
   947   2    359    369   1998
   948   2    359    369   2012
   949   2   1998    369   2012
   950   2    347    370    352
   951   2    347    370    360
   952   2    347    370    410
   953   2    352    370    360
   954   2    352    370    410
   955   2    360    370    410
   956   2    273    371    348
   957   2    273    371    353
   958   2    273    371    358
   959   2    348    371    353
   960   2    348    371    358
   961   2    353    371    358
   962   2     80    372    274
   963   2     80    372    354
   964   2     80    372    850
   965   2    274    372    354
   966   2    274    372    850
   967   2    354    372    850
   968   2    275    373    350
   969   2    275    373    355
   970   2    275    373    356
   971   2    350    373    355
   972   2    350    373    356
   973   2    355    373    356
   974   1    333    374    397
   975   1    396    375    826
   976   1    335    376    398
   977   1    399    377    474
   978   1    400    378    475
   979   1    401    379    476
   980   1    400    380    402
   981   1    401    381    403
   982   1    404    382    893
   983   1    397    383    405
   984   1    398    384    407
   985   1    397    385    402
   986   1    398    386    404
   987   1    399    387    405
   988   1    400    388    406
   989   1    401    389    407
   990   1    396    390    407
   991   1    397    391   1878
   992   1    398    392    405
   993   1    399    393    403
   994   1    400    394    404
   995   1    401    395   1868
   996   2    375    396    390
   997   2    375    396    879
   998   2    375    396    889
   999   2    390    396    879
  1000   2    390    396    889
  1001   2    879    396    889
  1002   2    374    397    383
  1003   2    374    397    385
  1004   2    374    397    391
  1005   2    383    397    385
  1006   2    383    397    391
  1007   2    385    397    391
  1008   2    376    398    384
  1009   2    376    398    386
  1010   2    376    398    392
  1011   2    384    398    386
  1012   2    384    398    392
  1013   2    386    398    392
  1014   2    377    399    387
  1015   2    377    399    393
  1016   2    377    399   1853
  1017   2    387    399    393
  1018   2    387    399   1853
  1019   2    393    399   1853
  1020   2    378    400    380
  1021   2    378    400    388
  1022   2    378    400    394
  1023   2    380    400    388
  1024   2    380    400    394
  1025   2    388    400    394
  1026   2    379    401    381
  1027   2    379    401    389
  1028   2    379    401    395
  1029   2    381    401    389
  1030   2    381    401    395
  1031   2    389    401    395
  1032   2    380    402    385
  1033   2    380    402    443
  1034   2    380    402    430
  1035   2    385    402    443
  1036   2    385    402    430
  1037   2    443    402    430
  1038   2    381    403    393
  1039   2    381    403   2000
  1040   2    381    403   2013
  1041   2    393    403   2000
  1042   2    393    403   2013
  1043   2   2000    403   2013
  1044   2    382    404    386
  1045   2    382    404    394
  1046   2    382    404    445
  1047   2    386    404    394
  1048   2    386    404    445
  1049   2    394    404    445
  1050   2    308    405    383
  1051   2    308    405    387
  1052   2    308    405    392
  1053   2    383    405    387
  1054   2    383    405    392
  1055   2    387    405    392
  1056   2    309    406    388
  1057   2    309    406    885
  1058   2    309    406    418
  1059   2    388    406    885
  1060   2    388    406    418
  1061   2    885    406    418
  1062   2    310    407    384
  1063   2    310    407    389
  1064   2    310    407    390
  1065   2    384    407    389
  1066   2    384    407    390
  1067   2    389    407    390
  1068   1    368    408    432
  1069   1    431    409    862
  1070   1    370    410    433
  1071   1    434    411    509
  1072   1    435    412    510
  1073   1    436    413    511
  1074   1    435    414    437
  1075   1    436    415    438
  1076   1    439    416    929
  1077   1    432    417    440
  1078   1    406    418    431
  1079   1    433    419    442
  1080   1    432    420    437
  1081   1    433    421    439
  1082   1    434    422    440
  1083   1    435    423    441
  1084   1    436    424    442
  1085   1    431    425    442
  1086   1    432    426   1912
  1087   1    433    427    440
  1088   1    434    428    438
  1089   1    435    429    439
  1090   1    402    430    436
  1091   2    409    431    418
  1092   2    409    431    425
  1093   2    409    431    915
  1094   2    418    431    425
  1095   2    418    431    915
  1096   2    425    431    915
  1097   2    408    432    417
  1098   2    408    432    420
  1099   2    408    432    426
  1100   2    417    432    420
  1101   2    417    432    426
  1102   2    420    432    426
  1103   2    410    433    419
  1104   2    410    433    421
  1105   2    410    433    427
  1106   2    419    433    421
  1107   2    419    433    427
  1108   2    421    433    427
  1109   2    411    434    422
  1110   2    411    434    428
  1111   2    411    434   1887
  1112   2    422    434    428
  1113   2    422    434   1887
  1114   2    428    434   1887
  1115   2    412    435    414
  1116   2    412    435    423
  1117   2    412    435    429
  1118   2    414    435    423
  1119   2    414    435    429
  1120   2    423    435    429
  1121   2    413    436    415
  1122   2    413    436    424
  1123   2    413    436    430
  1124   2    415    436    424
  1125   2    415    436    430
  1126   2    424    436    430
  1127   2     75    437    414
  1128   2     75    437    420
  1129   2     75    437    477
  1130   2    414    437    420
  1131   2    414    437    477
  1132   2    420    437    477
  1133   2    415    438    428
  1134   2    415    438   2001
  1135   2    415    438   2014
  1136   2    428    438   2001
  1137   2    428    438   2014
  1138   2   2001    438   2014
  1139   2    416    439    421
  1140   2    416    439    429
  1141   2    416    439    479
  1142   2    421    439    429
  1143   2    421    439    479
  1144   2    429    439    479
  1145   2    342    440    417
  1146   2    342    440    422
  1147   2    342    440    427
  1148   2    417    440    422
  1149   2    417    440    427
  1150   2    422    440    427
  1151   2     81    441    343
  1152   2     81    441    423
  1153   2     81    441    921
  1154   2    343    441    423
  1155   2    343    441    921
  1156   2    423    441    921
  1157   2    344    442    419
  1158   2    344    442    424
  1159   2    344    442    425
  1160   2    419    442    424
  1161   2    419    442    425
  1162   2    424    442    425
  1163   1    402    443    466
  1164   1    465    444    897
  1165   1    404    445    467
  1166   1    468    446     32
  1167   1    469    447     33
  1168   1    470    448     34
  1169   1    469    449    471
  1170   1    470    450    472
  1171   1    473    451    964
  1172   1    466    452    474
  1173   1    467    453    476
  1174   1    466    454    471
  1175   1    467    455    473
  1176   1    468    456    474
  1177   1    469    457    475
  1178   1    470    458    476
  1179   1    465    459    476
  1180   1    466    460   1946
  1181   1    467    461    474
  1182   1    468    462    472
  1183   1    469    463    473
  1184   1    470    464   1936
  1185   2    444    465    459
  1186   2    444    465    950
  1187   2    444    465    960
  1188   2    459    465    950
  1189   2    459    465    960
  1190   2    950    465    960
  1191   2    443    466    452
  1192   2    443    466    454
  1193   2    443    466    460
  1194   2    452    466    454
  1195   2    452    466    460
  1196   2    454    466    460
  1197   2    445    467    453
  1198   2    445    467    455
  1199   2    445    467    461
  1200   2    453    467    455
  1201   2    453    467    461
  1202   2    455    467    461
  1203   2    446    468    456
  1204   2    446    468    462
  1205   2    446    468   1921
  1206   2    456    468    462
  1207   2    456    468   1921
  1208   2    462    468   1921
  1209   2    447    469    449
  1210   2    447    469    457
  1211   2    447    469    463
  1212   2    449    469    457
  1213   2    449    469    463
  1214   2    457    469    463
  1215   2    448    470    450
  1216   2    448    470    458
  1217   2    448    470    464
  1218   2    450    470    458
  1219   2    450    470    464
  1220   2    458    470    464
  1221   2    449    471    454
  1222   2    449    471    499
  1223   2    449    471      1
  1224   2    454    471    499
  1225   2    454    471      1
  1226   2    499    471      1
  1227   2    450    472    462
  1228   2    450    472   2015
  1229   2    450    472   1982
  1230   2    462    472   2015
  1231   2    462    472   1982
  1232   2   2015    472   1982
  1233   2    451    473    455
  1234   2    451    473    463
  1235   2    451    473      3
  1236   2    455    473    463
  1237   2    455    473      3
  1238   2    463    473      3
  1239   2    377    474    452
  1240   2    377    474    456
  1241   2    377    474    461
  1242   2    452    474    456
  1243   2    452    474    461
  1244   2    456    474    461
  1245   2    378    475    457
  1246   2    378    475    956
  1247   2    378    475    487
  1248   2    457    475    956
  1249   2    457    475    487
  1250   2    956    475    487
  1251   2    379    476    453
  1252   2    379    476    458
  1253   2    379    476    459
  1254   2    453    476    458
  1255   2    453    476    459
  1256   2    458    476    459
  1257   1    437    477    501
  1258   1    500    478    933
  1259   1    439    479    502
  1260   1    503    480     67
  1261   1    504    481     68
  1262   1    505    482     69
  1263   1    504    483    506
  1264   1    505    484    507
  1265   1    508    485   1000
  1266   1    501    486    509
  1267   1    475    487    500
  1268   1    502    488    511
  1269   1    501    489    506
  1270   1    502    490    508
  1271   1    503    491    509
  1272   1    504    492    510
  1273   1    505    493    511
  1274   1    500    494    511
  1275   1    501    495   1980
  1276   1    502    496    509
  1277   1    503    497    507
  1278   1    504    498    508
  1279   1    471    499    505
  1280   2    478    500    487
  1281   2    478    500    494
  1282   2    478    500    986
  1283   2    487    500    494
  1284   2    487    500    986
  1285   2    494    500    986
  1286   2    477    501    486
  1287   2    477    501    489
  1288   2    477    501    495
  1289   2    486    501    489
  1290   2    486    501    495
  1291   2    489    501    495
  1292   2    479    502    488
  1293   2    479    502    490
  1294   2    479    502    496
  1295   2    488    502    490
  1296   2    488    502    496
  1297   2    490    502    496
  1298   2    480    503    491
  1299   2    480    503    497
  1300   2    480    503   1955
  1301   2    491    503    497
  1302   2    491    503   1955
  1303   2    497    503   1955
  1304   2    481    504    483
  1305   2    481    504    492
  1306   2    481    504    498
  1307   2    483    504    492
  1308   2    483    504    498
  1309   2    492    504    498
  1310   2    482    505    484
  1311   2    482    505    493
  1312   2    482    505    499
  1313   2    484    505    493
  1314   2    484    505    499
  1315   2    493    505    499
  1316   2     76    506    483
  1317   2     76    506    489
  1318   2     76    506     35
  1319   2    483    506    489
  1320   2    483    506     35
  1321   2    489    506     35
  1322   2    484    507    497
  1323   2    484    507   2016
  1324   2    484    507   1983
  1325   2    497    507   2016
  1326   2    497    507   1983
  1327   2   2016    507   1983
  1328   2    485    508    490
  1329   2    485    508    498
  1330   2    485    508     37
  1331   2    490    508    498
  1332   2    490    508     37
  1333   2    498    508     37
  1334   2    411    509    486
  1335   2    411    509    491
  1336   2    411    509    496
  1337   2    486    509    491
  1338   2    486    509    496
  1339   2    491    509    496
  1340   2     82    510    412
  1341   2     82    510    492
  1342   2     82    510    992
  1343   2    412    510    492
  1344   2    412    510    992
  1345   2    492    510    992
  1346   2    413    511    488
  1347   2    413    511    493
  1348   2    413    511    494
  1349   2    488    511    493
  1350   2    488    511    494
  1351   2    493    511    494
  1352   1    536    512    967
  1353   1    535    513   1465
  1354   1    537    514    969
  1355   1    538    515    615
  1356   1    539    516    616
  1357   1    540    517    617
  1358   1    539    518    541
  1359   1    540    519    542
  1360   1    543    520   1035
  1361   1    536    521    544
  1362   1    537    522    546
  1363   1    536    523    541
  1364   1     23    524    542
  1365   1    537    525    543
  1366   1    538    526    544
  1367   1    539    527    545
  1368   1    540    528    546
  1369   1    535    529    546
  1370   1     33    530    536
  1371   1    537    531    544
  1372   1    538    532    542
  1373   1    539    533    543
  1374   1     23    534    540
  1375   2    513    535    529
  1376   2    513    535   1021
  1377   2    513    535   1031
  1378   2    529    535   1021
  1379   2    529    535   1031
  1380   2   1021    535   1031
  1381   2    512    536    521
  1382   2    512    536    523
  1383   2    512    536    530
  1384   2    521    536    523
  1385   2    521    536    530
  1386   2    523    536    530
  1387   2    514    537    522
  1388   2    514    537    525
  1389   2    514    537    531
  1390   2    522    537    525
  1391   2    522    537    531
  1392   2    525    537    531
  1393   2      9    538    515
  1394   2      9    538    526
  1395   2      9    538    532
  1396   2    515    538    526
  1397   2    515    538    532
  1398   2    526    538    532
  1399   2    516    539    518
  1400   2    516    539    527
  1401   2    516    539    533
  1402   2    518    539    527
  1403   2    518    539    533
  1404   2    527    539    533
  1405   2    517    540    519
  1406   2    517    540    528
  1407   2    517    540    534
  1408   2    519    540    528
  1409   2    519    540    534
  1410   2    528    540    534
  1411   2    518    541    523
  1412   2    518    541    583
  1413   2    518    541    570
  1414   2    523    541    583
  1415   2    523    541    570
  1416   2    583    541    570
  1417   2     99    542    519
  1418   2     99    542    524
  1419   2     99    542    532
  1420   2    519    542    524
  1421   2    519    542    532
  1422   2    524    542    532
  1423   2    520    543    525
  1424   2    520    543    533
  1425   2    520    543    585
  1426   2    525    543    533
  1427   2    525    543    585
  1428   2    533    543    585
  1429   2    521    544    526
  1430   2    521    544    531
  1431   2    521    544    941
  1432   2    526    544    531
  1433   2    526    544    941
  1434   2    531    544    941
  1435   2    527    545   1027
  1436   2    527    545    557
  1437   2    527    545    942
  1438   2   1027    545    557
  1439   2   1027    545    942
  1440   2    557    545    942
  1441   2    522    546    528
  1442   2    522    546    529
  1443   2    522    546    943
  1444   2    528    546    529
  1445   2    528    546    943
  1446   2    529    546    943
  1447   1    572    547   1003
  1448   1    571    548   1501
  1449   1    573    549   1005
  1450   1    574    550    651
  1451   1    575    551    652
  1452   1    576    552    653
  1453   1    575    553    577
  1454   1    576    554    578
  1455   1    579    555   1071
  1456   1    572    556    580
  1457   1    545    557    571
  1458   1    573    558    582
  1459   1    572    559    577
  1460   1     58    560    578
  1461   1    573    561    579
  1462   1    574    562    580
  1463   1    575    563    581
  1464   1    576    564    582
  1465   1    571    565    582
  1466   1     68    566    572
  1467   1    573    567    580
  1468   1    574    568    578
  1469   1    575    569    579
  1470   1    541    570    576
  1471   2    548    571    557
  1472   2    548    571    565
  1473   2    548    571   1057
  1474   2    557    571    565
  1475   2    557    571   1057
  1476   2    565    571   1057
  1477   2    547    572    556
  1478   2    547    572    559
  1479   2    547    572    566
  1480   2    556    572    559
  1481   2    556    572    566
  1482   2    559    572    566
  1483   2    549    573    558
  1484   2    549    573    561
  1485   2    549    573    567
  1486   2    558    573    561
  1487   2    558    573    567
  1488   2    561    573    567
  1489   2     43    574    550
  1490   2     43    574    562
  1491   2     43    574    568
  1492   2    550    574    562
  1493   2    550    574    568
  1494   2    562    574    568
  1495   2    551    575    553
  1496   2    551    575    563
  1497   2    551    575    569
  1498   2    553    575    563
  1499   2    553    575    569
  1500   2    563    575    569
  1501   2    552    576    554
  1502   2    552    576    564
  1503   2    552    576    570
  1504   2    554    576    564
  1505   2    554    576    570
  1506   2    564    576    570
  1507   2     77    577    553
  1508   2     77    577    559
  1509   2     77    577    618
  1510   2    553    577    559
  1511   2    553    577    618
  1512   2    559    577    618
  1513   2    133    578    554
  1514   2    133    578    560
  1515   2    133    578    568
  1516   2    554    578    560
  1517   2    554    578    568
  1518   2    560    578    568
  1519   2    555    579    561
  1520   2    555    579    569
  1521   2    555    579    620
  1522   2    561    579    569
  1523   2    561    579    620
  1524   2    569    579    620
  1525   2    556    580    562
  1526   2    556    580    567
  1527   2    556    580    976
  1528   2    562    580    567
  1529   2    562    580    976
  1530   2    567    580    976
  1531   2    563    581   1063
  1532   2    563    581     90
  1533   2    563    581    977
  1534   2   1063    581     90
  1535   2   1063    581    977
  1536   2     90    581    977
  1537   2    558    582    564
  1538   2    558    582    565
  1539   2    558    582    978
  1540   2    564    582    565
  1541   2    564    582    978
  1542   2    565    582    978
  1543   1    541    583    607
  1544   1    606    584   1039
  1545   1    543    585    608
  1546   1    609    586    686
  1547   1    610    587    687
  1548   1    611    588    688
  1549   1    610    589    612
  1550   1    611    590    613
  1551   1    614    591   1106
  1552   1    607    592    615
  1553   1    608    593    617
  1554   1    607    594    612
  1555   1    120    595    613
  1556   1    608    596    614
  1557   1    609    597    615
  1558   1    610    598    616
  1559   1    611    599    617
  1560   1    606    600    617
  1561   1    130    601    607
  1562   1    608    602    615
  1563   1    609    603    613
  1564   1    610    604    614
  1565   1    120    605    611
  1566   2    584    606    600
  1567   2    584    606   1092
  1568   2    584    606   1102
  1569   2    600    606   1092
  1570   2    600    606   1102
  1571   2   1092    606   1102
  1572   2    583    607    592
  1573   2    583    607    594
  1574   2    583    607    601
  1575   2    592    607    594
  1576   2    592    607    601
  1577   2    594    607    601
  1578   2    585    608    593
  1579   2    585    608    596
  1580   2    585    608    602
  1581   2    593    608    596
  1582   2    593    608    602
  1583   2    596    608    602
  1584   2    106    609    586
  1585   2    106    609    597
  1586   2    106    609    603
  1587   2    586    609    597
  1588   2    586    609    603
  1589   2    597    609    603
  1590   2    587    610    589
  1591   2    587    610    598
  1592   2    587    610    604
  1593   2    589    610    598
  1594   2    589    610    604
  1595   2    598    610    604
  1596   2    588    611    590
  1597   2    588    611    599
  1598   2    588    611    605
  1599   2    590    611    599
  1600   2    590    611    605
  1601   2    599    611    605
  1602   2    589    612    594
  1603   2    589    612    654
  1604   2    589    612    641
  1605   2    594    612    654
  1606   2    594    612    641
  1607   2    654    612    641
  1608   2    168    613    590
  1609   2    168    613    595
  1610   2    168    613    603
  1611   2    590    613    595
  1612   2    590    613    603
  1613   2    595    613    603
  1614   2    591    614    596
  1615   2    591    614    604
  1616   2    591    614    656
  1617   2    596    614    604
  1618   2    596    614    656
  1619   2    604    614    656
  1620   2    515    615    592
  1621   2    515    615    597
  1622   2    515    615    602
  1623   2    592    615    597
  1624   2    592    615    602
  1625   2    597    615    602
  1626   2    516    616    598
  1627   2    516    616   1098
  1628   2    516    616    628
  1629   2    598    616   1098
  1630   2    598    616    628
  1631   2   1098    616    628
  1632   2    517    617    593
  1633   2    517    617    599
  1634   2    517    617    600
  1635   2    593    617    599
  1636   2    593    617    600
  1637   2    599    617    600
  1638   1    577    618    643
  1639   1    642    619   1075
  1640   1    579    620    644
  1641   1    645    621    722
  1642   1    646    622    723
  1643   1    647    623    724
  1644   1    646    624    648
  1645   1    647    625    649
  1646   1    650    626   1142
  1647   1    643    627    651
  1648   1    616    628    642
  1649   1    644    629    653
  1650   1    643    630    648
  1651   1    155    631    649
  1652   1    644    632    650
  1653   1    645    633    651
  1654   1    646    634    652
  1655   1    647    635    653
  1656   1    642    636    653
  1657   1    165    637    643
  1658   1    644    638    651
  1659   1    645    639    649
  1660   1    646    640    650
  1661   1    612    641    647
  1662   2    619    642    628
  1663   2    619    642    636
  1664   2    619    642   1128
  1665   2    628    642    636
  1666   2    628    642   1128
  1667   2    636    642   1128
  1668   2    618    643    627
  1669   2    618    643    630
  1670   2    618    643    637
  1671   2    627    643    630
  1672   2    627    643    637
  1673   2    630    643    637
  1674   2    620    644    629
  1675   2    620    644    632
  1676   2    620    644    638
  1677   2    629    644    632
  1678   2    629    644    638
  1679   2    632    644    638
  1680   2    140    645    621
  1681   2    140    645    633
  1682   2    140    645    639
  1683   2    621    645    633
  1684   2    621    645    639
  1685   2    633    645    639
  1686   2    622    646    624
  1687   2    622    646    634
  1688   2    622    646    640
  1689   2    624    646    634
  1690   2    624    646    640
  1691   2    634    646    640
  1692   2    623    647    625
  1693   2    623    647    635
  1694   2    623    647    641
  1695   2    625    647    635
  1696   2    625    647    641
  1697   2    635    647    641
  1698   2     78    648    624
  1699   2     78    648    630
  1700   2     78    648    689
  1701   2    624    648    630
  1702   2    624    648    689
  1703   2    630    648    689
  1704   2    202    649    625
  1705   2    202    649    631
  1706   2    202    649    639
  1707   2    625    649    631
  1708   2    625    649    639
  1709   2    631    649    639
  1710   2    626    650    632
  1711   2    626    650    640
  1712   2    626    650    691
  1713   2    632    650    640
  1714   2    632    650    691
  1715   2    640    650    691
  1716   2    550    651    627
  1717   2    550    651    633
  1718   2    550    651    638
  1719   2    627    651    633
  1720   2    627    651    638
  1721   2    633    651    638
  1722   2     84    652    551
  1723   2     84    652    634
  1724   2     84    652   1134
  1725   2    551    652    634
  1726   2    551    652   1134
  1727   2    634    652   1134
  1728   2    552    653    629
  1729   2    552    653    635
  1730   2    552    653    636
  1731   2    629    653    635
  1732   2    629    653    636
  1733   2    635    653    636
  1734   1    612    654    678
  1735   1    677    655   1110
  1736   1    614    656    679
  1737   1    680    657    757
  1738   1    681    658    758
  1739   1    682    659    759
  1740   1    681    660    683
  1741   1    682    661    684
  1742   1    685    662   1177
  1743   1    678    663    686
  1744   1    679    664    688
  1745   1    678    665    683
  1746   1    189    666    684
  1747   1    679    667    685
  1748   1    680    668    686
  1749   1    681    669    687
  1750   1    682    670    688
  1751   1    677    671    688
  1752   1    199    672    678
  1753   1    679    673    686
  1754   1    680    674    684
  1755   1    681    675    685
  1756   1    189    676    682
  1757   2    655    677    671
  1758   2    655    677   1163
  1759   2    655    677   1173
  1760   2    671    677   1163
  1761   2    671    677   1173
  1762   2   1163    677   1173
  1763   2    654    678    663
  1764   2    654    678    665
  1765   2    654    678    672
  1766   2    663    678    665
  1767   2    663    678    672
  1768   2    665    678    672
  1769   2    656    679    664
  1770   2    656    679    667
  1771   2    656    679    673
  1772   2    664    679    667
  1773   2    664    679    673
  1774   2    667    679    673
  1775   2    175    680    657
  1776   2    175    680    668
  1777   2    175    680    674
  1778   2    657    680    668
  1779   2    657    680    674
  1780   2    668    680    674
  1781   2    658    681    660
  1782   2    658    681    669
  1783   2    658    681    675
  1784   2    660    681    669
  1785   2    660    681    675
  1786   2    669    681    675
  1787   2    659    682    661
  1788   2    659    682    670
  1789   2    659    682    676
  1790   2    661    682    670
  1791   2    661    682    676
  1792   2    670    682    676
  1793   2    660    683    665
  1794   2    660    683    725
  1795   2    660    683    712
  1796   2    665    683    725
  1797   2    665    683    712
  1798   2    725    683    712
  1799   2    237    684    661
  1800   2    237    684    666
  1801   2    237    684    674
  1802   2    661    684    666
  1803   2    661    684    674
  1804   2    666    684    674
  1805   2    662    685    667
  1806   2    662    685    675
  1807   2    662    685    727
  1808   2    667    685    675
  1809   2    667    685    727
  1810   2    675    685    727
  1811   2    586    686    663
  1812   2    586    686    668
  1813   2    586    686    673
  1814   2    663    686    668
  1815   2    663    686    673
  1816   2    668    686    673
  1817   2    587    687    669
  1818   2    587    687   1169
  1819   2    587    687    699
  1820   2    669    687   1169
  1821   2    669    687    699
  1822   2   1169    687    699
  1823   2    588    688    664
  1824   2    588    688    670
  1825   2    588    688    671
  1826   2    664    688    670
  1827   2    664    688    671
  1828   2    670    688    671
  1829   1    648    689    714
  1830   1    713    690   1146
  1831   1    650    691    715
  1832   1    716    692    793
  1833   1    717    693    794
  1834   1    718    694    795
  1835   1    717    695    719
  1836   1    718    696    720
  1837   1    721    697   1213
  1838   1    714    698    722
  1839   1    687    699    713
  1840   1    715    700    724
  1841   1    714    701    719
  1842   1    224    702    720
  1843   1    715    703    721
  1844   1    716    704    722
  1845   1    717    705    723
  1846   1    718    706    724
  1847   1    713    707    724
  1848   1    234    708    714
  1849   1    715    709    722
  1850   1    716    710    720
  1851   1    717    711    721
  1852   1    683    712    718
  1853   2    690    713    699
  1854   2    690    713    707
  1855   2    690    713   1199
  1856   2    699    713    707
  1857   2    699    713   1199
  1858   2    707    713   1199
  1859   2    689    714    698
  1860   2    689    714    701
  1861   2    689    714    708
  1862   2    698    714    701
  1863   2    698    714    708
  1864   2    701    714    708
  1865   2    691    715    700
  1866   2    691    715    703
  1867   2    691    715    709
  1868   2    700    715    703
  1869   2    700    715    709
  1870   2    703    715    709
  1871   2    209    716    692
  1872   2    209    716    704
  1873   2    209    716    710
  1874   2    692    716    704
  1875   2    692    716    710
  1876   2    704    716    710
  1877   2    693    717    695
  1878   2    693    717    705
  1879   2    693    717    711
  1880   2    695    717    705
  1881   2    695    717    711
  1882   2    705    717    711
  1883   2    694    718    696
  1884   2    694    718    706
  1885   2    694    718    712
  1886   2    696    718    706
  1887   2    696    718    712
  1888   2    706    718    712
  1889   2     79    719    695
  1890   2     79    719    701
  1891   2     79    719    760
  1892   2    695    719    701
  1893   2    695    719    760
  1894   2    701    719    760
  1895   2    271    720    696
  1896   2    271    720    702
  1897   2    271    720    710
  1898   2    696    720    702
  1899   2    696    720    710
  1900   2    702    720    710
  1901   2    697    721    703
  1902   2    697    721    711
  1903   2    697    721    762
  1904   2    703    721    711
  1905   2    703    721    762
  1906   2    711    721    762
  1907   2    621    722    698
  1908   2    621    722    704
  1909   2    621    722    709
  1910   2    698    722    704
  1911   2    698    722    709
  1912   2    704    722    709
  1913   2     85    723    622
  1914   2     85    723    705
  1915   2     85    723   1205
  1916   2    622    723    705
  1917   2    622    723   1205
  1918   2    705    723   1205
  1919   2    623    724    700
  1920   2    623    724    706
  1921   2    623    724    707
  1922   2    700    724    706
  1923   2    700    724    707
  1924   2    706    724    707
  1925   1    683    725    749
  1926   1    748    726   1181
  1927   1    685    727    750
  1928   1    751    728    828
  1929   1    752    729    829
  1930   1    753    730    830
  1931   1    752    731    754
  1932   1    753    732    755
  1933   1    756    733   1248
  1934   1    749    734    757
  1935   1    750    735    759
  1936   1    749    736    754
  1937   1    258    737    755
  1938   1    750    738    756
  1939   1    751    739    757
  1940   1    752    740    758
  1941   1    753    741    759
  1942   1    748    742    759
  1943   1    268    743    749
  1944   1    750    744    757
  1945   1    751    745    755
  1946   1    752    746    756
  1947   1    258    747    753
  1948   2    726    748    742
  1949   2    726    748   1234
  1950   2    726    748   1244
  1951   2    742    748   1234
  1952   2    742    748   1244
  1953   2   1234    748   1244
  1954   2    725    749    734
  1955   2    725    749    736
  1956   2    725    749    743
  1957   2    734    749    736
  1958   2    734    749    743
  1959   2    736    749    743
  1960   2    727    750    735
  1961   2    727    750    738
  1962   2    727    750    744
  1963   2    735    750    738
  1964   2    735    750    744
  1965   2    738    750    744
  1966   2    244    751    728
  1967   2    244    751    739
  1968   2    244    751    745
  1969   2    728    751    739
  1970   2    728    751    745
  1971   2    739    751    745
  1972   2    729    752    731
  1973   2    729    752    740
  1974   2    729    752    746
  1975   2    731    752    740
  1976   2    731    752    746
  1977   2    740    752    746
  1978   2    730    753    732
  1979   2    730    753    741
  1980   2    730    753    747
  1981   2    732    753    741
  1982   2    732    753    747
  1983   2    741    753    747
  1984   2    731    754    736
  1985   2    731    754    796
  1986   2    731    754    783
  1987   2    736    754    796
  1988   2    736    754    783
  1989   2    796    754    783
  1990   2    306    755    732
  1991   2    306    755    737
  1992   2    306    755    745
  1993   2    732    755    737
  1994   2    732    755    745
  1995   2    737    755    745
  1996   2    733    756    738
  1997   2    733    756    746
  1998   2    733    756    798
  1999   2    738    756    746
  2000   2    738    756    798
  2001   2    746    756    798
  2002   2    657    757    734
  2003   2    657    757    739
  2004   2    657    757    744
  2005   2    734    757    739
  2006   2    734    757    744
  2007   2    739    757    744
  2008   2    658    758    740
  2009   2    658    758   1240
  2010   2    658    758    770
  2011   2    740    758   1240
  2012   2    740    758    770
  2013   2   1240    758    770
  2014   2    659    759    735
  2015   2    659    759    741
  2016   2    659    759    742
  2017   2    735    759    741
  2018   2    735    759    742
  2019   2    741    759    742
  2020   1    719    760    785
  2021   1    784    761   1217
  2022   1    721    762    786
  2023   1    787    763    864
  2024   1    788    764    865
  2025   1    789    765    866
  2026   1    788    766    790
  2027   1    789    767    791
  2028   1    792    768   1284
  2029   1    785    769    793
  2030   1    758    770    784
  2031   1    786    771    795
  2032   1    785    772    790
  2033   1    293    773    791
  2034   1    786    774    792
  2035   1    787    775    793
  2036   1    788    776    794
  2037   1    789    777    795
  2038   1    784    778    795
  2039   1    303    779    785
  2040   1    786    780    793
  2041   1    787    781    791
  2042   1    788    782    792
  2043   1    754    783    789
  2044   2    761    784    770
  2045   2    761    784    778
  2046   2    761    784   1270
  2047   2    770    784    778
  2048   2    770    784   1270
  2049   2    778    784   1270
  2050   2    760    785    769
  2051   2    760    785    772
  2052   2    760    785    779
  2053   2    769    785    772
  2054   2    769    785    779
  2055   2    772    785    779
  2056   2    762    786    771
  2057   2    762    786    774
  2058   2    762    786    780
  2059   2    771    786    774
  2060   2    771    786    780
  2061   2    774    786    780
  2062   2    278    787    763
  2063   2    278    787    775
  2064   2    278    787    781
  2065   2    763    787    775
  2066   2    763    787    781
  2067   2    775    787    781
  2068   2    764    788    766
  2069   2    764    788    776
  2070   2    764    788    782
  2071   2    766    788    776
  2072   2    766    788    782
  2073   2    776    788    782
  2074   2    765    789    767
  2075   2    765    789    777
  2076   2    765    789    783
  2077   2    767    789    777
  2078   2    767    789    783
  2079   2    777    789    783
  2080   2     80    790    766
  2081   2     80    790    772
  2082   2     80    790    831
  2083   2    766    790    772
  2084   2    766    790    831
  2085   2    772    790    831
  2086   2    340    791    767
  2087   2    340    791    773
  2088   2    340    791    781
  2089   2    767    791    773
  2090   2    767    791    781
  2091   2    773    791    781
  2092   2    768    792    774
  2093   2    768    792    782
  2094   2    768    792    833
  2095   2    774    792    782
  2096   2    774    792    833
  2097   2    782    792    833
  2098   2    692    793    769
  2099   2    692    793    775
  2100   2    692    793    780
  2101   2    769    793    775
  2102   2    769    793    780
  2103   2    775    793    780
  2104   2     86    794    693
  2105   2     86    794    776
  2106   2     86    794   1276
  2107   2    693    794    776
  2108   2    693    794   1276
  2109   2    776    794   1276
  2110   2    694    795    771
  2111   2    694    795    777
  2112   2    694    795    778
  2113   2    771    795    777
  2114   2    771    795    778
  2115   2    777    795    778
  2116   1    754    796    820
  2117   1    819    797   1252
  2118   1    756    798    821
  2119   1    822    799    899
  2120   1    823    800    900
  2121   1    824    801    901
  2122   1    823    802    825
  2123   1    824    803    826
  2124   1    827    804   1319
  2125   1    820    805    828
  2126   1    821    806    830
  2127   1    820    807    825
  2128   1    327    808    826
  2129   1    821    809    827
  2130   1    822    810    828
  2131   1    823    811    829
  2132   1    824    812    830
  2133   1    819    813    830
  2134   1    337    814    820
  2135   1    821    815    828
  2136   1    822    816    826
  2137   1    823    817    827
  2138   1    327    818    824
  2139   2    797    819    813
  2140   2    797    819   1305
  2141   2    797    819   1315
  2142   2    813    819   1305
  2143   2    813    819   1315
  2144   2   1305    819   1315
  2145   2    796    820    805
  2146   2    796    820    807
  2147   2    796    820    814
  2148   2    805    820    807
  2149   2    805    820    814
  2150   2    807    820    814
  2151   2    798    821    806
  2152   2    798    821    809
  2153   2    798    821    815
  2154   2    806    821    809
  2155   2    806    821    815
  2156   2    809    821    815
  2157   2    313    822    799
  2158   2    313    822    810
  2159   2    313    822    816
  2160   2    799    822    810
  2161   2    799    822    816
  2162   2    810    822    816
  2163   2    800    823    802
  2164   2    800    823    811
  2165   2    800    823    817
  2166   2    802    823    811
  2167   2    802    823    817
  2168   2    811    823    817
  2169   2    801    824    803
  2170   2    801    824    812
  2171   2    801    824    818
  2172   2    803    824    812
  2173   2    803    824    818
  2174   2    812    824    818
  2175   2    802    825    807
  2176   2    802    825    867
  2177   2    802    825    854
  2178   2    807    825    867
  2179   2    807    825    854
  2180   2    867    825    854
  2181   2    375    826    803
  2182   2    375    826    808
  2183   2    375    826    816
  2184   2    803    826    808
  2185   2    803    826    816
  2186   2    808    826    816
  2187   2    804    827    809
  2188   2    804    827    817
  2189   2    804    827    869
  2190   2    809    827    817
  2191   2    809    827    869
  2192   2    817    827    869
  2193   2    728    828    805
  2194   2    728    828    810
  2195   2    728    828    815
  2196   2    805    828    810
  2197   2    805    828    815
  2198   2    810    828    815
  2199   2    729    829    811
  2200   2    729    829   1311
  2201   2    729    829    841
  2202   2    811    829   1311
  2203   2    811    829    841
  2204   2   1311    829    841
  2205   2    730    830    806
  2206   2    730    830    812
  2207   2    730    830    813
  2208   2    806    830    812
  2209   2    806    830    813
  2210   2    812    830    813
  2211   1    790    831    856
  2212   1    855    832   1288
  2213   1    792    833    857
  2214   1    858    834    935
  2215   1    859    835    936
  2216   1    860    836    937
  2217   1    859    837    861
  2218   1    860    838    862
  2219   1    863    839   1355
  2220   1    856    840    864
  2221   1    829    841    855
  2222   1    857    842    866
  2223   1    856    843    861
  2224   1    362    844    862
  2225   1    857    845    863
  2226   1    858    846    864
  2227   1    859    847    865
  2228   1    860    848    866
  2229   1    855    849    866
  2230   1    372    850    856
  2231   1    857    851    864
  2232   1    858    852    862
  2233   1    859    853    863
  2234   1    825    854    860
  2235   2    832    855    841
  2236   2    832    855    849
  2237   2    832    855   1341
  2238   2    841    855    849
  2239   2    841    855   1341
  2240   2    849    855   1341
  2241   2    831    856    840
  2242   2    831    856    843
  2243   2    831    856    850
  2244   2    840    856    843
  2245   2    840    856    850
  2246   2    843    856    850
  2247   2    833    857    842
  2248   2    833    857    845
  2249   2    833    857    851
  2250   2    842    857    845
  2251   2    842    857    851
  2252   2    845    857    851
  2253   2    347    858    834
  2254   2    347    858    846
  2255   2    347    858    852
  2256   2    834    858    846
  2257   2    834    858    852
  2258   2    846    858    852
  2259   2    835    859    837
  2260   2    835    859    847
  2261   2    835    859    853
  2262   2    837    859    847
  2263   2    837    859    853
  2264   2    847    859    853
  2265   2    836    860    838
  2266   2    836    860    848
  2267   2    836    860    854
  2268   2    838    860    848
  2269   2    838    860    854
  2270   2    848    860    854
  2271   2     81    861    837
  2272   2     81    861    843
  2273   2     81    861    902
  2274   2    837    861    843
  2275   2    837    861    902
  2276   2    843    861    902
  2277   2    409    862    838
  2278   2    409    862    844
  2279   2    409    862    852
  2280   2    838    862    844
  2281   2    838    862    852
  2282   2    844    862    852
  2283   2    839    863    845
  2284   2    839    863    853
  2285   2    839    863    904
  2286   2    845    863    853
  2287   2    845    863    904
  2288   2    853    863    904
  2289   2    763    864    840
  2290   2    763    864    846
  2291   2    763    864    851
  2292   2    840    864    846
  2293   2    840    864    851
  2294   2    846    864    851
  2295   2     87    865    764
  2296   2     87    865    847
  2297   2     87    865   1347
  2298   2    764    865    847
  2299   2    764    865   1347
  2300   2    847    865   1347
  2301   2    765    866    842
  2302   2    765    866    848
  2303   2    765    866    849
  2304   2    842    866    848
  2305   2    842    866    849
  2306   2    848    866    849
  2307   1    825    867    891
  2308   1    890    868   1323
  2309   1    827    869    892
  2310   1    893    870    970
  2311   1    894    871    971
  2312   1    895    872    972
  2313   1    894    873    896
  2314   1    895    874    897
  2315   1    898    875   1390
  2316   1    891    876    899
  2317   1    892    877    901
  2318   1    891    878    896
  2319   1    396    879    897
  2320   1    892    880    898
  2321   1    893    881    899
  2322   1    894    882    900
  2323   1    895    883    901
  2324   1    890    884    901
  2325   1    406    885    891
  2326   1    892    886    899
  2327   1    893    887    897
  2328   1    894    888    898
  2329   1    396    889    895
  2330   2    868    890    884
  2331   2    868    890   1376
  2332   2    868    890   1386
  2333   2    884    890   1376
  2334   2    884    890   1386
  2335   2   1376    890   1386
  2336   2    867    891    876
  2337   2    867    891    878
  2338   2    867    891    885
  2339   2    876    891    878
  2340   2    876    891    885
  2341   2    878    891    885
  2342   2    869    892    877
  2343   2    869    892    880
  2344   2    869    892    886
  2345   2    877    892    880
  2346   2    877    892    886
  2347   2    880    892    886
  2348   2    382    893    870
  2349   2    382    893    881
  2350   2    382    893    887
  2351   2    870    893    881
  2352   2    870    893    887
  2353   2    881    893    887
  2354   2    871    894    873
  2355   2    871    894    882
  2356   2    871    894    888
  2357   2    873    894    882
  2358   2    873    894    888
  2359   2    882    894    888
  2360   2    872    895    874
  2361   2    872    895    883
  2362   2    872    895    889
  2363   2    874    895    883
  2364   2    874    895    889
  2365   2    883    895    889
  2366   2    873    896    878
  2367   2    873    896    938
  2368   2    873    896    925
  2369   2    878    896    938
  2370   2    878    896    925
  2371   2    938    896    925
  2372   2    444    897    874
  2373   2    444    897    879
  2374   2    444    897    887
  2375   2    874    897    879
  2376   2    874    897    887
  2377   2    879    897    887
  2378   2    875    898    880
  2379   2    875    898    888
  2380   2    875    898    940
  2381   2    880    898    888
  2382   2    880    898    940
  2383   2    888    898    940
  2384   2    799    899    876
  2385   2    799    899    881
  2386   2    799    899    886
  2387   2    876    899    881
  2388   2    876    899    886
  2389   2    881    899    886
  2390   2    800    900    882
  2391   2    800    900   1382
  2392   2    800    900    912
  2393   2    882    900   1382
  2394   2    882    900    912
  2395   2   1382    900    912
  2396   2    801    901    877
  2397   2    801    901    883
  2398   2    801    901    884
  2399   2    877    901    883
  2400   2    877    901    884
  2401   2    883    901    884
  2402   1    861    902    927
  2403   1    926    903   1359
  2404   1    863    904    928
  2405   1    929    905   1006
  2406   1    930    906   1007
  2407   1    931    907   1008
  2408   1    930    908    932
  2409   1    931    909    933
  2410   1    934    910   1426
  2411   1    927    911    935
  2412   1    900    912    926
  2413   1    928    913    937
  2414   1    927    914    932
  2415   1    431    915    933
  2416   1    928    916    934
  2417   1    929    917    935
  2418   1    930    918    936
  2419   1    931    919    937
  2420   1    926    920    937
  2421   1    441    921    927
  2422   1    928    922    935
  2423   1    929    923    933
  2424   1    930    924    934
  2425   1    896    925    931
  2426   2    903    926    912
  2427   2    903    926    920
  2428   2    903    926   1412
  2429   2    912    926    920
  2430   2    912    926   1412
  2431   2    920    926   1412
  2432   2    902    927    911
  2433   2    902    927    914
  2434   2    902    927    921
  2435   2    911    927    914
  2436   2    911    927    921
  2437   2    914    927    921
  2438   2    904    928    913
  2439   2    904    928    916
  2440   2    904    928    922
  2441   2    913    928    916
  2442   2    913    928    922
  2443   2    916    928    922
  2444   2    416    929    905
  2445   2    416    929    917
  2446   2    416    929    923
  2447   2    905    929    917
  2448   2    905    929    923
  2449   2    917    929    923
  2450   2    906    930    908
  2451   2    906    930    918
  2452   2    906    930    924
  2453   2    908    930    918
  2454   2    908    930    924
  2455   2    918    930    924
  2456   2    907    931    909
  2457   2    907    931    919
  2458   2    907    931    925
  2459   2    909    931    919
  2460   2    909    931    925
  2461   2    919    931    925
  2462   2     82    932    908
  2463   2     82    932    914
  2464   2     82    932    973
  2465   2    908    932    914
  2466   2    908    932    973
  2467   2    914    932    973
  2468   2    478    933    909
  2469   2    478    933    915
  2470   2    478    933    923
  2471   2    909    933    915
  2472   2    909    933    923
  2473   2    915    933    923
  2474   2    910    934    916
  2475   2    910    934    924
  2476   2    910    934    975
  2477   2    916    934    924
  2478   2    916    934    975
  2479   2    924    934    975
  2480   2    834    935    911
  2481   2    834    935    917
  2482   2    834    935    922
  2483   2    911    935    917
  2484   2    911    935    922
  2485   2    917    935    922
  2486   2     88    936    835
  2487   2     88    936    918
  2488   2     88    936   1418
  2489   2    835    936    918
  2490   2    835    936   1418
  2491   2    918    936   1418
  2492   2    836    937    913
  2493   2    836    937    919
  2494   2    836    937    920
  2495   2    913    937    919
  2496   2    913    937    920
  2497   2    919    937    920
  2498   1    896    938    962
  2499   1    961    939   1394
  2500   1    898    940    963
  2501   1    964    941    544
  2502   1    965    942    545
  2503   1    966    943    546
  2504   1    965    944    967
  2505   1    966    945    968
  2506   1    969    946   1461
  2507   1    962    947    970
  2508   1    963    948    972
  2509   1    962    949    967
  2510   1    465    950    968
  2511   1    963    951    969
  2512   1    964    952    970
  2513   1    965    953    971
  2514   1    966    954    972
  2515   1    961    955    972
  2516   1    475    956    962
  2517   1    963    957    970
  2518   1    964    958    968
  2519   1    965    959    969
  2520   1    465    960    966
  2521   2    939    961    955
  2522   2    939    961   1447
  2523   2    939    961   1457
  2524   2    955    961   1447
  2525   2    955    961   1457
  2526   2   1447    961   1457
  2527   2    938    962    947
  2528   2    938    962    949
  2529   2    938    962    956
  2530   2    947    962    949
  2531   2    947    962    956
  2532   2    949    962    956
  2533   2    940    963    948
  2534   2    940    963    951
  2535   2    940    963    957
  2536   2    948    963    951
  2537   2    948    963    957
  2538   2    951    963    957
  2539   2    451    964    941
  2540   2    451    964    952
  2541   2    451    964    958
  2542   2    941    964    952
  2543   2    941    964    958
  2544   2    952    964    958
  2545   2    942    965    944
  2546   2    942    965    953
  2547   2    942    965    959
  2548   2    944    965    953
  2549   2    944    965    959
  2550   2    953    965    959
  2551   2    943    966    945
  2552   2    943    966    954
  2553   2    943    966    960
  2554   2    945    966    954
  2555   2    945    966    960
  2556   2    954    966    960
  2557   2    944    967    949
  2558   2    944    967    996
  2559   2    944    967    512
  2560   2    949    967    996
  2561   2    949    967    512
  2562   2    996    967    512
  2563   2    945    968    950
  2564   2    945    968    958
  2565   2    945    968      2
  2566   2    950    968    958
  2567   2    950    968      2
  2568   2    958    968      2
  2569   2    946    969    951
  2570   2    946    969    959
  2571   2    946    969    514
  2572   2    951    969    959
  2573   2    951    969    514
  2574   2    959    969    514
  2575   2    870    970    947
  2576   2    870    970    952
  2577   2    870    970    957
  2578   2    947    970    952
  2579   2    947    970    957
  2580   2    952    970    957
  2581   2    871    971    953
  2582   2    871    971   1453
  2583   2    871    971    983
  2584   2    953    971   1453
  2585   2    953    971    983
  2586   2   1453    971    983
  2587   2    872    972    948
  2588   2    872    972    954
  2589   2    872    972    955
  2590   2    948    972    954
  2591   2    948    972    955
  2592   2    954    972    955
  2593   1    932    973    998
  2594   1    997    974   1430
  2595   1    934    975    999
  2596   1   1000    976    580
  2597   1   1001    977    581
  2598   1   1002    978    582
  2599   1   1001    979   1003
  2600   1   1002    980   1004
  2601   1   1005    981   1497
  2602   1    998    982   1006
  2603   1    971    983    997
  2604   1    999    984   1008
  2605   1    998    985   1003
  2606   1    500    986   1004
  2607   1    999    987   1005
  2608   1   1000    988   1006
  2609   1   1001    989   1007
  2610   1   1002    990   1008
  2611   1    997    991   1008
  2612   1    510    992    998
  2613   1    999    993   1006
  2614   1   1000    994   1004
  2615   1   1001    995   1005
  2616   1    967    996   1002
  2617   2    974    997    983
  2618   2    974    997    991
  2619   2    974    997   1483
  2620   2    983    997    991
  2621   2    983    997   1483
  2622   2    991    997   1483
  2623   2    973    998    982
  2624   2    973    998    985
  2625   2    973    998    992
  2626   2    982    998    985
  2627   2    982    998    992
  2628   2    985    998    992
  2629   2    975    999    984
  2630   2    975    999    987
  2631   2    975    999    993
  2632   2    984    999    987
  2633   2    984    999    993
  2634   2    987    999    993
  2635   2    485   1000    976
  2636   2    485   1000    988
  2637   2    485   1000    994
  2638   2    976   1000    988
  2639   2    976   1000    994
  2640   2    988   1000    994
  2641   2    977   1001    979
  2642   2    977   1001    989
  2643   2    977   1001    995
  2644   2    979   1001    989
  2645   2    979   1001    995
  2646   2    989   1001    995
  2647   2    978   1002    980
  2648   2    978   1002    990
  2649   2    978   1002    996
  2650   2    980   1002    990
  2651   2    980   1002    996
  2652   2    990   1002    996
  2653   2     83   1003    979
  2654   2     83   1003    985
  2655   2     83   1003    547
  2656   2    979   1003    985
  2657   2    979   1003    547
  2658   2    985   1003    547
  2659   2    980   1004    986
  2660   2    980   1004    994
  2661   2    980   1004     36
  2662   2    986   1004    994
  2663   2    986   1004     36
  2664   2    994   1004     36
  2665   2    981   1005    987
  2666   2    981   1005    995
  2667   2    981   1005    549
  2668   2    987   1005    995
  2669   2    987   1005    549
  2670   2    995   1005    549
  2671   2    905   1006    982
  2672   2    905   1006    988
  2673   2    905   1006    993
  2674   2    982   1006    988
  2675   2    982   1006    993
  2676   2    988   1006    993
  2677   2     89   1007    906
  2678   2     89   1007    989
  2679   2     89   1007   1489
  2680   2    906   1007    989
  2681   2    906   1007   1489
  2682   2    989   1007   1489
  2683   2    907   1008    984
  2684   2    907   1008    990
  2685   2    907   1008    991
  2686   2    984   1008    990
  2687   2    984   1008    991
  2688   2    990   1008    991
  2689   1   1033   1009   1464
  2690   1   1032   1010   1943
  2691   1   1034   1011   1466
  2692   1   1035   1012   1112
  2693   1   1036   1013   1113
  2694   1   1037   1014   1114
  2695   1   1036   1015   1038
  2696   1   1037   1016   1039
  2697   1   1040   1017   1531
  2698   1   1033   1018   1041
  2699   1   1034   1019   1043
  2700   1   1033   1020   1038
  2701   1    535   1021   1039
  2702   1   1034   1022   1040
  2703   1   1035   1023   1041
  2704   1   1036   1024   1042
  2705   1   1037   1025   1043
  2706   1   1032   1026   1043
  2707   1    545   1027   1033
  2708   1   1034   1028   1041
  2709   1   1035   1029   1039
  2710   1   1036   1030   1040
  2711   1    535   1031   1037
  2712   2   1010   1032   1026
  2713   2   1010   1032   1517
  2714   2   1010   1032   1527
  2715   2   1026   1032   1517
  2716   2   1026   1032   1527
  2717   2   1517   1032   1527
  2718   2   1009   1033   1018
  2719   2   1009   1033   1020
  2720   2   1009   1033   1027
  2721   2   1018   1033   1020
  2722   2   1018   1033   1027
  2723   2   1020   1033   1027
  2724   2   1011   1034   1019
  2725   2   1011   1034   1022
  2726   2   1011   1034   1028
  2727   2   1019   1034   1022
  2728   2   1019   1034   1028
  2729   2   1022   1034   1028
  2730   2    520   1035   1012
  2731   2    520   1035   1023
  2732   2    520   1035   1029
  2733   2   1012   1035   1023
  2734   2   1012   1035   1029
  2735   2   1023   1035   1029
  2736   2   1013   1036   1015
  2737   2   1013   1036   1024
  2738   2   1013   1036   1030
  2739   2   1015   1036   1024
  2740   2   1015   1036   1030
  2741   2   1024   1036   1030
  2742   2   1014   1037   1016
  2743   2   1014   1037   1025
  2744   2   1014   1037   1031
  2745   2   1016   1037   1025
  2746   2   1016   1037   1031
  2747   2   1025   1037   1031
  2748   2   1015   1038   1020
  2749   2   1015   1038   1080
  2750   2   1015   1038   1067
  2751   2   1020   1038   1080
  2752   2   1020   1038   1067
  2753   2   1080   1038   1067
  2754   2    584   1039   1016
  2755   2    584   1039   1021
  2756   2    584   1039   1029
  2757   2   1016   1039   1021
  2758   2   1016   1039   1029
  2759   2   1021   1039   1029
  2760   2   1017   1040   1022
  2761   2   1017   1040   1030
  2762   2   1017   1040   1082
  2763   2   1022   1040   1030
  2764   2   1022   1040   1082
  2765   2   1030   1040   1082
  2766   2   1018   1041   1023
  2767   2   1018   1041   1028
  2768   2   1018   1041   1438
  2769   2   1023   1041   1028
  2770   2   1023   1041   1438
  2771   2   1028   1041   1438
  2772   2   1024   1042   1523
  2773   2   1024   1042   1054
  2774   2   1024   1042   1439
  2775   2   1523   1042   1054
  2776   2   1523   1042   1439
  2777   2   1054   1042   1439
  2778   2   1019   1043   1025
  2779   2   1019   1043   1026
  2780   2   1019   1043   1440
  2781   2   1025   1043   1026
  2782   2   1025   1043   1440
  2783   2   1026   1043   1440
  2784   1   1069   1044   1500
  2785   1   1068   1045   1977
  2786   1   1070   1046   1502
  2787   1   1071   1047   1148
  2788   1   1072   1048   1149
  2789   1   1073   1049   1150
  2790   1   1072   1050   1074
  2791   1   1073   1051   1075
  2792   1   1076   1052   1565
  2793   1   1069   1053   1077
  2794   1   1042   1054   1068
  2795   1   1070   1055   1079
  2796   1   1069   1056   1074
  2797   1    571   1057   1075
  2798   1   1070   1058   1076
  2799   1   1071   1059   1077
  2800   1   1072   1060   1078
  2801   1   1073   1061   1079
  2802   1   1068   1062   1079
  2803   1    581   1063   1069
  2804   1   1070   1064   1077
  2805   1   1071   1065   1075
  2806   1   1072   1066   1076
  2807   1   1038   1067   1073
  2808   2   1045   1068   1054
  2809   2   1045   1068   1062
  2810   2   1045   1068   1551
  2811   2   1054   1068   1062
  2812   2   1054   1068   1551
  2813   2   1062   1068   1551
  2814   2   1044   1069   1053
  2815   2   1044   1069   1056
  2816   2   1044   1069   1063
  2817   2   1053   1069   1056
  2818   2   1053   1069   1063
  2819   2   1056   1069   1063
  2820   2   1046   1070   1055
  2821   2   1046   1070   1058
  2822   2   1046   1070   1064
  2823   2   1055   1070   1058
  2824   2   1055   1070   1064
  2825   2   1058   1070   1064
  2826   2    555   1071   1047
  2827   2    555   1071   1059
  2828   2    555   1071   1065
  2829   2   1047   1071   1059
  2830   2   1047   1071   1065
  2831   2   1059   1071   1065
  2832   2   1048   1072   1050
  2833   2   1048   1072   1060
  2834   2   1048   1072   1066
  2835   2   1050   1072   1060
  2836   2   1050   1072   1066
  2837   2   1060   1072   1066
  2838   2   1049   1073   1051
  2839   2   1049   1073   1061
  2840   2   1049   1073   1067
  2841   2   1051   1073   1061
  2842   2   1051   1073   1067
  2843   2   1061   1073   1067
  2844   2     84   1074   1050
  2845   2     84   1074   1056
  2846   2     84   1074   1115
  2847   2   1050   1074   1056
  2848   2   1050   1074   1115
  2849   2   1056   1074   1115
  2850   2    619   1075   1051
  2851   2    619   1075   1057
  2852   2    619   1075   1065
  2853   2   1051   1075   1057
  2854   2   1051   1075   1065
  2855   2   1057   1075   1065
  2856   2   1052   1076   1058
  2857   2   1052   1076   1066
  2858   2   1052   1076   1117
  2859   2   1058   1076   1066
  2860   2   1058   1076   1117
  2861   2   1066   1076   1117
  2862   2   1053   1077   1059
  2863   2   1053   1077   1064
  2864   2   1053   1077   1473
  2865   2   1059   1077   1064
  2866   2   1059   1077   1473
  2867   2   1064   1077   1473
  2868   2   1060   1078   1557
  2869   2   1060   1078     97
  2870   2   1060   1078   1474
  2871   2   1557   1078     97
  2872   2   1557   1078   1474
  2873   2     97   1078   1474
  2874   2   1055   1079   1061
  2875   2   1055   1079   1062
  2876   2   1055   1079   1475
  2877   2   1061   1079   1062
  2878   2   1061   1079   1475
  2879   2   1062   1079   1475
  2880   1   1038   1080   1104
  2881   1   1103   1081   1535
  2882   1   1040   1082   1105
  2883   1   1106   1083   1183
  2884   1   1107   1084   1184
  2885   1   1108   1085   1185
  2886   1   1107   1086   1109
  2887   1   1108   1087   1110
  2888   1   1111   1088   1599
  2889   1   1104   1089   1112
  2890   1   1105   1090   1114
  2891   1   1104   1091   1109
  2892   1    606   1092   1110
  2893   1   1105   1093   1111
  2894   1   1106   1094   1112
  2895   1   1107   1095   1113
  2896   1   1108   1096   1114
  2897   1   1103   1097   1114
  2898   1    616   1098   1104
  2899   1   1105   1099   1112
  2900   1   1106   1100   1110
  2901   1   1107   1101   1111
  2902   1    606   1102   1108
  2903   2   1081   1103   1097
  2904   2   1081   1103   1585
  2905   2   1081   1103   1595
  2906   2   1097   1103   1585
  2907   2   1097   1103   1595
  2908   2   1585   1103   1595
  2909   2   1080   1104   1089
  2910   2   1080   1104   1091
  2911   2   1080   1104   1098
  2912   2   1089   1104   1091
  2913   2   1089   1104   1098
  2914   2   1091   1104   1098
  2915   2   1082   1105   1090
  2916   2   1082   1105   1093
  2917   2   1082   1105   1099
  2918   2   1090   1105   1093
  2919   2   1090   1105   1099
  2920   2   1093   1105   1099
  2921   2    591   1106   1083
  2922   2    591   1106   1094
  2923   2    591   1106   1100
  2924   2   1083   1106   1094
  2925   2   1083   1106   1100
  2926   2   1094   1106   1100
  2927   2   1084   1107   1086
  2928   2   1084   1107   1095
  2929   2   1084   1107   1101
  2930   2   1086   1107   1095
  2931   2   1086   1107   1101
  2932   2   1095   1107   1101
  2933   2   1085   1108   1087
  2934   2   1085   1108   1096
  2935   2   1085   1108   1102
  2936   2   1087   1108   1096
  2937   2   1087   1108   1102
  2938   2   1096   1108   1102
  2939   2   1086   1109   1091
  2940   2   1086   1109   1151
  2941   2   1086   1109   1138
  2942   2   1091   1109   1151
  2943   2   1091   1109   1138
  2944   2   1151   1109   1138
  2945   2    655   1110   1087
  2946   2    655   1110   1092
  2947   2    655   1110   1100
  2948   2   1087   1110   1092
  2949   2   1087   1110   1100
  2950   2   1092   1110   1100
  2951   2   1088   1111   1093
  2952   2   1088   1111   1101
  2953   2   1088   1111   1153
  2954   2   1093   1111   1101
  2955   2   1093   1111   1153
  2956   2   1101   1111   1153
  2957   2   1012   1112   1089
  2958   2   1012   1112   1094
  2959   2   1012   1112   1099
  2960   2   1089   1112   1094
  2961   2   1089   1112   1099
  2962   2   1094   1112   1099
  2963   2   1013   1113   1095
  2964   2   1013   1113   1591
  2965   2   1013   1113   1125
  2966   2   1095   1113   1591
  2967   2   1095   1113   1125
  2968   2   1591   1113   1125
  2969   2   1014   1114   1090
  2970   2   1014   1114   1096
  2971   2   1014   1114   1097
  2972   2   1090   1114   1096
  2973   2   1090   1114   1097
  2974   2   1096   1114   1097
  2975   1   1074   1115   1140
  2976   1   1139   1116   1569
  2977   1   1076   1117   1141
  2978   1   1142   1118   1219
  2979   1   1143   1119   1220
  2980   1   1144   1120   1221
  2981   1   1143   1121   1145
  2982   1   1144   1122   1146
  2983   1   1147   1123   1633
  2984   1   1140   1124   1148
  2985   1   1113   1125   1139
  2986   1   1141   1126   1150
  2987   1   1140   1127   1145
  2988   1    642   1128   1146
  2989   1   1141   1129   1147
  2990   1   1142   1130   1148
  2991   1   1143   1131   1149
  2992   1   1144   1132   1150
  2993   1   1139   1133   1150
  2994   1    652   1134   1140
  2995   1   1141   1135   1148
  2996   1   1142   1136   1146
  2997   1   1143   1137   1147
  2998   1   1109   1138   1144
  2999   2   1116   1139   1125
  3000   2   1116   1139   1133
  3001   2   1116   1139   1619
  3002   2   1125   1139   1133
  3003   2   1125   1139   1619
  3004   2   1133   1139   1619
  3005   2   1115   1140   1124
  3006   2   1115   1140   1127
  3007   2   1115   1140   1134
  3008   2   1124   1140   1127
  3009   2   1124   1140   1134
  3010   2   1127   1140   1134
  3011   2   1117   1141   1126
  3012   2   1117   1141   1129
  3013   2   1117   1141   1135
  3014   2   1126   1141   1129
  3015   2   1126   1141   1135
  3016   2   1129   1141   1135
  3017   2    626   1142   1118
  3018   2    626   1142   1130
  3019   2    626   1142   1136
  3020   2   1118   1142   1130
  3021   2   1118   1142   1136
  3022   2   1130   1142   1136
  3023   2   1119   1143   1121
  3024   2   1119   1143   1131
  3025   2   1119   1143   1137
  3026   2   1121   1143   1131
  3027   2   1121   1143   1137
  3028   2   1131   1143   1137
  3029   2   1120   1144   1122
  3030   2   1120   1144   1132
  3031   2   1120   1144   1138
  3032   2   1122   1144   1132
  3033   2   1122   1144   1138
  3034   2   1132   1144   1138
  3035   2     85   1145   1121
  3036   2     85   1145   1127
  3037   2     85   1145   1186
  3038   2   1121   1145   1127
  3039   2   1121   1145   1186
  3040   2   1127   1145   1186
  3041   2    690   1146   1122
  3042   2    690   1146   1128
  3043   2    690   1146   1136
  3044   2   1122   1146   1128
  3045   2   1122   1146   1136
  3046   2   1128   1146   1136
  3047   2   1123   1147   1129
  3048   2   1123   1147   1137
  3049   2   1123   1147   1188
  3050   2   1129   1147   1137
  3051   2   1129   1147   1188
  3052   2   1137   1147   1188
  3053   2   1047   1148   1124
  3054   2   1047   1148   1130
  3055   2   1047   1148   1135
  3056   2   1124   1148   1130
  3057   2   1124   1148   1135
  3058   2   1130   1148   1135
  3059   2     91   1149   1048
  3060   2     91   1149   1131
  3061   2     91   1149   1625
  3062   2   1048   1149   1131
  3063   2   1048   1149   1625
  3064   2   1131   1149   1625
  3065   2   1049   1150   1126
  3066   2   1049   1150   1132
  3067   2   1049   1150   1133
  3068   2   1126   1150   1132
  3069   2   1126   1150   1133
  3070   2   1132   1150   1133
  3071   1   1109   1151   1175
  3072   1   1174   1152   1603
  3073   1   1111   1153   1176
  3074   1   1177   1154   1254
  3075   1   1178   1155   1255
  3076   1   1179   1156   1256
  3077   1   1178   1157   1180
  3078   1   1179   1158   1181
  3079   1   1182   1159   1667
  3080   1   1175   1160   1183
  3081   1   1176   1161   1185
  3082   1   1175   1162   1180
  3083   1    677   1163   1181
  3084   1   1176   1164   1182
  3085   1   1177   1165   1183
  3086   1   1178   1166   1184
  3087   1   1179   1167   1185
  3088   1   1174   1168   1185
  3089   1    687   1169   1175
  3090   1   1176   1170   1183
  3091   1   1177   1171   1181
  3092   1   1178   1172   1182
  3093   1    677   1173   1179
  3094   2   1152   1174   1168
  3095   2   1152   1174   1653
  3096   2   1152   1174   1663
  3097   2   1168   1174   1653
  3098   2   1168   1174   1663
  3099   2   1653   1174   1663
  3100   2   1151   1175   1160
  3101   2   1151   1175   1162
  3102   2   1151   1175   1169
  3103   2   1160   1175   1162
  3104   2   1160   1175   1169
  3105   2   1162   1175   1169
  3106   2   1153   1176   1161
  3107   2   1153   1176   1164
  3108   2   1153   1176   1170
  3109   2   1161   1176   1164
  3110   2   1161   1176   1170
  3111   2   1164   1176   1170
  3112   2    662   1177   1154
  3113   2    662   1177   1165
  3114   2    662   1177   1171
  3115   2   1154   1177   1165
  3116   2   1154   1177   1171
  3117   2   1165   1177   1171
  3118   2   1155   1178   1157
  3119   2   1155   1178   1166
  3120   2   1155   1178   1172
  3121   2   1157   1178   1166
  3122   2   1157   1178   1172
  3123   2   1166   1178   1172
  3124   2   1156   1179   1158
  3125   2   1156   1179   1167
  3126   2   1156   1179   1173
  3127   2   1158   1179   1167
  3128   2   1158   1179   1173
  3129   2   1167   1179   1173
  3130   2   1157   1180   1162
  3131   2   1157   1180   1222
  3132   2   1157   1180   1209
  3133   2   1162   1180   1222
  3134   2   1162   1180   1209
  3135   2   1222   1180   1209
  3136   2    726   1181   1158
  3137   2    726   1181   1163
  3138   2    726   1181   1171
  3139   2   1158   1181   1163
  3140   2   1158   1181   1171
  3141   2   1163   1181   1171
  3142   2   1159   1182   1164
  3143   2   1159   1182   1172
  3144   2   1159   1182   1224
  3145   2   1164   1182   1172
  3146   2   1164   1182   1224
  3147   2   1172   1182   1224
  3148   2   1083   1183   1160
  3149   2   1083   1183   1165
  3150   2   1083   1183   1170
  3151   2   1160   1183   1165
  3152   2   1160   1183   1170
  3153   2   1165   1183   1170
  3154   2   1084   1184   1166
  3155   2   1084   1184   1659
  3156   2   1084   1184   1196
  3157   2   1166   1184   1659
  3158   2   1166   1184   1196
  3159   2   1659   1184   1196
  3160   2   1085   1185   1161
  3161   2   1085   1185   1167
  3162   2   1085   1185   1168
  3163   2   1161   1185   1167
  3164   2   1161   1185   1168
  3165   2   1167   1185   1168
  3166   1   1145   1186   1211
  3167   1   1210   1187   1637
  3168   1   1147   1188   1212
  3169   1   1213   1189   1290
  3170   1   1214   1190   1291
  3171   1   1215   1191   1292
  3172   1   1214   1192   1216
  3173   1   1215   1193   1217
  3174   1   1218   1194   1701
  3175   1   1211   1195   1219
  3176   1   1184   1196   1210
  3177   1   1212   1197   1221
  3178   1   1211   1198   1216
  3179   1    713   1199   1217
  3180   1   1212   1200   1218
  3181   1   1213   1201   1219
  3182   1   1214   1202   1220
  3183   1   1215   1203   1221
  3184   1   1210   1204   1221
  3185   1    723   1205   1211
  3186   1   1212   1206   1219
  3187   1   1213   1207   1217
  3188   1   1214   1208   1218
  3189   1   1180   1209   1215
  3190   2   1187   1210   1196
  3191   2   1187   1210   1204
  3192   2   1187   1210   1687
  3193   2   1196   1210   1204
  3194   2   1196   1210   1687
  3195   2   1204   1210   1687
  3196   2   1186   1211   1195
  3197   2   1186   1211   1198
  3198   2   1186   1211   1205
  3199   2   1195   1211   1198
  3200   2   1195   1211   1205
  3201   2   1198   1211   1205
  3202   2   1188   1212   1197
  3203   2   1188   1212   1200
  3204   2   1188   1212   1206
  3205   2   1197   1212   1200
  3206   2   1197   1212   1206
  3207   2   1200   1212   1206
  3208   2    697   1213   1189
  3209   2    697   1213   1201
  3210   2    697   1213   1207
  3211   2   1189   1213   1201
  3212   2   1189   1213   1207
  3213   2   1201   1213   1207
  3214   2   1190   1214   1192
  3215   2   1190   1214   1202
  3216   2   1190   1214   1208
  3217   2   1192   1214   1202
  3218   2   1192   1214   1208
  3219   2   1202   1214   1208
  3220   2   1191   1215   1193
  3221   2   1191   1215   1203
  3222   2   1191   1215   1209
  3223   2   1193   1215   1203
  3224   2   1193   1215   1209
  3225   2   1203   1215   1209
  3226   2     86   1216   1192
  3227   2     86   1216   1198
  3228   2     86   1216   1257
  3229   2   1192   1216   1198
  3230   2   1192   1216   1257
  3231   2   1198   1216   1257
  3232   2    761   1217   1193
  3233   2    761   1217   1199
  3234   2    761   1217   1207
  3235   2   1193   1217   1199
  3236   2   1193   1217   1207
  3237   2   1199   1217   1207
  3238   2   1194   1218   1200
  3239   2   1194   1218   1208
  3240   2   1194   1218   1259
  3241   2   1200   1218   1208
  3242   2   1200   1218   1259
  3243   2   1208   1218   1259
  3244   2   1118   1219   1195
  3245   2   1118   1219   1201
  3246   2   1118   1219   1206
  3247   2   1195   1219   1201
  3248   2   1195   1219   1206
  3249   2   1201   1219   1206
  3250   2     92   1220   1119
  3251   2     92   1220   1202
  3252   2     92   1220   1693
  3253   2   1119   1220   1202
  3254   2   1119   1220   1693
  3255   2   1202   1220   1693
  3256   2   1120   1221   1197
  3257   2   1120   1221   1203
  3258   2   1120   1221   1204
  3259   2   1197   1221   1203
  3260   2   1197   1221   1204
  3261   2   1203   1221   1204
  3262   1   1180   1222   1246
  3263   1   1245   1223   1671
  3264   1   1182   1224   1247
  3265   1   1248   1225   1325
  3266   1   1249   1226   1326
  3267   1   1250   1227   1327
  3268   1   1249   1228   1251
  3269   1   1250   1229   1252
  3270   1   1253   1230   1735
  3271   1   1246   1231   1254
  3272   1   1247   1232   1256
  3273   1   1246   1233   1251
  3274   1    748   1234   1252
  3275   1   1247   1235   1253
  3276   1   1248   1236   1254
  3277   1   1249   1237   1255
  3278   1   1250   1238   1256
  3279   1   1245   1239   1256
  3280   1    758   1240   1246
  3281   1   1247   1241   1254
  3282   1   1248   1242   1252
  3283   1   1249   1243   1253
  3284   1    748   1244   1250
  3285   2   1223   1245   1239
  3286   2   1223   1245   1721
  3287   2   1223   1245   1731
  3288   2   1239   1245   1721
  3289   2   1239   1245   1731
  3290   2   1721   1245   1731
  3291   2   1222   1246   1231
  3292   2   1222   1246   1233
  3293   2   1222   1246   1240
  3294   2   1231   1246   1233
  3295   2   1231   1246   1240
  3296   2   1233   1246   1240
  3297   2   1224   1247   1232
  3298   2   1224   1247   1235
  3299   2   1224   1247   1241
  3300   2   1232   1247   1235
  3301   2   1232   1247   1241
  3302   2   1235   1247   1241
  3303   2    733   1248   1225
  3304   2    733   1248   1236
  3305   2    733   1248   1242
  3306   2   1225   1248   1236
  3307   2   1225   1248   1242
  3308   2   1236   1248   1242
  3309   2   1226   1249   1228
  3310   2   1226   1249   1237
  3311   2   1226   1249   1243
  3312   2   1228   1249   1237
  3313   2   1228   1249   1243
  3314   2   1237   1249   1243
  3315   2   1227   1250   1229
  3316   2   1227   1250   1238
  3317   2   1227   1250   1244
  3318   2   1229   1250   1238
  3319   2   1229   1250   1244
  3320   2   1238   1250   1244
  3321   2   1228   1251   1233
  3322   2   1228   1251   1293
  3323   2   1228   1251   1280
  3324   2   1233   1251   1293
  3325   2   1233   1251   1280
  3326   2   1293   1251   1280
  3327   2    797   1252   1229
  3328   2    797   1252   1234
  3329   2    797   1252   1242
  3330   2   1229   1252   1234
  3331   2   1229   1252   1242
  3332   2   1234   1252   1242
  3333   2   1230   1253   1235
  3334   2   1230   1253   1243
  3335   2   1230   1253   1295
  3336   2   1235   1253   1243
  3337   2   1235   1253   1295
  3338   2   1243   1253   1295
  3339   2   1154   1254   1231
  3340   2   1154   1254   1236
  3341   2   1154   1254   1241
  3342   2   1231   1254   1236
  3343   2   1231   1254   1241
  3344   2   1236   1254   1241
  3345   2   1155   1255   1237
  3346   2   1155   1255   1727
  3347   2   1155   1255   1267
  3348   2   1237   1255   1727
  3349   2   1237   1255   1267
  3350   2   1727   1255   1267
  3351   2   1156   1256   1232
  3352   2   1156   1256   1238
  3353   2   1156   1256   1239
  3354   2   1232   1256   1238
  3355   2   1232   1256   1239
  3356   2   1238   1256   1239
  3357   1   1216   1257   1282
  3358   1   1281   1258   1705
  3359   1   1218   1259   1283
  3360   1   1284   1260   1361
  3361   1   1285   1261   1362
  3362   1   1286   1262   1363
  3363   1   1285   1263   1287
  3364   1   1286   1264   1288
  3365   1   1289   1265   1769
  3366   1   1282   1266   1290
  3367   1   1255   1267   1281
  3368   1   1283   1268   1292
  3369   1   1282   1269   1287
  3370   1    784   1270   1288
  3371   1   1283   1271   1289
  3372   1   1284   1272   1290
  3373   1   1285   1273   1291
  3374   1   1286   1274   1292
  3375   1   1281   1275   1292
  3376   1    794   1276   1282
  3377   1   1283   1277   1290
  3378   1   1284   1278   1288
  3379   1   1285   1279   1289
  3380   1   1251   1280   1286
  3381   2   1258   1281   1267
  3382   2   1258   1281   1275
  3383   2   1258   1281   1755
  3384   2   1267   1281   1275
  3385   2   1267   1281   1755
  3386   2   1275   1281   1755
  3387   2   1257   1282   1266
  3388   2   1257   1282   1269
  3389   2   1257   1282   1276
  3390   2   1266   1282   1269
  3391   2   1266   1282   1276
  3392   2   1269   1282   1276
  3393   2   1259   1283   1268
  3394   2   1259   1283   1271
  3395   2   1259   1283   1277
  3396   2   1268   1283   1271
  3397   2   1268   1283   1277
  3398   2   1271   1283   1277
  3399   2    768   1284   1260
  3400   2    768   1284   1272
  3401   2    768   1284   1278
  3402   2   1260   1284   1272
  3403   2   1260   1284   1278
  3404   2   1272   1284   1278
  3405   2   1261   1285   1263
  3406   2   1261   1285   1273
  3407   2   1261   1285   1279
  3408   2   1263   1285   1273
  3409   2   1263   1285   1279
  3410   2   1273   1285   1279
  3411   2   1262   1286   1264
  3412   2   1262   1286   1274
  3413   2   1262   1286   1280
  3414   2   1264   1286   1274
  3415   2   1264   1286   1280
  3416   2   1274   1286   1280
  3417   2     87   1287   1263
  3418   2     87   1287   1269
  3419   2     87   1287   1328
  3420   2   1263   1287   1269
  3421   2   1263   1287   1328
  3422   2   1269   1287   1328
  3423   2    832   1288   1264
  3424   2    832   1288   1270
  3425   2    832   1288   1278
  3426   2   1264   1288   1270
  3427   2   1264   1288   1278
  3428   2   1270   1288   1278
  3429   2   1265   1289   1271
  3430   2   1265   1289   1279
  3431   2   1265   1289   1330
  3432   2   1271   1289   1279
  3433   2   1271   1289   1330
  3434   2   1279   1289   1330
  3435   2   1189   1290   1266
  3436   2   1189   1290   1272
  3437   2   1189   1290   1277
  3438   2   1266   1290   1272
  3439   2   1266   1290   1277
  3440   2   1272   1290   1277
  3441   2     93   1291   1190
  3442   2     93   1291   1273
  3443   2     93   1291   1761
  3444   2   1190   1291   1273
  3445   2   1190   1291   1761
  3446   2   1273   1291   1761
  3447   2   1191   1292   1268
  3448   2   1191   1292   1274
  3449   2   1191   1292   1275
  3450   2   1268   1292   1274
  3451   2   1268   1292   1275
  3452   2   1274   1292   1275
  3453   1   1251   1293   1317
  3454   1   1316   1294   1739
  3455   1   1253   1295   1318
  3456   1   1319   1296   1396
  3457   1   1320   1297   1397
  3458   1   1321   1298   1398
  3459   1   1320   1299   1322
  3460   1   1321   1300   1323
  3461   1   1324   1301   1803
  3462   1   1317   1302   1325
  3463   1   1318   1303   1327
  3464   1   1317   1304   1322
  3465   1    819   1305   1323
  3466   1   1318   1306   1324
  3467   1   1319   1307   1325
  3468   1   1320   1308   1326
  3469   1   1321   1309   1327
  3470   1   1316   1310   1327
  3471   1    829   1311   1317
  3472   1   1318   1312   1325
  3473   1   1319   1313   1323
  3474   1   1320   1314   1324
  3475   1    819   1315   1321
  3476   2   1294   1316   1310
  3477   2   1294   1316   1789
  3478   2   1294   1316   1799
  3479   2   1310   1316   1789
  3480   2   1310   1316   1799
  3481   2   1789   1316   1799
  3482   2   1293   1317   1302
  3483   2   1293   1317   1304
  3484   2   1293   1317   1311
  3485   2   1302   1317   1304
  3486   2   1302   1317   1311
  3487   2   1304   1317   1311
  3488   2   1295   1318   1303
  3489   2   1295   1318   1306
  3490   2   1295   1318   1312
  3491   2   1303   1318   1306
  3492   2   1303   1318   1312
  3493   2   1306   1318   1312
  3494   2    804   1319   1296
  3495   2    804   1319   1307
  3496   2    804   1319   1313
  3497   2   1296   1319   1307
  3498   2   1296   1319   1313
  3499   2   1307   1319   1313
  3500   2   1297   1320   1299
  3501   2   1297   1320   1308
  3502   2   1297   1320   1314
  3503   2   1299   1320   1308
  3504   2   1299   1320   1314
  3505   2   1308   1320   1314
  3506   2   1298   1321   1300
  3507   2   1298   1321   1309
  3508   2   1298   1321   1315
  3509   2   1300   1321   1309
  3510   2   1300   1321   1315
  3511   2   1309   1321   1315
  3512   2   1299   1322   1304
  3513   2   1299   1322   1364
  3514   2   1299   1322   1351
  3515   2   1304   1322   1364
  3516   2   1304   1322   1351
  3517   2   1364   1322   1351
  3518   2    868   1323   1300
  3519   2    868   1323   1305
  3520   2    868   1323   1313
  3521   2   1300   1323   1305
  3522   2   1300   1323   1313
  3523   2   1305   1323   1313
  3524   2   1301   1324   1306
  3525   2   1301   1324   1314
  3526   2   1301   1324   1366
  3527   2   1306   1324   1314
  3528   2   1306   1324   1366
  3529   2   1314   1324   1366
  3530   2   1225   1325   1302
  3531   2   1225   1325   1307
  3532   2   1225   1325   1312
  3533   2   1302   1325   1307
  3534   2   1302   1325   1312
  3535   2   1307   1325   1312
  3536   2   1226   1326   1308
  3537   2   1226   1326   1795
  3538   2   1226   1326   1338
  3539   2   1308   1326   1795
  3540   2   1308   1326   1338
  3541   2   1795   1326   1338
  3542   2   1227   1327   1303
  3543   2   1227   1327   1309
  3544   2   1227   1327   1310
  3545   2   1303   1327   1309
  3546   2   1303   1327   1310
  3547   2   1309   1327   1310
  3548   1   1287   1328   1353
  3549   1   1352   1329   1773
  3550   1   1289   1330   1354
  3551   1   1355   1331   1432
  3552   1   1356   1332   1433
  3553   1   1357   1333   1434
  3554   1   1356   1334   1358
  3555   1   1357   1335   1359
  3556   1   1360   1336   1837
  3557   1   1353   1337   1361
  3558   1   1326   1338   1352
  3559   1   1354   1339   1363
  3560   1   1353   1340   1358
  3561   1    855   1341   1359
  3562   1   1354   1342   1360
  3563   1   1355   1343   1361
  3564   1   1356   1344   1362
  3565   1   1357   1345   1363
  3566   1   1352   1346   1363
  3567   1    865   1347   1353
  3568   1   1354   1348   1361
  3569   1   1355   1349   1359
  3570   1   1356   1350   1360
  3571   1   1322   1351   1357
  3572   2   1329   1352   1338
  3573   2   1329   1352   1346
  3574   2   1329   1352   1823
  3575   2   1338   1352   1346
  3576   2   1338   1352   1823
  3577   2   1346   1352   1823
  3578   2   1328   1353   1337
  3579   2   1328   1353   1340
  3580   2   1328   1353   1347
  3581   2   1337   1353   1340
  3582   2   1337   1353   1347
  3583   2   1340   1353   1347
  3584   2   1330   1354   1339
  3585   2   1330   1354   1342
  3586   2   1330   1354   1348
  3587   2   1339   1354   1342
  3588   2   1339   1354   1348
  3589   2   1342   1354   1348
  3590   2    839   1355   1331
  3591   2    839   1355   1343
  3592   2    839   1355   1349
  3593   2   1331   1355   1343
  3594   2   1331   1355   1349
  3595   2   1343   1355   1349
  3596   2   1332   1356   1334
  3597   2   1332   1356   1344
  3598   2   1332   1356   1350
  3599   2   1334   1356   1344
  3600   2   1334   1356   1350
  3601   2   1344   1356   1350
  3602   2   1333   1357   1335
  3603   2   1333   1357   1345
  3604   2   1333   1357   1351
  3605   2   1335   1357   1345
  3606   2   1335   1357   1351
  3607   2   1345   1357   1351
  3608   2     88   1358   1334
  3609   2     88   1358   1340
  3610   2     88   1358   1399
  3611   2   1334   1358   1340
  3612   2   1334   1358   1399
  3613   2   1340   1358   1399
  3614   2    903   1359   1335
  3615   2    903   1359   1341
  3616   2    903   1359   1349
  3617   2   1335   1359   1341
  3618   2   1335   1359   1349
  3619   2   1341   1359   1349
  3620   2   1336   1360   1342
  3621   2   1336   1360   1350
  3622   2   1336   1360   1401
  3623   2   1342   1360   1350
  3624   2   1342   1360   1401
  3625   2   1350   1360   1401
  3626   2   1260   1361   1337
  3627   2   1260   1361   1343
  3628   2   1260   1361   1348
  3629   2   1337   1361   1343
  3630   2   1337   1361   1348
  3631   2   1343   1361   1348
  3632   2     94   1362   1261
  3633   2     94   1362   1344
  3634   2     94   1362   1829
  3635   2   1261   1362   1344
  3636   2   1261   1362   1829
  3637   2   1344   1362   1829
  3638   2   1262   1363   1339
  3639   2   1262   1363   1345
  3640   2   1262   1363   1346
  3641   2   1339   1363   1345
  3642   2   1339   1363   1346
  3643   2   1345   1363   1346
  3644   1   1322   1364   1388
  3645   1   1387   1365   1807
  3646   1   1324   1366   1389
  3647   1   1390   1367   1467
  3648   1   1391   1368   1468
  3649   1   1392   1369   1469
  3650   1   1391   1370   1393
  3651   1   1392   1371   1394
  3652   1   1395   1372   1871
  3653   1   1388   1373   1396
  3654   1   1389   1374   1398
  3655   1   1388   1375   1393
  3656   1    890   1376   1394
  3657   1   1389   1377   1395
  3658   1   1390   1378   1396
  3659   1   1391   1379   1397
  3660   1   1392   1380   1398
  3661   1   1387   1381   1398
  3662   1    900   1382   1388
  3663   1   1389   1383   1396
  3664   1   1390   1384   1394
  3665   1   1391   1385   1395
  3666   1    890   1386   1392
  3667   2   1365   1387   1381
  3668   2   1365   1387   1857
  3669   2   1365   1387   1867
  3670   2   1381   1387   1857
  3671   2   1381   1387   1867
  3672   2   1857   1387   1867
  3673   2   1364   1388   1373
  3674   2   1364   1388   1375
  3675   2   1364   1388   1382
  3676   2   1373   1388   1375
  3677   2   1373   1388   1382
  3678   2   1375   1388   1382
  3679   2   1366   1389   1374
  3680   2   1366   1389   1377
  3681   2   1366   1389   1383
  3682   2   1374   1389   1377
  3683   2   1374   1389   1383
  3684   2   1377   1389   1383
  3685   2    875   1390   1367
  3686   2    875   1390   1378
  3687   2    875   1390   1384
  3688   2   1367   1390   1378
  3689   2   1367   1390   1384
  3690   2   1378   1390   1384
  3691   2   1368   1391   1370
  3692   2   1368   1391   1379
  3693   2   1368   1391   1385
  3694   2   1370   1391   1379
  3695   2   1370   1391   1385
  3696   2   1379   1391   1385
  3697   2   1369   1392   1371
  3698   2   1369   1392   1380
  3699   2   1369   1392   1386
  3700   2   1371   1392   1380
  3701   2   1371   1392   1386
  3702   2   1380   1392   1386
  3703   2   1370   1393   1375
  3704   2   1370   1393   1435
  3705   2   1370   1393   1422
  3706   2   1375   1393   1435
  3707   2   1375   1393   1422
  3708   2   1435   1393   1422
  3709   2    939   1394   1371
  3710   2    939   1394   1376
  3711   2    939   1394   1384
  3712   2   1371   1394   1376
  3713   2   1371   1394   1384
  3714   2   1376   1394   1384
  3715   2   1372   1395   1377
  3716   2   1372   1395   1385
  3717   2   1372   1395   1437
  3718   2   1377   1395   1385
  3719   2   1377   1395   1437
  3720   2   1385   1395   1437
  3721   2   1296   1396   1373
  3722   2   1296   1396   1378
  3723   2   1296   1396   1383
  3724   2   1373   1396   1378
  3725   2   1373   1396   1383
  3726   2   1378   1396   1383
  3727   2   1297   1397   1379
  3728   2   1297   1397   1863
  3729   2   1297   1397   1409
  3730   2   1379   1397   1863
  3731   2   1379   1397   1409
  3732   2   1863   1397   1409
  3733   2   1298   1398   1374
  3734   2   1298   1398   1380
  3735   2   1298   1398   1381
  3736   2   1374   1398   1380
  3737   2   1374   1398   1381
  3738   2   1380   1398   1381
  3739   1   1358   1399   1424
  3740   1   1423   1400   1841
  3741   1   1360   1401   1425
  3742   1   1426   1402   1503
  3743   1   1427   1403   1504
  3744   1   1428   1404   1505
  3745   1   1427   1405   1429
  3746   1   1428   1406   1430
  3747   1   1431   1407   1905
  3748   1   1424   1408   1432
  3749   1   1397   1409   1423
  3750   1   1425   1410   1434
  3751   1   1424   1411   1429
  3752   1    926   1412   1430
  3753   1   1425   1413   1431
  3754   1   1426   1414   1432
  3755   1   1427   1415   1433
  3756   1   1428   1416   1434
  3757   1   1423   1417   1434
  3758   1    936   1418   1424
  3759   1   1425   1419   1432
  3760   1   1426   1420   1430
  3761   1   1427   1421   1431
  3762   1   1393   1422   1428
  3763   2   1400   1423   1409
  3764   2   1400   1423   1417
  3765   2   1400   1423   1891
  3766   2   1409   1423   1417
  3767   2   1409   1423   1891
  3768   2   1417   1423   1891
  3769   2   1399   1424   1408
  3770   2   1399   1424   1411
  3771   2   1399   1424   1418
  3772   2   1408   1424   1411
  3773   2   1408   1424   1418
  3774   2   1411   1424   1418
  3775   2   1401   1425   1410
  3776   2   1401   1425   1413
  3777   2   1401   1425   1419
  3778   2   1410   1425   1413
  3779   2   1410   1425   1419
  3780   2   1413   1425   1419
  3781   2    910   1426   1402
  3782   2    910   1426   1414
  3783   2    910   1426   1420
  3784   2   1402   1426   1414
  3785   2   1402   1426   1420
  3786   2   1414   1426   1420
  3787   2   1403   1427   1405
  3788   2   1403   1427   1415
  3789   2   1403   1427   1421
  3790   2   1405   1427   1415
  3791   2   1405   1427   1421
  3792   2   1415   1427   1421
  3793   2   1404   1428   1406
  3794   2   1404   1428   1416
  3795   2   1404   1428   1422
  3796   2   1406   1428   1416
  3797   2   1406   1428   1422
  3798   2   1416   1428   1422
  3799   2     89   1429   1405
  3800   2     89   1429   1411
  3801   2     89   1429   1470
  3802   2   1405   1429   1411
  3803   2   1405   1429   1470
  3804   2   1411   1429   1470
  3805   2    974   1430   1406
  3806   2    974   1430   1412
  3807   2    974   1430   1420
  3808   2   1406   1430   1412
  3809   2   1406   1430   1420
  3810   2   1412   1430   1420
  3811   2   1407   1431   1413
  3812   2   1407   1431   1421
  3813   2   1407   1431   1472
  3814   2   1413   1431   1421
  3815   2   1413   1431   1472
  3816   2   1421   1431   1472
  3817   2   1331   1432   1408
  3818   2   1331   1432   1414
  3819   2   1331   1432   1419
  3820   2   1408   1432   1414
  3821   2   1408   1432   1419
  3822   2   1414   1432   1419
  3823   2     95   1433   1332
  3824   2     95   1433   1415
  3825   2     95   1433   1897
  3826   2   1332   1433   1415
  3827   2   1332   1433   1897
  3828   2   1415   1433   1897
  3829   2   1333   1434   1410
  3830   2   1333   1434   1416
  3831   2   1333   1434   1417
  3832   2   1410   1434   1416
  3833   2   1410   1434   1417
  3834   2   1416   1434   1417
  3835   1   1393   1435   1459
  3836   1   1458   1436   1875
  3837   1   1395   1437   1460
  3838   1   1461   1438   1041
  3839   1   1462   1439   1042
  3840   1   1463   1440   1043
  3841   1   1462   1441   1464
  3842   1   1463   1442   1465
  3843   1   1466   1443   1939
  3844   1   1459   1444   1467
  3845   1   1460   1445   1469
  3846   1   1459   1446   1464
  3847   1    961   1447   1465
  3848   1   1460   1448   1466
  3849   1   1461   1449   1467
  3850   1   1462   1450   1468
  3851   1   1463   1451   1469
  3852   1   1458   1452   1469
  3853   1    971   1453   1459
  3854   1   1460   1454   1467
  3855   1   1461   1455   1465
  3856   1   1462   1456   1466
  3857   1    961   1457   1463
  3858   2   1436   1458   1452
  3859   2   1436   1458   1925
  3860   2   1436   1458   1935
  3861   2   1452   1458   1925
  3862   2   1452   1458   1935
  3863   2   1925   1458   1935
  3864   2   1435   1459   1444
  3865   2   1435   1459   1446
  3866   2   1435   1459   1453
  3867   2   1444   1459   1446
  3868   2   1444   1459   1453
  3869   2   1446   1459   1453
  3870   2   1437   1460   1445
  3871   2   1437   1460   1448
  3872   2   1437   1460   1454
  3873   2   1445   1460   1448
  3874   2   1445   1460   1454
  3875   2   1448   1460   1454
  3876   2    946   1461   1438
  3877   2    946   1461   1449
  3878   2    946   1461   1455
  3879   2   1438   1461   1449
  3880   2   1438   1461   1455
  3881   2   1449   1461   1455
  3882   2   1439   1462   1441
  3883   2   1439   1462   1450
  3884   2   1439   1462   1456
  3885   2   1441   1462   1450
  3886   2   1441   1462   1456
  3887   2   1450   1462   1456
  3888   2   1440   1463   1442
  3889   2   1440   1463   1451
  3890   2   1440   1463   1457
  3891   2   1442   1463   1451
  3892   2   1442   1463   1457
  3893   2   1451   1463   1457
  3894   2   1441   1464   1446
  3895   2   1441   1464   1493
  3896   2   1441   1464   1009
  3897   2   1446   1464   1493
  3898   2   1446   1464   1009
  3899   2   1493   1464   1009
  3900   2   1442   1465   1447
  3901   2   1442   1465   1455
  3902   2   1442   1465    513
  3903   2   1447   1465   1455
  3904   2   1447   1465    513
  3905   2   1455   1465    513
  3906   2   1443   1466   1448
  3907   2   1443   1466   1456
  3908   2   1443   1466   1011
  3909   2   1448   1466   1456
  3910   2   1448   1466   1011
  3911   2   1456   1466   1011
  3912   2   1367   1467   1444
  3913   2   1367   1467   1449
  3914   2   1367   1467   1454
  3915   2   1444   1467   1449
  3916   2   1444   1467   1454
  3917   2   1449   1467   1454
  3918   2   1368   1468   1450
  3919   2   1368   1468   1931
  3920   2   1368   1468   1480
  3921   2   1450   1468   1931
  3922   2   1450   1468   1480
  3923   2   1931   1468   1480
  3924   2   1369   1469   1445
  3925   2   1369   1469   1451
  3926   2   1369   1469   1452
  3927   2   1445   1469   1451
  3928   2   1445   1469   1452
  3929   2   1451   1469   1452
  3930   1   1429   1470   1495
  3931   1   1494   1471   1909
  3932   1   1431   1472   1496
  3933   1   1497   1473   1077
  3934   1   1498   1474   1078
  3935   1   1499   1475   1079
  3936   1   1498   1476   1500
  3937   1   1499   1477   1501
  3938   1   1502   1478   1973
  3939   1   1495   1479   1503
  3940   1   1468   1480   1494
  3941   1   1496   1481   1505
  3942   1   1495   1482   1500
  3943   1    997   1483   1501
  3944   1   1496   1484   1502
  3945   1   1497   1485   1503
  3946   1   1498   1486   1504
  3947   1   1499   1487   1505
  3948   1   1494   1488   1505
  3949   1   1007   1489   1495
  3950   1   1496   1490   1503
  3951   1   1497   1491   1501
  3952   1   1498   1492   1502
  3953   1   1464   1493   1499
  3954   2   1471   1494   1480
  3955   2   1471   1494   1488
  3956   2   1471   1494   1959
  3957   2   1480   1494   1488
  3958   2   1480   1494   1959
  3959   2   1488   1494   1959
  3960   2   1470   1495   1479
  3961   2   1470   1495   1482
  3962   2   1470   1495   1489
  3963   2   1479   1495   1482
  3964   2   1479   1495   1489
  3965   2   1482   1495   1489
  3966   2   1472   1496   1481
  3967   2   1472   1496   1484
  3968   2   1472   1496   1490
  3969   2   1481   1496   1484
  3970   2   1481   1496   1490
  3971   2   1484   1496   1490
  3972   2    981   1497   1473
  3973   2    981   1497   1485
  3974   2    981   1497   1491
  3975   2   1473   1497   1485
  3976   2   1473   1497   1491
  3977   2   1485   1497   1491
  3978   2   1474   1498   1476
  3979   2   1474   1498   1486
  3980   2   1474   1498   1492
  3981   2   1476   1498   1486
  3982   2   1476   1498   1492
  3983   2   1486   1498   1492
  3984   2   1475   1499   1477
  3985   2   1475   1499   1487
  3986   2   1475   1499   1493
  3987   2   1477   1499   1487
  3988   2   1477   1499   1493
  3989   2   1487   1499   1493
  3990   2     90   1500   1476
  3991   2     90   1500   1482
  3992   2     90   1500   1044
  3993   2   1476   1500   1482
  3994   2   1476   1500   1044
  3995   2   1482   1500   1044
  3996   2   1477   1501   1483
  3997   2   1477   1501   1491
  3998   2   1477   1501    548
  3999   2   1483   1501   1491
  4000   2   1483   1501    548
  4001   2   1491   1501    548
  4002   2   1478   1502   1484
  4003   2   1478   1502   1492
  4004   2   1478   1502   1046
  4005   2   1484   1502   1492
  4006   2   1484   1502   1046
  4007   2   1492   1502   1046
  4008   2   1402   1503   1479
  4009   2   1402   1503   1485
  4010   2   1402   1503   1490
  4011   2   1479   1503   1485
  4012   2   1479   1503   1490
  4013   2   1485   1503   1490
  4014   2     96   1504   1403
  4015   2     96   1504   1486
  4016   2     96   1504   1965
  4017   2   1403   1504   1486
  4018   2   1403   1504   1965
  4019   2   1486   1504   1965
  4020   2   1404   1505   1481
  4021   2   1404   1505   1487
  4022   2   1404   1505   1488
  4023   2   1481   1505   1487
  4024   2   1481   1505   1488
  4025   2   1487   1505   1488
  4026   1   1529   1506   1942
  4027   1   1530   1507   1944
  4028   1   1531   1508   1605
  4029   1   1532   1509   1606
  4030   1   1533   1510   1607
  4031   1   1532   1511   1534
  4032   1   1533   1512   1535
  4033   1   1536   1513     26
  4034   1   1529   1514   1537
  4035   1   1530   1515   1539
  4036   1   1529   1516   1534
  4037   1   1032   1517   1535
  4038   1   1530   1518   1536
  4039   1   1531   1519   1537
  4040   1   1532   1520   1538
  4041   1   1533   1521   1539
  4042   1   1528   1522   1539
  4043   1   1042   1523   1529
  4044   1   1530   1524   1537
  4045   1   1531   1525   1535
  4046   1   1532   1526   1536
  4047   1   1032   1527   1533
  4048   2   1522   1528   2003
  4049   2   1522   1528     22
  4050   2   1522   1528   1982
  4051   2   2003   1528     22
  4052   2   2003   1528   1982
  4053   2     22   1528   1982
  4054   2   1506   1529   1514
  4055   2   1506   1529   1516
  4056   2   1506   1529   1523
  4057   2   1514   1529   1516
  4058   2   1514   1529   1523
  4059   2   1516   1529   1523
  4060   2   1507   1530   1515
  4061   2   1507   1530   1518
  4062   2   1507   1530   1524
  4063   2   1515   1530   1518
  4064   2   1515   1530   1524
  4065   2   1518   1530   1524
  4066   2   1017   1531   1508
  4067   2   1017   1531   1519
  4068   2   1017   1531   1525
  4069   2   1508   1531   1519
  4070   2   1508   1531   1525
  4071   2   1519   1531   1525
  4072   2   1509   1532   1511
  4073   2   1509   1532   1520
  4074   2   1509   1532   1526
  4075   2   1511   1532   1520
  4076   2   1511   1532   1526
  4077   2   1520   1532   1526
  4078   2   1510   1533   1512
  4079   2   1510   1533   1521
  4080   2   1510   1533   1527
  4081   2   1512   1533   1521
  4082   2   1512   1533   1527
  4083   2   1521   1533   1527
  4084   2   1511   1534   1516
  4085   2   1511   1534   1574
  4086   2   1511   1534   1561
  4087   2   1516   1534   1574
  4088   2   1516   1534   1561
  4089   2   1574   1534   1561
  4090   2   1081   1535   1512
  4091   2   1081   1535   1517
  4092   2   1081   1535   1525
  4093   2   1512   1535   1517
  4094   2   1512   1535   1525
  4095   2   1517   1535   1525
  4096   2   1513   1536   1518
  4097   2   1513   1536   1526
  4098   2   1513   1536   1575
  4099   2   1518   1536   1526
  4100   2   1518   1536   1575
  4101   2   1526   1536   1575
  4102   2   1514   1537   1519
  4103   2   1514   1537   1524
  4104   2   1514   1537   1916
  4105   2   1519   1537   1524
  4106   2   1519   1537   1916
  4107   2   1524   1537   1916
  4108   2   1520   1538     18
  4109   2   1520   1538   1917
  4110   2   1520   1538   1984
  4111   2     18   1538   1917
  4112   2     18   1538   1984
  4113   2   1917   1538   1984
  4114   2   1515   1539   1521
  4115   2   1515   1539   1522
  4116   2   1515   1539   1918
  4117   2   1521   1539   1522
  4118   2   1521   1539   1918
  4119   2   1522   1539   1918
  4120   1   1563   1540   1976
  4121   1   1564   1541   1978
  4122   1   1565   1542   1639
  4123   1   1566   1543   1640
  4124   1   1567   1544   1641
  4125   1   1566   1545   1568
  4126   1   1567   1546   1569
  4127   1   1570   1547     61
  4128   1   1563   1548   1571
  4129   1   1564   1549   1573
  4130   1   1563   1550   1568
  4131   1   1068   1551   1569
  4132   1   1564   1552   1570
  4133   1   1565   1553   1571
  4134   1   1566   1554   1572
  4135   1   1567   1555   1573
  4136   1   1562   1556   1573
  4137   1   1078   1557   1563
  4138   1   1564   1558   1571
  4139   1   1565   1559   1569
  4140   1   1566   1560   1570
  4141   1   1534   1561   1567
  4142   2   1556   1562   2004
  4143   2   1556   1562   1983
  4144   2   1556   1562   1984
  4145   2   2004   1562   1983
  4146   2   2004   1562   1984
  4147   2   1983   1562   1984
  4148   2   1540   1563   1548
  4149   2   1540   1563   1550
  4150   2   1540   1563   1557
  4151   2   1548   1563   1550
  4152   2   1548   1563   1557
  4153   2   1550   1563   1557
  4154   2   1541   1564   1549
  4155   2   1541   1564   1552
  4156   2   1541   1564   1558
  4157   2   1549   1564   1552
  4158   2   1549   1564   1558
  4159   2   1552   1564   1558
  4160   2   1052   1565   1542
  4161   2   1052   1565   1553
  4162   2   1052   1565   1559
  4163   2   1542   1565   1553
  4164   2   1542   1565   1559
  4165   2   1553   1565   1559
  4166   2   1543   1566   1545
  4167   2   1543   1566   1554
  4168   2   1543   1566   1560
  4169   2   1545   1566   1554
  4170   2   1545   1566   1560
  4171   2   1554   1566   1560
  4172   2   1544   1567   1546
  4173   2   1544   1567   1555
  4174   2   1544   1567   1561
  4175   2   1546   1567   1555
  4176   2   1546   1567   1561
  4177   2   1555   1567   1561
  4178   2     91   1568   1545
  4179   2     91   1568   1550
  4180   2     91   1568   1608
  4181   2   1545   1568   1550
  4182   2   1545   1568   1608
  4183   2   1550   1568   1608
  4184   2   1116   1569   1546
  4185   2   1116   1569   1551
  4186   2   1116   1569   1559
  4187   2   1546   1569   1551
  4188   2   1546   1569   1559
  4189   2   1551   1569   1559
  4190   2   1547   1570   1552
  4191   2   1547   1570   1560
  4192   2   1547   1570   1609
  4193   2   1552   1570   1560
  4194   2   1552   1570   1609
  4195   2   1560   1570   1609
  4196   2   1548   1571   1553
  4197   2   1548   1571   1558
  4198   2   1548   1571   1950
  4199   2   1553   1571   1558
  4200   2   1553   1571   1950
  4201   2   1558   1571   1950
  4202   2   1554   1572     53
  4203   2   1554   1572     76
  4204   2   1554   1572   1951
  4205   2     53   1572     76
  4206   2     53   1572   1951
  4207   2     76   1572   1951
  4208   2   1549   1573   1555
  4209   2   1549   1573   1556
  4210   2   1549   1573   1952
  4211   2   1555   1573   1556
  4212   2   1555   1573   1952
  4213   2   1556   1573   1952
  4214   1   1534   1574   1597
  4215   1   1536   1575   1598
  4216   1   1599   1576   1673
  4217   1   1600   1577   1674
  4218   1   1601   1578   1675
  4219   1   1600   1579   1602
  4220   1   1601   1580   1603
  4221   1   1604   1581    123
  4222   1   1597   1582   1605
  4223   1   1598   1583   1607
  4224   1   1597   1584   1602
  4225   1   1103   1585   1603
  4226   1   1598   1586   1604
  4227   1   1599   1587   1605
  4228   1   1600   1588   1606
  4229   1   1601   1589   1607
  4230   1   1596   1590   1607
  4231   1   1113   1591   1597
  4232   1   1598   1592   1605
  4233   1   1599   1593   1603
  4234   1   1600   1594   1604
  4235   1   1103   1595   1601
  4236   2   1590   1596   2005
  4237   2   1590   1596    119
  4238   2   1590   1596   1985
  4239   2   2005   1596    119
  4240   2   2005   1596   1985
  4241   2    119   1596   1985
  4242   2   1574   1597   1582
  4243   2   1574   1597   1584
  4244   2   1574   1597   1591
  4245   2   1582   1597   1584
  4246   2   1582   1597   1591
  4247   2   1584   1597   1591
  4248   2   1575   1598   1583
  4249   2   1575   1598   1586
  4250   2   1575   1598   1592
  4251   2   1583   1598   1586
  4252   2   1583   1598   1592
  4253   2   1586   1598   1592
  4254   2   1088   1599   1576
  4255   2   1088   1599   1587
  4256   2   1088   1599   1593
  4257   2   1576   1599   1587
  4258   2   1576   1599   1593
  4259   2   1587   1599   1593
  4260   2   1577   1600   1579
  4261   2   1577   1600   1588
  4262   2   1577   1600   1594
  4263   2   1579   1600   1588
  4264   2   1579   1600   1594
  4265   2   1588   1600   1594
  4266   2   1578   1601   1580
  4267   2   1578   1601   1589
  4268   2   1578   1601   1595
  4269   2   1580   1601   1589
  4270   2   1580   1601   1595
  4271   2   1589   1601   1595
  4272   2   1579   1602   1584
  4273   2   1579   1602   1642
  4274   2   1579   1602   1629
  4275   2   1584   1602   1642
  4276   2   1584   1602   1629
  4277   2   1642   1602   1629
  4278   2   1152   1603   1580
  4279   2   1152   1603   1585
  4280   2   1152   1603   1593
  4281   2   1580   1603   1585
  4282   2   1580   1603   1593
  4283   2   1585   1603   1593
  4284   2   1581   1604   1586
  4285   2   1581   1604   1594
  4286   2   1581   1604   1643
  4287   2   1586   1604   1594
  4288   2   1586   1604   1643
  4289   2   1594   1604   1643
  4290   2   1508   1605   1582
  4291   2   1508   1605   1587
  4292   2   1508   1605   1592
  4293   2   1582   1605   1587
  4294   2   1582   1605   1592
  4295   2   1587   1605   1592
  4296   2   1509   1606   1588
  4297   2   1509   1606    115
  4298   2   1509   1606   1987
  4299   2   1588   1606    115
  4300   2   1588   1606   1987
  4301   2    115   1606   1987
  4302   2   1510   1607   1583
  4303   2   1510   1607   1589
  4304   2   1510   1607   1590
  4305   2   1583   1607   1589
  4306   2   1583   1607   1590
  4307   2   1589   1607   1590
  4308   1   1568   1608   1631
  4309   1   1570   1609   1632
  4310   1   1633   1610   1707
  4311   1   1634   1611   1708
  4312   1   1635   1612   1709
  4313   1   1634   1613   1636
  4314   1   1635   1614   1637
  4315   1   1638   1615    158
  4316   1   1631   1616   1639
  4317   1   1632   1617   1641
  4318   1   1631   1618   1636
  4319   1   1139   1619   1637
  4320   1   1632   1620   1638
  4321   1   1633   1621   1639
  4322   1   1634   1622   1640
  4323   1   1635   1623   1641
  4324   1   1630   1624   1641
  4325   1   1149   1625   1631
  4326   1   1632   1626   1639
  4327   1   1633   1627   1637
  4328   1   1634   1628   1638
  4329   1   1602   1629   1635
  4330   2   1624   1630   2006
  4331   2   1624   1630   1986
  4332   2   1624   1630   1987
  4333   2   2006   1630   1986
  4334   2   2006   1630   1987
  4335   2   1986   1630   1987
  4336   2   1608   1631   1616
  4337   2   1608   1631   1618
  4338   2   1608   1631   1625
  4339   2   1616   1631   1618
  4340   2   1616   1631   1625
  4341   2   1618   1631   1625
  4342   2   1609   1632   1617
  4343   2   1609   1632   1620
  4344   2   1609   1632   1626
  4345   2   1617   1632   1620
  4346   2   1617   1632   1626
  4347   2   1620   1632   1626
  4348   2   1123   1633   1610
  4349   2   1123   1633   1621
  4350   2   1123   1633   1627
  4351   2   1610   1633   1621
  4352   2   1610   1633   1627
  4353   2   1621   1633   1627
  4354   2   1611   1634   1613
  4355   2   1611   1634   1622
  4356   2   1611   1634   1628
  4357   2   1613   1634   1622
  4358   2   1613   1634   1628
  4359   2   1622   1634   1628
  4360   2   1612   1635   1614
  4361   2   1612   1635   1623
  4362   2   1612   1635   1629
  4363   2   1614   1635   1623
  4364   2   1614   1635   1629
  4365   2   1623   1635   1629
  4366   2     92   1636   1613
  4367   2     92   1636   1618
  4368   2     92   1636   1676
  4369   2   1613   1636   1618
  4370   2   1613   1636   1676
  4371   2   1618   1636   1676
  4372   2   1187   1637   1614
  4373   2   1187   1637   1619
  4374   2   1187   1637   1627
  4375   2   1614   1637   1619
  4376   2   1614   1637   1627
  4377   2   1619   1637   1627
  4378   2   1615   1638   1620
  4379   2   1615   1638   1628
  4380   2   1615   1638   1677
  4381   2   1620   1638   1628
  4382   2   1620   1638   1677
  4383   2   1628   1638   1677
  4384   2   1542   1639   1616
  4385   2   1542   1639   1621
  4386   2   1542   1639   1626
  4387   2   1616   1639   1621
  4388   2   1616   1639   1626
  4389   2   1621   1639   1626
  4390   2   1543   1640   1622
  4391   2   1543   1640     70
  4392   2   1543   1640    150
  4393   2   1622   1640     70
  4394   2   1622   1640    150
  4395   2     70   1640    150
  4396   2   1544   1641   1617
  4397   2   1544   1641   1623
  4398   2   1544   1641   1624
  4399   2   1617   1641   1623
  4400   2   1617   1641   1624
  4401   2   1623   1641   1624
  4402   1   1602   1642   1665
  4403   1   1604   1643   1666
  4404   1   1667   1644   1741
  4405   1   1668   1645   1742
  4406   1   1669   1646   1743
  4407   1   1668   1647   1670
  4408   1   1669   1648   1671
  4409   1   1672   1649    192
  4410   1   1665   1650   1673
  4411   1   1666   1651   1675
  4412   1   1665   1652   1670
  4413   1   1174   1653   1671
  4414   1   1666   1654   1672
  4415   1   1667   1655   1673
  4416   1   1668   1656   1674
  4417   1   1669   1657   1675
  4418   1   1664   1658   1675
  4419   1   1184   1659   1665
  4420   1   1666   1660   1673
  4421   1   1667   1661   1671
  4422   1   1668   1662   1672
  4423   1   1174   1663   1669
  4424   2   1658   1664   2007
  4425   2   1658   1664    188
  4426   2   1658   1664   1988
  4427   2   2007   1664    188
  4428   2   2007   1664   1988
  4429   2    188   1664   1988
  4430   2   1642   1665   1650
  4431   2   1642   1665   1652
  4432   2   1642   1665   1659
  4433   2   1650   1665   1652
  4434   2   1650   1665   1659
  4435   2   1652   1665   1659
  4436   2   1643   1666   1651
  4437   2   1643   1666   1654
  4438   2   1643   1666   1660
  4439   2   1651   1666   1654
  4440   2   1651   1666   1660
  4441   2   1654   1666   1660
  4442   2   1159   1667   1644
  4443   2   1159   1667   1655
  4444   2   1159   1667   1661
  4445   2   1644   1667   1655
  4446   2   1644   1667   1661
  4447   2   1655   1667   1661
  4448   2   1645   1668   1647
  4449   2   1645   1668   1656
  4450   2   1645   1668   1662
  4451   2   1647   1668   1656
  4452   2   1647   1668   1662
  4453   2   1656   1668   1662
  4454   2   1646   1669   1648
  4455   2   1646   1669   1657
  4456   2   1646   1669   1663
  4457   2   1648   1669   1657
  4458   2   1648   1669   1663
  4459   2   1657   1669   1663
  4460   2   1647   1670   1652
  4461   2   1647   1670   1710
  4462   2   1647   1670   1697
  4463   2   1652   1670   1710
  4464   2   1652   1670   1697
  4465   2   1710   1670   1697
  4466   2   1223   1671   1648
  4467   2   1223   1671   1653
  4468   2   1223   1671   1661
  4469   2   1648   1671   1653
  4470   2   1648   1671   1661
  4471   2   1653   1671   1661
  4472   2   1649   1672   1654
  4473   2   1649   1672   1662
  4474   2   1649   1672   1711
  4475   2   1654   1672   1662
  4476   2   1654   1672   1711
  4477   2   1662   1672   1711
  4478   2   1576   1673   1650
  4479   2   1576   1673   1655
  4480   2   1576   1673   1660
  4481   2   1650   1673   1655
  4482   2   1650   1673   1660
  4483   2   1655   1673   1660
  4484   2   1577   1674   1656
  4485   2   1577   1674    184
  4486   2   1577   1674   1990
  4487   2   1656   1674    184
  4488   2   1656   1674   1990
  4489   2    184   1674   1990
  4490   2   1578   1675   1651
  4491   2   1578   1675   1657
  4492   2   1578   1675   1658
  4493   2   1651   1675   1657
  4494   2   1651   1675   1658
  4495   2   1657   1675   1658
  4496   1   1636   1676   1699
  4497   1   1638   1677   1700
  4498   1   1701   1678   1775
  4499   1   1702   1679   1776
  4500   1   1703   1680   1777
  4501   1   1702   1681   1704
  4502   1   1703   1682   1705
  4503   1   1706   1683    227
  4504   1   1699   1684   1707
  4505   1   1700   1685   1709
  4506   1   1699   1686   1704
  4507   1   1210   1687   1705
  4508   1   1700   1688   1706
  4509   1   1701   1689   1707
  4510   1   1702   1690   1708
  4511   1   1703   1691   1709
  4512   1   1698   1692   1709
  4513   1   1220   1693   1699
  4514   1   1700   1694   1707
  4515   1   1701   1695   1705
  4516   1   1702   1696   1706
  4517   1   1670   1697   1703
  4518   2   1692   1698   2008
  4519   2   1692   1698   1989
  4520   2   1692   1698   1990
  4521   2   2008   1698   1989
  4522   2   2008   1698   1990
  4523   2   1989   1698   1990
  4524   2   1676   1699   1684
  4525   2   1676   1699   1686
  4526   2   1676   1699   1693
  4527   2   1684   1699   1686
  4528   2   1684   1699   1693
  4529   2   1686   1699   1693
  4530   2   1677   1700   1685
  4531   2   1677   1700   1688
  4532   2   1677   1700   1694
  4533   2   1685   1700   1688
  4534   2   1685   1700   1694
  4535   2   1688   1700   1694
  4536   2   1194   1701   1678
  4537   2   1194   1701   1689
  4538   2   1194   1701   1695
  4539   2   1678   1701   1689
  4540   2   1678   1701   1695
  4541   2   1689   1701   1695
  4542   2   1679   1702   1681
  4543   2   1679   1702   1690
  4544   2   1679   1702   1696
  4545   2   1681   1702   1690
  4546   2   1681   1702   1696
  4547   2   1690   1702   1696
  4548   2   1680   1703   1682
  4549   2   1680   1703   1691
  4550   2   1680   1703   1697
  4551   2   1682   1703   1691
  4552   2   1682   1703   1697
  4553   2   1691   1703   1697
  4554   2     93   1704   1681
  4555   2     93   1704   1686
  4556   2     93   1704   1744
  4557   2   1681   1704   1686
  4558   2   1681   1704   1744
  4559   2   1686   1704   1744
  4560   2   1258   1705   1682
  4561   2   1258   1705   1687
  4562   2   1258   1705   1695
  4563   2   1682   1705   1687
  4564   2   1682   1705   1695
  4565   2   1687   1705   1695
  4566   2   1683   1706   1688
  4567   2   1683   1706   1696
  4568   2   1683   1706   1745
  4569   2   1688   1706   1696
  4570   2   1688   1706   1745
  4571   2   1696   1706   1745
  4572   2   1610   1707   1684
  4573   2   1610   1707   1689
  4574   2   1610   1707   1694
  4575   2   1684   1707   1689
  4576   2   1684   1707   1694
  4577   2   1689   1707   1694
  4578   2   1611   1708   1690
  4579   2   1611   1708     71
  4580   2   1611   1708    219
  4581   2   1690   1708     71
  4582   2   1690   1708    219
  4583   2     71   1708    219
  4584   2   1612   1709   1685
  4585   2   1612   1709   1691
  4586   2   1612   1709   1692
  4587   2   1685   1709   1691
  4588   2   1685   1709   1692
  4589   2   1691   1709   1692
  4590   1   1670   1710   1733
  4591   1   1672   1711   1734
  4592   1   1735   1712   1809
  4593   1   1736   1713   1810
  4594   1   1737   1714   1811
  4595   1   1736   1715   1738
  4596   1   1737   1716   1739
  4597   1   1740   1717    261
  4598   1   1733   1718   1741
  4599   1   1734   1719   1743
  4600   1   1733   1720   1738
  4601   1   1245   1721   1739
  4602   1   1734   1722   1740
  4603   1   1735   1723   1741
  4604   1   1736   1724   1742
  4605   1   1737   1725   1743
  4606   1   1732   1726   1743
  4607   1   1255   1727   1733
  4608   1   1734   1728   1741
  4609   1   1735   1729   1739
  4610   1   1736   1730   1740
  4611   1   1245   1731   1737
  4612   2   1726   1732   2009
  4613   2   1726   1732    257
  4614   2   1726   1732   1991
  4615   2   2009   1732    257
  4616   2   2009   1732   1991
  4617   2    257   1732   1991
  4618   2   1710   1733   1718
  4619   2   1710   1733   1720
  4620   2   1710   1733   1727
  4621   2   1718   1733   1720
  4622   2   1718   1733   1727
  4623   2   1720   1733   1727
  4624   2   1711   1734   1719
  4625   2   1711   1734   1722
  4626   2   1711   1734   1728
  4627   2   1719   1734   1722
  4628   2   1719   1734   1728
  4629   2   1722   1734   1728
  4630   2   1230   1735   1712
  4631   2   1230   1735   1723
  4632   2   1230   1735   1729
  4633   2   1712   1735   1723
  4634   2   1712   1735   1729
  4635   2   1723   1735   1729
  4636   2   1713   1736   1715
  4637   2   1713   1736   1724
  4638   2   1713   1736   1730
  4639   2   1715   1736   1724
  4640   2   1715   1736   1730
  4641   2   1724   1736   1730
  4642   2   1714   1737   1716
  4643   2   1714   1737   1725
  4644   2   1714   1737   1731
  4645   2   1716   1737   1725
  4646   2   1716   1737   1731
  4647   2   1725   1737   1731
  4648   2   1715   1738   1720
  4649   2   1715   1738   1778
  4650   2   1715   1738   1765
  4651   2   1720   1738   1778
  4652   2   1720   1738   1765
  4653   2   1778   1738   1765
  4654   2   1294   1739   1716
  4655   2   1294   1739   1721
  4656   2   1294   1739   1729
  4657   2   1716   1739   1721
  4658   2   1716   1739   1729
  4659   2   1721   1739   1729
  4660   2   1717   1740   1722
  4661   2   1717   1740   1730
  4662   2   1717   1740   1779
  4663   2   1722   1740   1730
  4664   2   1722   1740   1779
  4665   2   1730   1740   1779
  4666   2   1644   1741   1718
  4667   2   1644   1741   1723
  4668   2   1644   1741   1728
  4669   2   1718   1741   1723
  4670   2   1718   1741   1728
  4671   2   1723   1741   1728
  4672   2   1645   1742   1724
  4673   2   1645   1742    253
  4674   2   1645   1742   1993
  4675   2   1724   1742    253
  4676   2   1724   1742   1993
  4677   2    253   1742   1993
  4678   2   1646   1743   1719
  4679   2   1646   1743   1725
  4680   2   1646   1743   1726
  4681   2   1719   1743   1725
  4682   2   1719   1743   1726
  4683   2   1725   1743   1726
  4684   1   1704   1744   1767
  4685   1   1706   1745   1768
  4686   1   1769   1746   1843
  4687   1   1770   1747   1844
  4688   1   1771   1748   1845
  4689   1   1770   1749   1772
  4690   1   1771   1750   1773
  4691   1   1774   1751    296
  4692   1   1767   1752   1775
  4693   1   1768   1753   1777
  4694   1   1767   1754   1772
  4695   1   1281   1755   1773
  4696   1   1768   1756   1774
  4697   1   1769   1757   1775
  4698   1   1770   1758   1776
  4699   1   1771   1759   1777
  4700   1   1766   1760   1777
  4701   1   1291   1761   1767
  4702   1   1768   1762   1775
  4703   1   1769   1763   1773
  4704   1   1770   1764   1774
  4705   1   1738   1765   1771
  4706   2   1760   1766   2010
  4707   2   1760   1766   1992
  4708   2   1760   1766   1993
  4709   2   2010   1766   1992
  4710   2   2010   1766   1993
  4711   2   1992   1766   1993
  4712   2   1744   1767   1752
  4713   2   1744   1767   1754
  4714   2   1744   1767   1761
  4715   2   1752   1767   1754
  4716   2   1752   1767   1761
  4717   2   1754   1767   1761
  4718   2   1745   1768   1753
  4719   2   1745   1768   1756
  4720   2   1745   1768   1762
  4721   2   1753   1768   1756
  4722   2   1753   1768   1762
  4723   2   1756   1768   1762
  4724   2   1265   1769   1746
  4725   2   1265   1769   1757
  4726   2   1265   1769   1763
  4727   2   1746   1769   1757
  4728   2   1746   1769   1763
  4729   2   1757   1769   1763
  4730   2   1747   1770   1749
  4731   2   1747   1770   1758
  4732   2   1747   1770   1764
  4733   2   1749   1770   1758
  4734   2   1749   1770   1764
  4735   2   1758   1770   1764
  4736   2   1748   1771   1750
  4737   2   1748   1771   1759
  4738   2   1748   1771   1765
  4739   2   1750   1771   1759
  4740   2   1750   1771   1765
  4741   2   1759   1771   1765
  4742   2     94   1772   1749
  4743   2     94   1772   1754
  4744   2     94   1772   1812
  4745   2   1749   1772   1754
  4746   2   1749   1772   1812
  4747   2   1754   1772   1812
  4748   2   1329   1773   1750
  4749   2   1329   1773   1755
  4750   2   1329   1773   1763
  4751   2   1750   1773   1755
  4752   2   1750   1773   1763
  4753   2   1755   1773   1763
  4754   2   1751   1774   1756
  4755   2   1751   1774   1764
  4756   2   1751   1774   1813
  4757   2   1756   1774   1764
  4758   2   1756   1774   1813
  4759   2   1764   1774   1813
  4760   2   1678   1775   1752
  4761   2   1678   1775   1757
  4762   2   1678   1775   1762
  4763   2   1752   1775   1757
  4764   2   1752   1775   1762
  4765   2   1757   1775   1762
  4766   2   1679   1776   1758
  4767   2   1679   1776     72
  4768   2   1679   1776    288
  4769   2   1758   1776     72
  4770   2   1758   1776    288
  4771   2     72   1776    288
  4772   2   1680   1777   1753
  4773   2   1680   1777   1759
  4774   2   1680   1777   1760
  4775   2   1753   1777   1759
  4776   2   1753   1777   1760
  4777   2   1759   1777   1760
  4778   1   1738   1778   1801
  4779   1   1740   1779   1802
  4780   1   1803   1780   1877
  4781   1   1804   1781   1878
  4782   1   1805   1782   1879
  4783   1   1804   1783   1806
  4784   1   1805   1784   1807
  4785   1   1808   1785    330
  4786   1   1801   1786   1809
  4787   1   1802   1787   1811
  4788   1   1801   1788   1806
  4789   1   1316   1789   1807
  4790   1   1802   1790   1808
  4791   1   1803   1791   1809
  4792   1   1804   1792   1810
  4793   1   1805   1793   1811
  4794   1   1800   1794   1811
  4795   1   1326   1795   1801
  4796   1   1802   1796   1809
  4797   1   1803   1797   1807
  4798   1   1804   1798   1808
  4799   1   1316   1799   1805
  4800   2   1794   1800   2011
  4801   2   1794   1800    326
  4802   2   1794   1800   1994
  4803   2   2011   1800    326
  4804   2   2011   1800   1994
  4805   2    326   1800   1994
  4806   2   1778   1801   1786
  4807   2   1778   1801   1788
  4808   2   1778   1801   1795
  4809   2   1786   1801   1788
  4810   2   1786   1801   1795
  4811   2   1788   1801   1795
  4812   2   1779   1802   1787
  4813   2   1779   1802   1790
  4814   2   1779   1802   1796
  4815   2   1787   1802   1790
  4816   2   1787   1802   1796
  4817   2   1790   1802   1796
  4818   2   1301   1803   1780
  4819   2   1301   1803   1791
  4820   2   1301   1803   1797
  4821   2   1780   1803   1791
  4822   2   1780   1803   1797
  4823   2   1791   1803   1797
  4824   2   1781   1804   1783
  4825   2   1781   1804   1792
  4826   2   1781   1804   1798
  4827   2   1783   1804   1792
  4828   2   1783   1804   1798
  4829   2   1792   1804   1798
  4830   2   1782   1805   1784
  4831   2   1782   1805   1793
  4832   2   1782   1805   1799
  4833   2   1784   1805   1793
  4834   2   1784   1805   1799
  4835   2   1793   1805   1799
  4836   2   1783   1806   1788
  4837   2   1783   1806   1846
  4838   2   1783   1806   1833
  4839   2   1788   1806   1846
  4840   2   1788   1806   1833
  4841   2   1846   1806   1833
  4842   2   1365   1807   1784
  4843   2   1365   1807   1789
  4844   2   1365   1807   1797
  4845   2   1784   1807   1789
  4846   2   1784   1807   1797
  4847   2   1789   1807   1797
  4848   2   1785   1808   1790
  4849   2   1785   1808   1798
  4850   2   1785   1808   1847
  4851   2   1790   1808   1798
  4852   2   1790   1808   1847
  4853   2   1798   1808   1847
  4854   2   1712   1809   1786
  4855   2   1712   1809   1791
  4856   2   1712   1809   1796
  4857   2   1786   1809   1791
  4858   2   1786   1809   1796
  4859   2   1791   1809   1796
  4860   2   1713   1810   1792
  4861   2   1713   1810    322
  4862   2   1713   1810   1996
  4863   2   1792   1810    322
  4864   2   1792   1810   1996
  4865   2    322   1810   1996
  4866   2   1714   1811   1787
  4867   2   1714   1811   1793
  4868   2   1714   1811   1794
  4869   2   1787   1811   1793
  4870   2   1787   1811   1794
  4871   2   1793   1811   1794
  4872   1   1772   1812   1835
  4873   1   1774   1813   1836
  4874   1   1837   1814   1911
  4875   1   1838   1815   1912
  4876   1   1839   1816   1913
  4877   1   1838   1817   1840
  4878   1   1839   1818   1841
  4879   1   1842   1819    365
  4880   1   1835   1820   1843
  4881   1   1836   1821   1845
  4882   1   1835   1822   1840
  4883   1   1352   1823   1841
  4884   1   1836   1824   1842
  4885   1   1837   1825   1843
  4886   1   1838   1826   1844
  4887   1   1839   1827   1845
  4888   1   1834   1828   1845
  4889   1   1362   1829   1835
  4890   1   1836   1830   1843
  4891   1   1837   1831   1841
  4892   1   1838   1832   1842
  4893   1   1806   1833   1839
  4894   2   1828   1834   2012
  4895   2   1828   1834   1995
  4896   2   1828   1834   1996
  4897   2   2012   1834   1995
  4898   2   2012   1834   1996
  4899   2   1995   1834   1996
  4900   2   1812   1835   1820
  4901   2   1812   1835   1822
  4902   2   1812   1835   1829
  4903   2   1820   1835   1822
  4904   2   1820   1835   1829
  4905   2   1822   1835   1829
  4906   2   1813   1836   1821
  4907   2   1813   1836   1824
  4908   2   1813   1836   1830
  4909   2   1821   1836   1824
  4910   2   1821   1836   1830
  4911   2   1824   1836   1830
  4912   2   1336   1837   1814
  4913   2   1336   1837   1825
  4914   2   1336   1837   1831
  4915   2   1814   1837   1825
  4916   2   1814   1837   1831
  4917   2   1825   1837   1831
  4918   2   1815   1838   1817
  4919   2   1815   1838   1826
  4920   2   1815   1838   1832
  4921   2   1817   1838   1826
  4922   2   1817   1838   1832
  4923   2   1826   1838   1832
  4924   2   1816   1839   1818
  4925   2   1816   1839   1827
  4926   2   1816   1839   1833
  4927   2   1818   1839   1827
  4928   2   1818   1839   1833
  4929   2   1827   1839   1833
  4930   2     95   1840   1817
  4931   2     95   1840   1822
  4932   2     95   1840   1880
  4933   2   1817   1840   1822
  4934   2   1817   1840   1880
  4935   2   1822   1840   1880
  4936   2   1400   1841   1818
  4937   2   1400   1841   1823
  4938   2   1400   1841   1831
  4939   2   1818   1841   1823
  4940   2   1818   1841   1831
  4941   2   1823   1841   1831
  4942   2   1819   1842   1824
  4943   2   1819   1842   1832
  4944   2   1819   1842   1881
  4945   2   1824   1842   1832
  4946   2   1824   1842   1881
  4947   2   1832   1842   1881
  4948   2   1746   1843   1820
  4949   2   1746   1843   1825
  4950   2   1746   1843   1830
  4951   2   1820   1843   1825
  4952   2   1820   1843   1830
  4953   2   1825   1843   1830
  4954   2   1747   1844   1826
  4955   2   1747   1844     73
  4956   2   1747   1844    357
  4957   2   1826   1844     73
  4958   2   1826   1844    357
  4959   2     73   1844    357
  4960   2   1748   1845   1821
  4961   2   1748   1845   1827
  4962   2   1748   1845   1828
  4963   2   1821   1845   1827
  4964   2   1821   1845   1828
  4965   2   1827   1845   1828
  4966   1   1806   1846   1869
  4967   1   1808   1847   1870
  4968   1   1871   1848   1945
  4969   1   1872   1849   1946
  4970   1   1873   1850   1947
  4971   1   1872   1851   1874
  4972   1   1873   1852   1875
  4973   1   1876   1853    399
  4974   1   1869   1854   1877
  4975   1   1870   1855   1879
  4976   1   1869   1856   1874
  4977   1   1387   1857   1875
  4978   1   1870   1858   1876
  4979   1   1871   1859   1877
  4980   1   1872   1860   1878
  4981   1   1873   1861   1879
  4982   1   1868   1862   1879
  4983   1   1397   1863   1869
  4984   1   1870   1864   1877
  4985   1   1871   1865   1875
  4986   1   1872   1866   1876
  4987   1   1387   1867   1873
  4988   2   1862   1868    395
  4989   2   1862   1868   2013
  4990   2   1862   1868   1997
  4991   2    395   1868   2013
  4992   2    395   1868   1997
  4993   2   2013   1868   1997
  4994   2   1846   1869   1854
  4995   2   1846   1869   1856
  4996   2   1846   1869   1863
  4997   2   1854   1869   1856
  4998   2   1854   1869   1863
  4999   2   1856   1869   1863
  5000   2   1847   1870   1855
  5001   2   1847   1870   1858
  5002   2   1847   1870   1864
  5003   2   1855   1870   1858
  5004   2   1855   1870   1864
  5005   2   1858   1870   1864
  5006   2   1372   1871   1848
  5007   2   1372   1871   1859
  5008   2   1372   1871   1865
  5009   2   1848   1871   1859
  5010   2   1848   1871   1865
  5011   2   1859   1871   1865
  5012   2   1849   1872   1851
  5013   2   1849   1872   1860
  5014   2   1849   1872   1866
  5015   2   1851   1872   1860
  5016   2   1851   1872   1866
  5017   2   1860   1872   1866
  5018   2   1850   1873   1852
  5019   2   1850   1873   1861
  5020   2   1850   1873   1867
  5021   2   1852   1873   1861
  5022   2   1852   1873   1867
  5023   2   1861   1873   1867
  5024   2   1851   1874   1856
  5025   2   1851   1874   1914
  5026   2   1851   1874   1901
  5027   2   1856   1874   1914
  5028   2   1856   1874   1901
  5029   2   1914   1874   1901
  5030   2   1436   1875   1852
  5031   2   1436   1875   1857
  5032   2   1436   1875   1865
  5033   2   1852   1875   1857
  5034   2   1852   1875   1865
  5035   2   1857   1875   1865
  5036   2   1853   1876   1858
  5037   2   1853   1876   1866
  5038   2   1853   1876   1915
  5039   2   1858   1876   1866
  5040   2   1858   1876   1915
  5041   2   1866   1876   1915
  5042   2   1780   1877   1854
  5043   2   1780   1877   1859
  5044   2   1780   1877   1864
  5045   2   1854   1877   1859
  5046   2   1854   1877   1864
  5047   2   1859   1877   1864
  5048   2   1781   1878   1860
  5049   2   1781   1878    391
  5050   2   1781   1878   1999
  5051   2   1860   1878    391
  5052   2   1860   1878   1999
  5053   2    391   1878   1999
  5054   2   1782   1879   1855
  5055   2   1782   1879   1861
  5056   2   1782   1879   1862
  5057   2   1855   1879   1861
  5058   2   1855   1879   1862
  5059   2   1861   1879   1862
  5060   1   1840   1880   1903
  5061   1   1842   1881   1904
  5062   1   1905   1882   1979
  5063   1   1906   1883   1980
  5064   1   1907   1884   1981
  5065   1   1906   1885   1908
  5066   1   1907   1886   1909
  5067   1   1910   1887    434
  5068   1   1903   1888   1911
  5069   1   1904   1889   1913
  5070   1   1903   1890   1908
  5071   1   1423   1891   1909
  5072   1   1904   1892   1910
  5073   1   1905   1893   1911
  5074   1   1906   1894   1912
  5075   1   1907   1895   1913
  5076   1   1902   1896   1913
  5077   1   1433   1897   1903
  5078   1   1904   1898   1911
  5079   1   1905   1899   1909
  5080   1   1906   1900   1910
  5081   1   1874   1901   1907
  5082   2   1896   1902   2014
  5083   2   1896   1902   1998
  5084   2   1896   1902   1999
  5085   2   2014   1902   1998
  5086   2   2014   1902   1999
  5087   2   1998   1902   1999
  5088   2   1880   1903   1888
  5089   2   1880   1903   1890
  5090   2   1880   1903   1897
  5091   2   1888   1903   1890
  5092   2   1888   1903   1897
  5093   2   1890   1903   1897
  5094   2   1881   1904   1889
  5095   2   1881   1904   1892
  5096   2   1881   1904   1898
  5097   2   1889   1904   1892
  5098   2   1889   1904   1898
  5099   2   1892   1904   1898
  5100   2   1407   1905   1882
  5101   2   1407   1905   1893
  5102   2   1407   1905   1899
  5103   2   1882   1905   1893
  5104   2   1882   1905   1899
  5105   2   1893   1905   1899
  5106   2   1883   1906   1885
  5107   2   1883   1906   1894
  5108   2   1883   1906   1900
  5109   2   1885   1906   1894
  5110   2   1885   1906   1900
  5111   2   1894   1906   1900
  5112   2   1884   1907   1886
  5113   2   1884   1907   1895
  5114   2   1884   1907   1901
  5115   2   1886   1907   1895
  5116   2   1886   1907   1901
  5117   2   1895   1907   1901
  5118   2     96   1908   1885
  5119   2     96   1908   1890
  5120   2     96   1908   1948
  5121   2   1885   1908   1890
  5122   2   1885   1908   1948
  5123   2   1890   1908   1948
  5124   2   1471   1909   1886
  5125   2   1471   1909   1891
  5126   2   1471   1909   1899
  5127   2   1886   1909   1891
  5128   2   1886   1909   1899
  5129   2   1891   1909   1899
  5130   2   1887   1910   1892
  5131   2   1887   1910   1900
  5132   2   1887   1910   1949
  5133   2   1892   1910   1900
  5134   2   1892   1910   1949
  5135   2   1900   1910   1949
  5136   2   1814   1911   1888
  5137   2   1814   1911   1893
  5138   2   1814   1911   1898
  5139   2   1888   1911   1893
  5140   2   1888   1911   1898
  5141   2   1893   1911   1898
  5142   2   1815   1912   1894
  5143   2   1815   1912     74
  5144   2   1815   1912    426
  5145   2   1894   1912     74
  5146   2   1894   1912    426
  5147   2     74   1912    426
  5148   2   1816   1913   1889
  5149   2   1816   1913   1895
  5150   2   1816   1913   1896
  5151   2   1889   1913   1895
  5152   2   1889   1913   1896
  5153   2   1895   1913   1896
  5154   1   1874   1914   1937
  5155   1   1876   1915   1938
  5156   1   1939   1916   1537
  5157   1   1940   1917   1538
  5158   1   1941   1918   1539
  5159   1   1940   1919   1942
  5160   1   1941   1920   1943
  5161   1   1944   1921    468
  5162   1   1937   1922   1945
  5163   1   1938   1923   1947
  5164   1   1937   1924   1942
  5165   1   1458   1925   1943
  5166   1   1938   1926   1944
  5167   1   1939   1927   1945
  5168   1   1940   1928   1946
  5169   1   1941   1929   1947
  5170   1   1936   1930   1947
  5171   1   1468   1931   1937
  5172   1   1938   1932   1945
  5173   1   1939   1933   1943
  5174   1   1940   1934   1944
  5175   1   1458   1935   1941
  5176   2   1930   1936   2015
  5177   2   1930   1936    464
  5178   2   1930   1936   2000
  5179   2   2015   1936    464
  5180   2   2015   1936   2000
  5181   2    464   1936   2000
  5182   2   1914   1937   1922
  5183   2   1914   1937   1924
  5184   2   1914   1937   1931
  5185   2   1922   1937   1924
  5186   2   1922   1937   1931
  5187   2   1924   1937   1931
  5188   2   1915   1938   1923
  5189   2   1915   1938   1926
  5190   2   1915   1938   1932
  5191   2   1923   1938   1926
  5192   2   1923   1938   1932
  5193   2   1926   1938   1932
  5194   2   1443   1939   1916
  5195   2   1443   1939   1927
  5196   2   1443   1939   1933
  5197   2   1916   1939   1927
  5198   2   1916   1939   1933
  5199   2   1927   1939   1933
  5200   2   1917   1940   1919
  5201   2   1917   1940   1928
  5202   2   1917   1940   1934
  5203   2   1919   1940   1928
  5204   2   1919   1940   1934
  5205   2   1928   1940   1934
  5206   2   1918   1941   1920
  5207   2   1918   1941   1929
  5208   2   1918   1941   1935
  5209   2   1920   1941   1929
  5210   2   1920   1941   1935
  5211   2   1929   1941   1935
  5212   2   1919   1942   1924
  5213   2   1919   1942   1969
  5214   2   1919   1942   1506
  5215   2   1924   1942   1969
  5216   2   1924   1942   1506
  5217   2   1969   1942   1506
  5218   2   1920   1943   1925
  5219   2   1920   1943   1933
  5220   2   1920   1943   1010
  5221   2   1925   1943   1933
  5222   2   1925   1943   1010
  5223   2   1933   1943   1010
  5224   2   1921   1944   1926
  5225   2   1921   1944   1934
  5226   2   1921   1944   1507
  5227   2   1926   1944   1934
  5228   2   1926   1944   1507
  5229   2   1934   1944   1507
  5230   2   1848   1945   1922
  5231   2   1848   1945   1927
  5232   2   1848   1945   1932
  5233   2   1922   1945   1927
  5234   2   1922   1945   1932
  5235   2   1927   1945   1932
  5236   2   1849   1946   1928
  5237   2   1849   1946    460
  5238   2   1849   1946   2002
  5239   2   1928   1946    460
  5240   2   1928   1946   2002
  5241   2    460   1946   2002
  5242   2   1850   1947   1923
  5243   2   1850   1947   1929
  5244   2   1850   1947   1930
  5245   2   1923   1947   1929
  5246   2   1923   1947   1930
  5247   2   1929   1947   1930
  5248   1   1908   1948   1971
  5249   1   1910   1949   1972
  5250   1   1973   1950   1571
  5251   1   1974   1951   1572
  5252   1   1975   1952   1573
  5253   1   1974   1953   1976
  5254   1   1975   1954   1977
  5255   1   1978   1955    503
  5256   1   1971   1956   1979
  5257   1   1972   1957   1981
  5258   1   1971   1958   1976
  5259   1   1494   1959   1977
  5260   1   1972   1960   1978
  5261   1   1973   1961   1979
  5262   1   1974   1962   1980
  5263   1   1975   1963   1981
  5264   1   1970   1964   1981
  5265   1   1504   1965   1971
  5266   1   1972   1966   1979
  5267   1   1973   1967   1977
  5268   1   1974   1968   1978
  5269   1   1942   1969   1975
  5270   2   1964   1970   2016
  5271   2   1964   1970   2001
  5272   2   1964   1970   2002
  5273   2   2016   1970   2001
  5274   2   2016   1970   2002
  5275   2   2001   1970   2002
  5276   2   1948   1971   1956
  5277   2   1948   1971   1958
  5278   2   1948   1971   1965
  5279   2   1956   1971   1958
  5280   2   1956   1971   1965
  5281   2   1958   1971   1965
  5282   2   1949   1972   1957
  5283   2   1949   1972   1960
  5284   2   1949   1972   1966
  5285   2   1957   1972   1960
  5286   2   1957   1972   1966
  5287   2   1960   1972   1966
  5288   2   1478   1973   1950
  5289   2   1478   1973   1961
  5290   2   1478   1973   1967
  5291   2   1950   1973   1961
  5292   2   1950   1973   1967
  5293   2   1961   1973   1967
  5294   2   1951   1974   1953
  5295   2   1951   1974   1962
  5296   2   1951   1974   1968
  5297   2   1953   1974   1962
  5298   2   1953   1974   1968
  5299   2   1962   1974   1968
  5300   2   1952   1975   1954
  5301   2   1952   1975   1963
  5302   2   1952   1975   1969
  5303   2   1954   1975   1963
  5304   2   1954   1975   1969
  5305   2   1963   1975   1969
  5306   2     97   1976   1953
  5307   2     97   1976   1958
  5308   2     97   1976   1540
  5309   2   1953   1976   1958
  5310   2   1953   1976   1540
  5311   2   1958   1976   1540
  5312   2   1954   1977   1959
  5313   2   1954   1977   1967
  5314   2   1954   1977   1045
  5315   2   1959   1977   1967
  5316   2   1959   1977   1045
  5317   2   1967   1977   1045
  5318   2   1955   1978   1960
  5319   2   1955   1978   1968
  5320   2   1955   1978   1541
  5321   2   1960   1978   1968
  5322   2   1960   1978   1541
  5323   2   1968   1978   1541
  5324   2   1882   1979   1956
  5325   2   1882   1979   1961
  5326   2   1882   1979   1966
  5327   2   1956   1979   1961
  5328   2   1956   1979   1966
  5329   2   1961   1979   1966
  5330   2   1883   1980   1962
  5331   2   1883   1980     75
  5332   2   1883   1980    495
  5333   2   1962   1980     75
  5334   2   1962   1980    495
  5335   2     75   1980    495
  5336   2   1884   1981   1957
  5337   2   1884   1981   1963
  5338   2   1884   1981   1964
  5339   2   1957   1981   1963
  5340   2   1957   1981   1964
  5341   2   1963   1981   1964
  5342   1   1528   1982    472
  5343   1   1562   1983    507
  5344   1   1538   1984   1562
  5345   1     30   1985   1596
  5346   1     65   1986   1630
  5347   1   1606   1987   1630
  5348   1    127   1988   1664
  5349   1    162   1989   1698
  5350   1   1674   1990   1698
  5351   1    196   1991   1732
  5352   1    231   1992   1766
  5353   1   1742   1993   1766
  5354   1    265   1994   1800
  5355   1    300   1995   1834
  5356   1   1810   1996   1834
  5357   1    334   1997   1868
  5358   1    369   1998   1902
  5359   1   1878   1999   1902
  5360   1    403   2000   1936
  5361   1    438   2001   1970
  5362   1   1946   2002   1970
  5363   1   1528   2003     30
  5364   1   1562   2004     65
  5365   1   1596   2005    127
  5366   1   1630   2006    162
  5367   1   1664   2007    196
  5368   1   1698   2008    231
  5369   1   1732   2009    265
  5370   1   1766   2010    300
  5371   1   1800   2011    334
  5372   1   1834   2012    369
  5373   1    403   2013   1868
  5374   1    438   2014   1902
  5375   1   1936   2015    472
  5376   1   1970   2016    507

Dihedrals

     1   1    471      1     24     10
     2   1    471      1     24     12
     3   1    471      1     24     18
     4   1     24      1    471    449
     5   1     24      1    471    454
     6   1     24      1    471    499
     7   1    968      2     23     17
     8   1    968      2     23    524
     9   1    968      2     23    534
    10   1     23      2    968    945
    11   1     23      2    968    950
    12   1     23      2    968    958
    13   1    473      3     25     11
    14   1    473      3     25     13
    15   1    473      3     25     19
    16   1     25      3    473    451
    17   1     25      3    473    455
    18   1     25      3    473    463
    19   1    129      4     26     14
    20   1    129      4     26     20
    21   1    129      4     26   1513
    22   1     26      4    129    107
    23   1     26      4    129    111
    24   1     26      4    129    116
    25   1    130      5     27      7
    26   1    130      5     27     15
    27   1    130      5     27     21
    28   1     27      5    130    112
    29   1     27      5    130    601
    30   1     27      5    130    142
    31   1    131      6     28      8
    32   1    131      6     28     16
    33   1    131      6     28     22
    34   1     28      6    131    108
    35   1     28      6    131    113
    36   1     28      6    131    114
    37   1     29      7     27      5
    38   1     29      7     27     15
    39   1     29      7     27     21
    40   1     27      7     29     12
    41   1     27      7     29     98
    42   1     27      7     29     57
    43   1     30      8     28      6
    44   1     30      8     28     16
    45   1     30      8     28     22
    46   1     28      8     30     20
    47   1     28      8     30   1985
    48   1     28      8     30   2003
    49   1    538      9     31     13
    50   1    538      9     31     21
    51   1    538      9     31    100
    52   1     31      9    538    515
    53   1     31      9    538    526
    54   1     31      9    538    532
    55   1     32     10     24      1
    56   1     32     10     24     12
    57   1     32     10     24     18
    58   1     24     10     32     14
    59   1     24     10     32     19
    60   1     24     10     32    446
    61   1     34     11     25      3
    62   1     34     11     25     13
    63   1     34     11     25     19
    64   1     25     11     34     16
    65   1     25     11     34     17
    66   1     25     11     34    448
    67   1     29     12     24      1
    68   1     29     12     24     10
    69   1     29     12     24     18
    70   1     24     12     29      7
    71   1     24     12     29     98
    72   1     24     12     29     57
    73   1     31     13     25      3
    74   1     31     13     25     11
    75   1     31     13     25     19
    76   1     25     13     31      9
    77   1     25     13     31     21
    78   1     25     13     31    100
    79   1     32     14     26      4
    80   1     32     14     26     20
    81   1     32     14     26   1513
    82   1     26     14     32     10
    83   1     26     14     32     19
    84   1     26     14     32    446
    85   1     33     15     27      5
    86   1     33     15     27      7
    87   1     33     15     27     21
    88   1     27     15     33    530
    89   1     27     15     33     45
    90   1     27     15     33    447
    91   1     34     16     28      6
    92   1     34     16     28      8
    93   1     34     16     28     22
    94   1     28     16     34     11
    95   1     28     16     34     17
    96   1     28     16     34    448
    97   1     34     17     23      2
    98   1     34     17     23    524
    99   1     34     17     23    534
   100   1     23     17     34     11
   101   1     23     17     34     16
   102   1     23     17     34    448
   103   1   1538     18     24      1
   104   1   1538     18     24     10
   105   1   1538     18     24     12
   106   1     24     18   1538   1520
   107   1     24     18   1538   1917
   108   1     24     18   1538   1984
   109   1     32     19     25      3
   110   1     32     19     25     11
   111   1     32     19     25     13
   112   1     25     19     32     10
   113   1     25     19     32     14
   114   1     25     19     32    446
   115   1     30     20     26      4
   116   1     30     20     26     14
   117   1     30     20     26   1513
   118   1     26     20     30      8
   119   1     26     20     30   1985
   120   1     26     20     30   2003
   121   1     31     21     27      5
   122   1     31     21     27      7
   123   1     31     21     27     15
   124   1     27     21     31      9
   125   1     27     21     31     13
   126   1     27     21     31    100
   127   1   1528     22     28      6
   128   1   1528     22     28      8
   129   1   1528     22     28     16
   130   1     28     22   1528   1522
   131   1     28     22   1528   2003
   132   1     28     22   1528   1982
   133   1    542    524     23      2
   134   1    542    524     23     17
   135   1    542    524     23    534
   136   1    540    534     23      2
   137   1    540    534     23     17
   138   1    540    534     23    524
   139   1   1536   1513     26      4
   140   1   1536   1513     26     14
   141   1   1536   1513     26     20
   142   1    121     98     29      7
   143   1    121     98     29     12
   144   1    121     98     29     57
   145   1     63     57     29      7
   146   1     63     57     29     12
   147   1     63     57     29     98
   148   1   1596   1985     30      8
   149   1   1596   1985     30     20
   150   1   1596   1985     30   2003
   151   1   1528   2003     30      8
   152   1   1528   2003     30     20
   153   1   1528   2003     30   1985
   154   1    122    100     31      9
   155   1    122    100     31     13
   156   1    122    100     31     21
   157   1    468    446     32     10
   158   1    468    446     32     14
   159   1    468    446     32     19
   160   1    536    530     33     15
   161   1    536    530     33     45
   162   1    536    530     33    447
   163   1     58     45     33     15
   164   1     58     45     33    530
   165   1     58     45     33    447
   166   1    469    447     33     15
   167   1    469    447     33    530
   168   1    469    447     33     45
   169   1    470    448     34     11
   170   1    470    448     34     16
   171   1    470    448     34     17
   172   1    506     35     59     44
   173   1    506     35     59     47
   174   1    506     35     59     53
   175   1     59     35    506     76
   176   1     59     35    506    483
   177   1     59     35    506    489
   178   1   1004     36     58     45
   179   1   1004     36     58     52
   180   1   1004     36     58    560
   181   1     58     36   1004    980
   182   1     58     36   1004    986
   183   1     58     36   1004    994
   184   1    508     37     60     46
   185   1    508     37     60     48
   186   1    508     37     60     54
   187   1     60     37    508    485
   188   1     60     37    508    490
   189   1     60     37    508    498
   190   1    164     38     61     49
   191   1    164     38     61     55
   192   1    164     38     61   1547
   193   1     61     38    164    141
   194   1     61     38    164    146
   195   1     61     38    164    151
   196   1    165     39     62     41
   197   1    165     39     62     50
   198   1    165     39     62     56
   199   1     62     39    165     77
   200   1     62     39    165    147
   201   1     62     39    165    637
   202   1    166     40     63     42
   203   1    166     40     63     51
   204   1    166     40     63     57
   205   1     63     40    166    143
   206   1     63     40    166    148
   207   1     63     40    166    149
   208   1     64     41     62     39
   209   1     64     41     62     50
   210   1     64     41     62     56
   211   1     62     41     64     47
   212   1     62     41     64    132
   213   1     62     41     64     70
   214   1     65     42     63     40
   215   1     65     42     63     51
   216   1     65     42     63     57
   217   1     63     42     65     55
   218   1     63     42     65   1986
   219   1     63     42     65   2004
   220   1    574     43     66     48
   221   1    574     43     66     56
   222   1    574     43     66    134
   223   1     66     43    574    550
   224   1     66     43    574    562
   225   1     66     43    574    568
   226   1     67     44     59     35
   227   1     67     44     59     47
   228   1     67     44     59     53
   229   1     59     44     67     49
   230   1     59     44     67     54
   231   1     59     44     67    480
   232   1     33     45     58     36
   233   1     33     45     58     52
   234   1     33     45     58    560
   235   1     69     46     60     37
   236   1     69     46     60     48
   237   1     69     46     60     54
   238   1     60     46     69     51
   239   1     60     46     69     52
   240   1     60     46     69    482
   241   1     64     47     59     35
   242   1     64     47     59     44
   243   1     64     47     59     53
   244   1     59     47     64     41
   245   1     59     47     64    132
   246   1     59     47     64     70
   247   1     66     48     60     37
   248   1     66     48     60     46
   249   1     66     48     60     54
   250   1     60     48     66     43
   251   1     60     48     66     56
   252   1     60     48     66    134
   253   1     67     49     61     38
   254   1     67     49     61     55
   255   1     67     49     61   1547
   256   1     61     49     67     44
   257   1     61     49     67     54
   258   1     61     49     67    480
   259   1     68     50     62     39
   260   1     68     50     62     41
   261   1     68     50     62     56
   262   1     62     50     68    566
   263   1     62     50     68    481
   264   1     62     50     68     83
   265   1     69     51     63     40
   266   1     69     51     63     42
   267   1     69     51     63     57
   268   1     63     51     69     46
   269   1     63     51     69     52
   270   1     63     51     69    482
   271   1     69     52     58     36
   272   1     69     52     58     45
   273   1     69     52     58    560
   274   1     58     52     69     46
   275   1     58     52     69     51
   276   1     58     52     69    482
   277   1   1572     53     59     35
   278   1   1572     53     59     44
   279   1   1572     53     59     47
   280   1     59     53   1572   1554
   281   1     59     53   1572     76
   282   1     59     53   1572   1951
   283   1     67     54     60     37
   284   1     67     54     60     46
   285   1     67     54     60     48
   286   1     60     54     67     44
   287   1     60     54     67     49
   288   1     60     54     67    480
   289   1     65     55     61     38
   290   1     65     55     61     49
   291   1     65     55     61   1547
   292   1     61     55     65     42
   293   1     61     55     65   1986
   294   1     61     55     65   2004
   295   1     66     56     62     39
   296   1     66     56     62     41
   297   1     66     56     62     50
   298   1     62     56     66     43
   299   1     62     56     66     48
   300   1     62     56     66    134
   301   1     29     57     63     40
   302   1     29     57     63     42
   303   1     29     57     63     51
   304   1    578    560     58     36
   305   1    578    560     58     45
   306   1    578    560     58     52
   307   1   1570   1547     61     38
   308   1   1570   1547     61     49
   309   1   1570   1547     61     55
   310   1    156    132     64     41
   311   1    156    132     64     47
   312   1    156    132     64     70
   313   1   1640     70     64     41
   314   1   1640     70     64     47
   315   1   1640     70     64    132
   316   1   1630   1986     65     42
   317   1   1630   1986     65     55
   318   1   1630   1986     65   2004
   319   1   1562   2004     65     42
   320   1   1562   2004     65     55
   321   1   1562   2004     65   1986
   322   1    157    134     66     43
   323   1    157    134     66     48
   324   1    157    134     66     56
   325   1    503    480     67     44
   326   1    503    480     67     49
   327   1    503    480     67     54
   328   1    572    566     68     50
   329   1    572    566     68    481
   330   1    572    566     68     83
   331   1    504    481     68     50
   332   1    504    481     68    566
   333   1    504    481     68     83
   334   1   1003     83     68     50
   335   1   1003     83     68    566
   336   1   1003     83     68    481
   337   1    505    482     69     46
   338   1    505    482     69     51
   339   1    505    482     69     52
   340   1     64     70   1640   1543
   341   1     64     70   1640   1622
   342   1     64     70   1640    150
   343   1   1708     71    161    138
   344   1   1708     71    161    144
   345   1   1708     71    161    201
   346   1    161     71   1708   1611
   347   1    161     71   1708   1690
   348   1    161     71   1708    219
   349   1   1776     72    230    207
   350   1   1776     72    230    213
   351   1   1776     72    230    270
   352   1    230     72   1776   1679
   353   1    230     72   1776   1758
   354   1    230     72   1776    288
   355   1   1844     73    299    276
   356   1   1844     73    299    282
   357   1   1844     73    299    339
   358   1    299     73   1844   1747
   359   1    299     73   1844   1826
   360   1    299     73   1844    357
   361   1   1912     74    368    345
   362   1   1912     74    368    351
   363   1   1912     74    368    408
   364   1    368     74   1912   1815
   365   1    368     74   1912   1894
   366   1    368     74   1912    426
   367   1   1980     75    437    414
   368   1   1980     75    437    420
   369   1   1980     75    437    477
   370   1    437     75   1980   1883
   371   1    437     75   1980   1962
   372   1    437     75   1980    495
   373   1   1572     76    506    483
   374   1   1572     76    506    489
   375   1   1572     76    506     35
   376   1    506     76   1572   1554
   377   1    506     76   1572     53
   378   1    506     76   1572   1951
   379   1    165     77    577    553
   380   1    165     77    577    559
   381   1    165     77    577    618
   382   1    577     77    165     39
   383   1    577     77    165    147
   384   1    577     77    165    637
   385   1    234     78    648    624
   386   1    234     78    648    630
   387   1    234     78    648    689
   388   1    648     78    234    136
   389   1    648     78    234    216
   390   1    648     78    234    708
   391   1    303     79    719    695
   392   1    303     79    719    701
   393   1    303     79    719    760
   394   1    719     79    303    205
   395   1    719     79    303    285
   396   1    719     79    303    779
   397   1    372     80    790    766
   398   1    372     80    790    772
   399   1    372     80    790    831
   400   1    790     80    372    274
   401   1    790     80    372    354
   402   1    790     80    372    850
   403   1    441     81    861    837
   404   1    441     81    861    843
   405   1    441     81    861    902
   406   1    861     81    441    343
   407   1    861     81    441    423
   408   1    861     81    441    921
   409   1    510     82    932    908
   410   1    510     82    932    914
   411   1    510     82    932    973
   412   1    932     82    510    412
   413   1    932     82    510    492
   414   1    932     82    510    992
   415   1     68     83   1003    979
   416   1     68     83   1003    985
   417   1     68     83   1003    547
   418   1    652     84   1074   1050
   419   1    652     84   1074   1056
   420   1    652     84   1074   1115
   421   1   1074     84    652    551
   422   1   1074     84    652    634
   423   1   1074     84    652   1134
   424   1    723     85   1145   1121
   425   1    723     85   1145   1127
   426   1    723     85   1145   1186
   427   1   1145     85    723    622
   428   1   1145     85    723    705
   429   1   1145     85    723   1205
   430   1    794     86   1216   1192
   431   1    794     86   1216   1198
   432   1    794     86   1216   1257
   433   1   1216     86    794    693
   434   1   1216     86    794    776
   435   1   1216     86    794   1276
   436   1    865     87   1287   1263
   437   1    865     87   1287   1269
   438   1    865     87   1287   1328
   439   1   1287     87    865    764
   440   1   1287     87    865    847
   441   1   1287     87    865   1347
   442   1    936     88   1358   1334
   443   1    936     88   1358   1340
   444   1    936     88   1358   1399
   445   1   1358     88    936    835
   446   1   1358     88    936    918
   447   1   1358     88    936   1418
   448   1   1007     89   1429   1405
   449   1   1007     89   1429   1411
   450   1   1007     89   1429   1470
   451   1   1429     89   1007    906
   452   1   1429     89   1007    989
   453   1   1429     89   1007   1489
   454   1    581     90   1500   1476
   455   1    581     90   1500   1482
   456   1    581     90   1500   1044
   457   1   1500     90    581    563
   458   1   1500     90    581   1063
   459   1   1500     90    581    977
   460   1   1149     91   1568   1545
   461   1   1149     91   1568   1550
   462   1   1149     91   1568   1608
   463   1   1568     91   1149   1048
   464   1   1568     91   1149   1131
   465   1   1568     91   1149   1625
   466   1   1220     92   1636   1613
   467   1   1220     92   1636   1618
   468   1   1220     92   1636   1676
   469   1   1636     92   1220   1119
   470   1   1636     92   1220   1202
   471   1   1636     92   1220   1693
   472   1   1291     93   1704   1681
   473   1   1291     93   1704   1686
   474   1   1291     93   1704   1744
   475   1   1704     93   1291   1190
   476   1   1704     93   1291   1273
   477   1   1704     93   1291   1761
   478   1   1362     94   1772   1749
   479   1   1362     94   1772   1754
   480   1   1362     94   1772   1812
   481   1   1772     94   1362   1261
   482   1   1772     94   1362   1344
   483   1   1772     94   1362   1829
   484   1   1433     95   1840   1817
   485   1   1433     95   1840   1822
   486   1   1433     95   1840   1880
   487   1   1840     95   1433   1332
   488   1   1840     95   1433   1415
   489   1   1840     95   1433   1897
   490   1   1504     96   1908   1885
   491   1   1504     96   1908   1890
   492   1   1504     96   1908   1948
   493   1   1908     96   1504   1403
   494   1   1908     96   1504   1486
   495   1   1908     96   1504   1965
   496   1   1078     97   1976   1953
   497   1   1078     97   1976   1958
   498   1   1078     97   1976   1540
   499   1   1976     97   1078   1060
   500   1   1976     97   1078   1557
   501   1   1976     97   1078   1474
   502   1     29     98    121    107
   503   1     29     98    121    109
   504   1     29     98    121    115
   505   1    542     99    120    114
   506   1    542     99    120    595
   507   1    542     99    120    605
   508   1    120     99    542    519
   509   1    120     99    542    524
   510   1    120     99    542    532
   511   1     31    100    122    108
   512   1     31    100    122    110
   513   1     31    100    122    116
   514   1    198    101    123    111
   515   1    198    101    123    117
   516   1    198    101    123   1581
   517   1    123    101    198    176
   518   1    123    101    198    180
   519   1    123    101    198    185
   520   1    199    102    124    104
   521   1    199    102    124    112
   522   1    199    102    124    118
   523   1    124    102    199    181
   524   1    124    102    199    672
   525   1    124    102    199    211
   526   1    200    103    125    105
   527   1    200    103    125    113
   528   1    200    103    125    119
   529   1    125    103    200    177
   530   1    125    103    200    182
   531   1    125    103    200    183
   532   1    126    104    124    102
   533   1    126    104    124    112
   534   1    126    104    124    118
   535   1    124    104    126    109
   536   1    124    104    126    167
   537   1    124    104    126    154
   538   1    127    105    125    103
   539   1    127    105    125    113
   540   1    127    105    125    119
   541   1    125    105    127    117
   542   1    125    105    127   1988
   543   1    125    105    127   2005
   544   1    609    106    128    110
   545   1    609    106    128    118
   546   1    609    106    128    169
   547   1    128    106    609    586
   548   1    128    106    609    597
   549   1    128    106    609    603
   550   1    129    107    121     98
   551   1    129    107    121    109
   552   1    129    107    121    115
   553   1    121    107    129      4
   554   1    121    107    129    111
   555   1    121    107    129    116
   556   1    131    108    122    100
   557   1    131    108    122    110
   558   1    131    108    122    116
   559   1    122    108    131      6
   560   1    122    108    131    113
   561   1    122    108    131    114
   562   1    126    109    121     98
   563   1    126    109    121    107
   564   1    126    109    121    115
   565   1    121    109    126    104
   566   1    121    109    126    167
   567   1    121    109    126    154
   568   1    128    110    122    100
   569   1    128    110    122    108
   570   1    128    110    122    116
   571   1    122    110    128    106
   572   1    122    110    128    118
   573   1    122    110    128    169
   574   1    129    111    123    101
   575   1    129    111    123    117
   576   1    129    111    123   1581
   577   1    123    111    129      4
   578   1    123    111    129    107
   579   1    123    111    129    116
   580   1    130    112    124    102
   581   1    130    112    124    104
   582   1    130    112    124    118
   583   1    124    112    130      5
   584   1    124    112    130    601
   585   1    124    112    130    142
   586   1    131    113    125    103
   587   1    131    113    125    105
   588   1    131    113    125    119
   589   1    125    113    131      6
   590   1    125    113    131    108
   591   1    125    113    131    114
   592   1    131    114    120     99
   593   1    131    114    120    595
   594   1    131    114    120    605
   595   1    120    114    131      6
   596   1    120    114    131    108
   597   1    120    114    131    113
   598   1   1606    115    121     98
   599   1   1606    115    121    107
   600   1   1606    115    121    109
   601   1    121    115   1606   1509
   602   1    121    115   1606   1588
   603   1    121    115   1606   1987
   604   1    129    116    122    100
   605   1    129    116    122    108
   606   1    129    116    122    110
   607   1    122    116    129      4
   608   1    122    116    129    107
   609   1    122    116    129    111
   610   1    127    117    123    101
   611   1    127    117    123    111
   612   1    127    117    123   1581
   613   1    123    117    127    105
   614   1    123    117    127   1988
   615   1    123    117    127   2005
   616   1    128    118    124    102
   617   1    128    118    124    104
   618   1    128    118    124    112
   619   1    124    118    128    106
   620   1    124    118    128    110
   621   1    124    118    128    169
   622   1   1596    119    125    103
   623   1   1596    119    125    105
   624   1   1596    119    125    113
   625   1    125    119   1596   1590
   626   1    125    119   1596   2005
   627   1    125    119   1596   1985
   628   1    613    595    120     99
   629   1    613    595    120    114
   630   1    613    595    120    605
   631   1    611    605    120     99
   632   1    611    605    120    114
   633   1    611    605    120    595
   634   1   1604   1581    123    101
   635   1   1604   1581    123    111
   636   1   1604   1581    123    117
   637   1    190    167    126    104
   638   1    190    167    126    109
   639   1    190    167    126    154
   640   1    160    154    126    104
   641   1    160    154    126    109
   642   1    160    154    126    167
   643   1   1664   1988    127    105
   644   1   1664   1988    127    117
   645   1   1664   1988    127   2005
   646   1   1596   2005    127    105
   647   1   1596   2005    127    117
   648   1   1596   2005    127   1988
   649   1    191    169    128    106
   650   1    191    169    128    110
   651   1    191    169    128    118
   652   1    607    601    130      5
   653   1    607    601    130    112
   654   1    607    601    130    142
   655   1    155    142    130      5
   656   1    155    142    130    112
   657   1    155    142    130    601
   658   1     64    132    156    141
   659   1     64    132    156    144
   660   1     64    132    156    150
   661   1    578    133    155    142
   662   1    578    133    155    149
   663   1    578    133    155    631
   664   1    155    133    578    554
   665   1    155    133    578    560
   666   1    155    133    578    568
   667   1     66    134    157    143
   668   1     66    134    157    145
   669   1     66    134    157    151
   670   1    233    135    158    146
   671   1    233    135    158    152
   672   1    233    135    158   1615
   673   1    158    135    233    210
   674   1    158    135    233    215
   675   1    158    135    233    220
   676   1    234    136    159    138
   677   1    234    136    159    147
   678   1    234    136    159    153
   679   1    159    136    234     78
   680   1    159    136    234    216
   681   1    159    136    234    708
   682   1    235    137    160    139
   683   1    235    137    160    148
   684   1    235    137    160    154
   685   1    160    137    235    212
   686   1    160    137    235    217
   687   1    160    137    235    218
   688   1    161    138    159    136
   689   1    161    138    159    147
   690   1    161    138    159    153
   691   1    159    138    161     71
   692   1    159    138    161    144
   693   1    159    138    161    201
   694   1    162    139    160    137
   695   1    162    139    160    148
   696   1    162    139    160    154
   697   1    160    139    162    152
   698   1    160    139    162   1989
   699   1    160    139    162   2006
   700   1    645    140    163    145
   701   1    645    140    163    153
   702   1    645    140    163    203
   703   1    163    140    645    621
   704   1    163    140    645    633
   705   1    163    140    645    639
   706   1    164    141    156    132
   707   1    164    141    156    144
   708   1    164    141    156    150
   709   1    156    141    164     38
   710   1    156    141    164    146
   711   1    156    141    164    151
   712   1    130    142    155    133
   713   1    130    142    155    149
   714   1    130    142    155    631
   715   1    166    143    157    134
   716   1    166    143    157    145
   717   1    166    143    157    151
   718   1    157    143    166     40
   719   1    157    143    166    148
   720   1    157    143    166    149
   721   1    161    144    156    132
   722   1    161    144    156    141
   723   1    161    144    156    150
   724   1    156    144    161     71
   725   1    156    144    161    138
   726   1    156    144    161    201
   727   1    163    145    157    134
   728   1    163    145    157    143
   729   1    163    145    157    151
   730   1    157    145    163    140
   731   1    157    145    163    153
   732   1    157    145    163    203
   733   1    164    146    158    135
   734   1    164    146    158    152
   735   1    164    146    158   1615
   736   1    158    146    164     38
   737   1    158    146    164    141
   738   1    158    146    164    151
   739   1    165    147    159    136
   740   1    165    147    159    138
   741   1    165    147    159    153
   742   1    159    147    165     39
   743   1    159    147    165     77
   744   1    159    147    165    637
   745   1    166    148    160    137
   746   1    166    148    160    139
   747   1    166    148    160    154
   748   1    160    148    166     40
   749   1    160    148    166    143
   750   1    160    148    166    149
   751   1    166    149    155    133
   752   1    166    149    155    142
   753   1    166    149    155    631
   754   1    155    149    166     40
   755   1    155    149    166    143
   756   1    155    149    166    148
   757   1   1640    150    156    132
   758   1   1640    150    156    141
   759   1   1640    150    156    144
   760   1    156    150   1640   1543
   761   1    156    150   1640   1622
   762   1    156    150   1640     70
   763   1    164    151    157    134
   764   1    164    151    157    143
   765   1    164    151    157    145
   766   1    157    151    164     38
   767   1    157    151    164    141
   768   1    157    151    164    146
   769   1    162    152    158    135
   770   1    162    152    158    146
   771   1    162    152    158   1615
   772   1    158    152    162    139
   773   1    158    152    162   1989
   774   1    158    152    162   2006
   775   1    163    153    159    136
   776   1    163    153    159    138
   777   1    163    153    159    147
   778   1    159    153    163    140
   779   1    159    153    163    145
   780   1    159    153    163    203
   781   1    126    154    160    137
   782   1    126    154    160    139
   783   1    126    154    160    148
   784   1    649    631    155    133
   785   1    649    631    155    142
   786   1    649    631    155    149
   787   1   1638   1615    158    135
   788   1   1638   1615    158    146
   789   1   1638   1615    158    152
   790   1    225    201    161     71
   791   1    225    201    161    138
   792   1    225    201    161    144
   793   1   1698   1989    162    139
   794   1   1698   1989    162    152
   795   1   1698   1989    162   2006
   796   1   1630   2006    162    139
   797   1   1630   2006    162    152
   798   1   1630   2006    162   1989
   799   1    226    203    163    140
   800   1    226    203    163    145
   801   1    226    203    163    153
   802   1    643    637    165     39
   803   1    643    637    165     77
   804   1    643    637    165    147
   805   1    126    167    190    176
   806   1    126    167    190    178
   807   1    126    167    190    184
   808   1    613    168    189    183
   809   1    613    168    189    666
   810   1    613    168    189    676
   811   1    189    168    613    590
   812   1    189    168    613    595
   813   1    189    168    613    603
   814   1    128    169    191    177
   815   1    128    169    191    179
   816   1    128    169    191    185
   817   1    267    170    192    180
   818   1    267    170    192    186
   819   1    267    170    192   1649
   820   1    192    170    267    245
   821   1    192    170    267    249
   822   1    192    170    267    254
   823   1    268    171    193    173
   824   1    268    171    193    181
   825   1    268    171    193    187
   826   1    193    171    268    250
   827   1    193    171    268    743
   828   1    193    171    268    280
   829   1    269    172    194    174
   830   1    269    172    194    182
   831   1    269    172    194    188
   832   1    194    172    269    246
   833   1    194    172    269    251
   834   1    194    172    269    252
   835   1    195    173    193    171
   836   1    195    173    193    181
   837   1    195    173    193    187
   838   1    193    173    195    178
   839   1    193    173    195    236
   840   1    193    173    195    223
   841   1    196    174    194    172
   842   1    196    174    194    182
   843   1    196    174    194    188
   844   1    194    174    196    186
   845   1    194    174    196   1991
   846   1    194    174    196   2007
   847   1    680    175    197    179
   848   1    680    175    197    187
   849   1    680    175    197    238
   850   1    197    175    680    657
   851   1    197    175    680    668
   852   1    197    175    680    674
   853   1    198    176    190    167
   854   1    198    176    190    178
   855   1    198    176    190    184
   856   1    190    176    198    101
   857   1    190    176    198    180
   858   1    190    176    198    185
   859   1    200    177    191    169
   860   1    200    177    191    179
   861   1    200    177    191    185
   862   1    191    177    200    103
   863   1    191    177    200    182
   864   1    191    177    200    183
   865   1    195    178    190    167
   866   1    195    178    190    176
   867   1    195    178    190    184
   868   1    190    178    195    173
   869   1    190    178    195    236
   870   1    190    178    195    223
   871   1    197    179    191    169
   872   1    197    179    191    177
   873   1    197    179    191    185
   874   1    191    179    197    175
   875   1    191    179    197    187
   876   1    191    179    197    238
   877   1    198    180    192    170
   878   1    198    180    192    186
   879   1    198    180    192   1649
   880   1    192    180    198    101
   881   1    192    180    198    176
   882   1    192    180    198    185
   883   1    199    181    193    171
   884   1    199    181    193    173
   885   1    199    181    193    187
   886   1    193    181    199    102
   887   1    193    181    199    672
   888   1    193    181    199    211
   889   1    200    182    194    172
   890   1    200    182    194    174
   891   1    200    182    194    188
   892   1    194    182    200    103
   893   1    194    182    200    177
   894   1    194    182    200    183
   895   1    200    183    189    168
   896   1    200    183    189    666
   897   1    200    183    189    676
   898   1    189    183    200    103
   899   1    189    183    200    177
   900   1    189    183    200    182
   901   1   1674    184    190    167
   902   1   1674    184    190    176
   903   1   1674    184    190    178
   904   1    190    184   1674   1577
   905   1    190    184   1674   1656
   906   1    190    184   1674   1990
   907   1    198    185    191    169
   908   1    198    185    191    177
   909   1    198    185    191    179
   910   1    191    185    198    101
   911   1    191    185    198    176
   912   1    191    185    198    180
   913   1    196    186    192    170
   914   1    196    186    192    180
   915   1    196    186    192   1649
   916   1    192    186    196    174
   917   1    192    186    196   1991
   918   1    192    186    196   2007
   919   1    197    187    193    171
   920   1    197    187    193    173
   921   1    197    187    193    181
   922   1    193    187    197    175
   923   1    193    187    197    179
   924   1    193    187    197    238
   925   1   1664    188    194    172
   926   1   1664    188    194    174
   927   1   1664    188    194    182
   928   1    194    188   1664   1658
   929   1    194    188   1664   2007
   930   1    194    188   1664   1988
   931   1    684    666    189    168
   932   1    684    666    189    183
   933   1    684    666    189    676
   934   1    682    676    189    168
   935   1    682    676    189    183
   936   1    682    676    189    666
   937   1   1672   1649    192    170
   938   1   1672   1649    192    180
   939   1   1672   1649    192    186
   940   1    259    236    195    173
   941   1    259    236    195    178
   942   1    259    236    195    223
   943   1    229    223    195    173
   944   1    229    223    195    178
   945   1    229    223    195    236
   946   1   1732   1991    196    174
   947   1   1732   1991    196    186
   948   1   1732   1991    196   2007
   949   1   1664   2007    196    174
   950   1   1664   2007    196    186
   951   1   1664   2007    196   1991
   952   1    260    238    197    175
   953   1    260    238    197    179
   954   1    260    238    197    187
   955   1    678    672    199    102
   956   1    678    672    199    181
   957   1    678    672    199    211
   958   1    224    211    199    102
   959   1    224    211    199    181
   960   1    224    211    199    672
   961   1    161    201    225    210
   962   1    161    201    225    213
   963   1    161    201    225    219
   964   1    649    202    224    211
   965   1    649    202    224    218
   966   1    649    202    224    702
   967   1    224    202    649    625
   968   1    224    202    649    631
   969   1    224    202    649    639
   970   1    163    203    226    212
   971   1    163    203    226    214
   972   1    163    203    226    220
   973   1    302    204    227    215
   974   1    302    204    227    221
   975   1    302    204    227   1683
   976   1    227    204    302    279
   977   1    227    204    302    284
   978   1    227    204    302    289
   979   1    303    205    228    207
   980   1    303    205    228    216
   981   1    303    205    228    222
   982   1    228    205    303     79
   983   1    228    205    303    285
   984   1    228    205    303    779
   985   1    304    206    229    208
   986   1    304    206    229    217
   987   1    304    206    229    223
   988   1    229    206    304    281
   989   1    229    206    304    286
   990   1    229    206    304    287
   991   1    230    207    228    205
   992   1    230    207    228    216
   993   1    230    207    228    222
   994   1    228    207    230     72
   995   1    228    207    230    213
   996   1    228    207    230    270
   997   1    231    208    229    206
   998   1    231    208    229    217
   999   1    231    208    229    223
  1000   1    229    208    231    221
  1001   1    229    208    231   1992
  1002   1    229    208    231   2008
  1003   1    716    209    232    214
  1004   1    716    209    232    222
  1005   1    716    209    232    272
  1006   1    232    209    716    692
  1007   1    232    209    716    704
  1008   1    232    209    716    710
  1009   1    233    210    225    201
  1010   1    233    210    225    213
  1011   1    233    210    225    219
  1012   1    225    210    233    135
  1013   1    225    210    233    215
  1014   1    225    210    233    220
  1015   1    199    211    224    202
  1016   1    199    211    224    218
  1017   1    199    211    224    702
  1018   1    235    212    226    203
  1019   1    235    212    226    214
  1020   1    235    212    226    220
  1021   1    226    212    235    137
  1022   1    226    212    235    217
  1023   1    226    212    235    218
  1024   1    230    213    225    201
  1025   1    230    213    225    210
  1026   1    230    213    225    219
  1027   1    225    213    230     72
  1028   1    225    213    230    207
  1029   1    225    213    230    270
  1030   1    232    214    226    203
  1031   1    232    214    226    212
  1032   1    232    214    226    220
  1033   1    226    214    232    209
  1034   1    226    214    232    222
  1035   1    226    214    232    272
  1036   1    233    215    227    204
  1037   1    233    215    227    221
  1038   1    233    215    227   1683
  1039   1    227    215    233    135
  1040   1    227    215    233    210
  1041   1    227    215    233    220
  1042   1    234    216    228    205
  1043   1    234    216    228    207
  1044   1    234    216    228    222
  1045   1    228    216    234     78
  1046   1    228    216    234    136
  1047   1    228    216    234    708
  1048   1    235    217    229    206
  1049   1    235    217    229    208
  1050   1    235    217    229    223
  1051   1    229    217    235    137
  1052   1    229    217    235    212
  1053   1    229    217    235    218
  1054   1    235    218    224    202
  1055   1    235    218    224    211
  1056   1    235    218    224    702
  1057   1    224    218    235    137
  1058   1    224    218    235    212
  1059   1    224    218    235    217
  1060   1   1708    219    225    201
  1061   1   1708    219    225    210
  1062   1   1708    219    225    213
  1063   1    225    219   1708   1611
  1064   1    225    219   1708   1690
  1065   1    225    219   1708     71
  1066   1    233    220    226    203
  1067   1    233    220    226    212
  1068   1    233    220    226    214
  1069   1    226    220    233    135
  1070   1    226    220    233    210
  1071   1    226    220    233    215
  1072   1    231    221    227    204
  1073   1    231    221    227    215
  1074   1    231    221    227   1683
  1075   1    227    221    231    208
  1076   1    227    221    231   1992
  1077   1    227    221    231   2008
  1078   1    232    222    228    205
  1079   1    232    222    228    207
  1080   1    232    222    228    216
  1081   1    228    222    232    209
  1082   1    228    222    232    214
  1083   1    228    222    232    272
  1084   1    195    223    229    206
  1085   1    195    223    229    208
  1086   1    195    223    229    217
  1087   1    720    702    224    202
  1088   1    720    702    224    211
  1089   1    720    702    224    218
  1090   1   1706   1683    227    204
  1091   1   1706   1683    227    215
  1092   1   1706   1683    227    221
  1093   1    294    270    230     72
  1094   1    294    270    230    207
  1095   1    294    270    230    213
  1096   1   1766   1992    231    208
  1097   1   1766   1992    231    221
  1098   1   1766   1992    231   2008
  1099   1   1698   2008    231    208
  1100   1   1698   2008    231    221
  1101   1   1698   2008    231   1992
  1102   1    295    272    232    209
  1103   1    295    272    232    214
  1104   1    295    272    232    222
  1105   1    714    708    234     78
  1106   1    714    708    234    136
  1107   1    714    708    234    216
  1108   1    195    236    259    245
  1109   1    195    236    259    247
  1110   1    195    236    259    253
  1111   1    684    237    258    252
  1112   1    684    237    258    737
  1113   1    684    237    258    747
  1114   1    258    237    684    661
  1115   1    258    237    684    666
  1116   1    258    237    684    674
  1117   1    197    238    260    246
  1118   1    197    238    260    248
  1119   1    197    238    260    254
  1120   1    336    239    261    249
  1121   1    336    239    261    255
  1122   1    336    239    261   1717
  1123   1    261    239    336    314
  1124   1    261    239    336    318
  1125   1    261    239    336    323
  1126   1    337    240    262    242
  1127   1    337    240    262    250
  1128   1    337    240    262    256
  1129   1    262    240    337    319
  1130   1    262    240    337    814
  1131   1    262    240    337    349
  1132   1    338    241    263    243
  1133   1    338    241    263    251
  1134   1    338    241    263    257
  1135   1    263    241    338    315
  1136   1    263    241    338    320
  1137   1    263    241    338    321
  1138   1    264    242    262    240
  1139   1    264    242    262    250
  1140   1    264    242    262    256
  1141   1    262    242    264    247
  1142   1    262    242    264    305
  1143   1    262    242    264    292
  1144   1    265    243    263    241
  1145   1    265    243    263    251
  1146   1    265    243    263    257
  1147   1    263    243    265    255
  1148   1    263    243    265   1994
  1149   1    263    243    265   2009
  1150   1    751    244    266    248
  1151   1    751    244    266    256
  1152   1    751    244    266    307
  1153   1    266    244    751    728
  1154   1    266    244    751    739
  1155   1    266    244    751    745
  1156   1    267    245    259    236
  1157   1    267    245    259    247
  1158   1    267    245    259    253
  1159   1    259    245    267    170
  1160   1    259    245    267    249
  1161   1    259    245    267    254
  1162   1    269    246    260    238
  1163   1    269    246    260    248
  1164   1    269    246    260    254
  1165   1    260    246    269    172
  1166   1    260    246    269    251
  1167   1    260    246    269    252
  1168   1    264    247    259    236
  1169   1    264    247    259    245
  1170   1    264    247    259    253
  1171   1    259    247    264    242
  1172   1    259    247    264    305
  1173   1    259    247    264    292
  1174   1    266    248    260    238
  1175   1    266    248    260    246
  1176   1    266    248    260    254
  1177   1    260    248    266    244
  1178   1    260    248    266    256
  1179   1    260    248    266    307
  1180   1    267    249    261    239
  1181   1    267    249    261    255
  1182   1    267    249    261   1717
  1183   1    261    249    267    170
  1184   1    261    249    267    245
  1185   1    261    249    267    254
  1186   1    268    250    262    240
  1187   1    268    250    262    242
  1188   1    268    250    262    256
  1189   1    262    250    268    171
  1190   1    262    250    268    743
  1191   1    262    250    268    280
  1192   1    269    251    263    241
  1193   1    269    251    263    243
  1194   1    269    251    263    257
  1195   1    263    251    269    172
  1196   1    263    251    269    246
  1197   1    263    251    269    252
  1198   1    269    252    258    237
  1199   1    269    252    258    737
  1200   1    269    252    258    747
  1201   1    258    252    269    172
  1202   1    258    252    269    246
  1203   1    258    252    269    251
  1204   1   1742    253    259    236
  1205   1   1742    253    259    245
  1206   1   1742    253    259    247
  1207   1    259    253   1742   1645
  1208   1    259    253   1742   1724
  1209   1    259    253   1742   1993
  1210   1    267    254    260    238
  1211   1    267    254    260    246
  1212   1    267    254    260    248
  1213   1    260    254    267    170
  1214   1    260    254    267    245
  1215   1    260    254    267    249
  1216   1    265    255    261    239
  1217   1    265    255    261    249
  1218   1    265    255    261   1717
  1219   1    261    255    265    243
  1220   1    261    255    265   1994
  1221   1    261    255    265   2009
  1222   1    266    256    262    240
  1223   1    266    256    262    242
  1224   1    266    256    262    250
  1225   1    262    256    266    244
  1226   1    262    256    266    248
  1227   1    262    256    266    307
  1228   1   1732    257    263    241
  1229   1   1732    257    263    243
  1230   1   1732    257    263    251
  1231   1    263    257   1732   1726
  1232   1    263    257   1732   2009
  1233   1    263    257   1732   1991
  1234   1    755    737    258    237
  1235   1    755    737    258    252
  1236   1    755    737    258    747
  1237   1    753    747    258    237
  1238   1    753    747    258    252
  1239   1    753    747    258    737
  1240   1   1740   1717    261    239
  1241   1   1740   1717    261    249
  1242   1   1740   1717    261    255
  1243   1    328    305    264    242
  1244   1    328    305    264    247
  1245   1    328    305    264    292
  1246   1    298    292    264    242
  1247   1    298    292    264    247
  1248   1    298    292    264    305
  1249   1   1800   1994    265    243
  1250   1   1800   1994    265    255
  1251   1   1800   1994    265   2009
  1252   1   1732   2009    265    243
  1253   1   1732   2009    265    255
  1254   1   1732   2009    265   1994
  1255   1    329    307    266    244
  1256   1    329    307    266    248
  1257   1    329    307    266    256
  1258   1    749    743    268    171
  1259   1    749    743    268    250
  1260   1    749    743    268    280
  1261   1    293    280    268    171
  1262   1    293    280    268    250
  1263   1    293    280    268    743
  1264   1    230    270    294    279
  1265   1    230    270    294    282
  1266   1    230    270    294    288
  1267   1    720    271    293    280
  1268   1    720    271    293    287
  1269   1    720    271    293    773
  1270   1    293    271    720    696
  1271   1    293    271    720    702
  1272   1    293    271    720    710
  1273   1    232    272    295    281
  1274   1    232    272    295    283
  1275   1    232    272    295    289
  1276   1    371    273    296    284
  1277   1    371    273    296    290
  1278   1    371    273    296   1751
  1279   1    296    273    371    348
  1280   1    296    273    371    353
  1281   1    296    273    371    358
  1282   1    372    274    297    276
  1283   1    372    274    297    285
  1284   1    372    274    297    291
  1285   1    297    274    372     80
  1286   1    297    274    372    354
  1287   1    297    274    372    850
  1288   1    373    275    298    277
  1289   1    373    275    298    286
  1290   1    373    275    298    292
  1291   1    298    275    373    350
  1292   1    298    275    373    355
  1293   1    298    275    373    356
  1294   1    299    276    297    274
  1295   1    299    276    297    285
  1296   1    299    276    297    291
  1297   1    297    276    299     73
  1298   1    297    276    299    282
  1299   1    297    276    299    339
  1300   1    300    277    298    275
  1301   1    300    277    298    286
  1302   1    300    277    298    292
  1303   1    298    277    300    290
  1304   1    298    277    300   1995
  1305   1    298    277    300   2010
  1306   1    787    278    301    283
  1307   1    787    278    301    291
  1308   1    787    278    301    341
  1309   1    301    278    787    763
  1310   1    301    278    787    775
  1311   1    301    278    787    781
  1312   1    302    279    294    270
  1313   1    302    279    294    282
  1314   1    302    279    294    288
  1315   1    294    279    302    204
  1316   1    294    279    302    284
  1317   1    294    279    302    289
  1318   1    268    280    293    271
  1319   1    268    280    293    287
  1320   1    268    280    293    773
  1321   1    304    281    295    272
  1322   1    304    281    295    283
  1323   1    304    281    295    289
  1324   1    295    281    304    206
  1325   1    295    281    304    286
  1326   1    295    281    304    287
  1327   1    299    282    294    270
  1328   1    299    282    294    279
  1329   1    299    282    294    288
  1330   1    294    282    299     73
  1331   1    294    282    299    276
  1332   1    294    282    299    339
  1333   1    301    283    295    272
  1334   1    301    283    295    281
  1335   1    301    283    295    289
  1336   1    295    283    301    278
  1337   1    295    283    301    291
  1338   1    295    283    301    341
  1339   1    302    284    296    273
  1340   1    302    284    296    290
  1341   1    302    284    296   1751
  1342   1    296    284    302    204
  1343   1    296    284    302    279
  1344   1    296    284    302    289
  1345   1    303    285    297    274
  1346   1    303    285    297    276
  1347   1    303    285    297    291
  1348   1    297    285    303     79
  1349   1    297    285    303    205
  1350   1    297    285    303    779
  1351   1    304    286    298    275
  1352   1    304    286    298    277
  1353   1    304    286    298    292
  1354   1    298    286    304    206
  1355   1    298    286    304    281
  1356   1    298    286    304    287
  1357   1    304    287    293    271
  1358   1    304    287    293    280
  1359   1    304    287    293    773
  1360   1    293    287    304    206
  1361   1    293    287    304    281
  1362   1    293    287    304    286
  1363   1   1776    288    294    270
  1364   1   1776    288    294    279
  1365   1   1776    288    294    282
  1366   1    294    288   1776   1679
  1367   1    294    288   1776   1758
  1368   1    294    288   1776     72
  1369   1    302    289    295    272
  1370   1    302    289    295    281
  1371   1    302    289    295    283
  1372   1    295    289    302    204
  1373   1    295    289    302    279
  1374   1    295    289    302    284
  1375   1    300    290    296    273
  1376   1    300    290    296    284
  1377   1    300    290    296   1751
  1378   1    296    290    300    277
  1379   1    296    290    300   1995
  1380   1    296    290    300   2010
  1381   1    301    291    297    274
  1382   1    301    291    297    276
  1383   1    301    291    297    285
  1384   1    297    291    301    278
  1385   1    297    291    301    283
  1386   1    297    291    301    341
  1387   1    264    292    298    275
  1388   1    264    292    298    277
  1389   1    264    292    298    286
  1390   1    791    773    293    271
  1391   1    791    773    293    280
  1392   1    791    773    293    287
  1393   1   1774   1751    296    273
  1394   1   1774   1751    296    284
  1395   1   1774   1751    296    290
  1396   1    363    339    299     73
  1397   1    363    339    299    276
  1398   1    363    339    299    282
  1399   1   1834   1995    300    277
  1400   1   1834   1995    300    290
  1401   1   1834   1995    300   2010
  1402   1   1766   2010    300    277
  1403   1   1766   2010    300    290
  1404   1   1766   2010    300   1995
  1405   1    364    341    301    278
  1406   1    364    341    301    283
  1407   1    364    341    301    291
  1408   1    785    779    303     79
  1409   1    785    779    303    205
  1410   1    785    779    303    285
  1411   1    264    305    328    314
  1412   1    264    305    328    316
  1413   1    264    305    328    322
  1414   1    755    306    327    321
  1415   1    755    306    327    808
  1416   1    755    306    327    818
  1417   1    327    306    755    732
  1418   1    327    306    755    737
  1419   1    327    306    755    745
  1420   1    266    307    329    315
  1421   1    266    307    329    317
  1422   1    266    307    329    323
  1423   1    405    308    330    318
  1424   1    405    308    330    324
  1425   1    405    308    330   1785
  1426   1    330    308    405    383
  1427   1    330    308    405    387
  1428   1    330    308    405    392
  1429   1    406    309    331    311
  1430   1    406    309    331    319
  1431   1    406    309    331    325
  1432   1    331    309    406    388
  1433   1    331    309    406    885
  1434   1    331    309    406    418
  1435   1    407    310    332    312
  1436   1    407    310    332    320
  1437   1    407    310    332    326
  1438   1    332    310    407    384
  1439   1    332    310    407    389
  1440   1    332    310    407    390
  1441   1    333    311    331    309
  1442   1    333    311    331    319
  1443   1    333    311    331    325
  1444   1    331    311    333    316
  1445   1    331    311    333    374
  1446   1    331    311    333    361
  1447   1    334    312    332    310
  1448   1    334    312    332    320
  1449   1    334    312    332    326
  1450   1    332    312    334    324
  1451   1    332    312    334   1997
  1452   1    332    312    334   2011
  1453   1    822    313    335    317
  1454   1    822    313    335    325
  1455   1    822    313    335    376
  1456   1    335    313    822    799
  1457   1    335    313    822    810
  1458   1    335    313    822    816
  1459   1    336    314    328    305
  1460   1    336    314    328    316
  1461   1    336    314    328    322
  1462   1    328    314    336    239
  1463   1    328    314    336    318
  1464   1    328    314    336    323
  1465   1    338    315    329    307
  1466   1    338    315    329    317
  1467   1    338    315    329    323
  1468   1    329    315    338    241
  1469   1    329    315    338    320
  1470   1    329    315    338    321
  1471   1    333    316    328    305
  1472   1    333    316    328    314
  1473   1    333    316    328    322
  1474   1    328    316    333    311
  1475   1    328    316    333    374
  1476   1    328    316    333    361
  1477   1    335    317    329    307
  1478   1    335    317    329    315
  1479   1    335    317    329    323
  1480   1    329    317    335    313
  1481   1    329    317    335    325
  1482   1    329    317    335    376
  1483   1    336    318    330    308
  1484   1    336    318    330    324
  1485   1    336    318    330   1785
  1486   1    330    318    336    239
  1487   1    330    318    336    314
  1488   1    330    318    336    323
  1489   1    337    319    331    309
  1490   1    337    319    331    311
  1491   1    337    319    331    325
  1492   1    331    319    337    240
  1493   1    331    319    337    814
  1494   1    331    319    337    349
  1495   1    338    320    332    310
  1496   1    338    320    332    312
  1497   1    338    320    332    326
  1498   1    332    320    338    241
  1499   1    332    320    338    315
  1500   1    332    320    338    321
  1501   1    338    321    327    306
  1502   1    338    321    327    808
  1503   1    338    321    327    818
  1504   1    327    321    338    241
  1505   1    327    321    338    315
  1506   1    327    321    338    320
  1507   1   1810    322    328    305
  1508   1   1810    322    328    314
  1509   1   1810    322    328    316
  1510   1    328    322   1810   1713
  1511   1    328    322   1810   1792
  1512   1    328    322   1810   1996
  1513   1    336    323    329    307
  1514   1    336    323    329    315
  1515   1    336    323    329    317
  1516   1    329    323    336    239
  1517   1    329    323    336    314
  1518   1    329    323    336    318
  1519   1    334    324    330    308
  1520   1    334    324    330    318
  1521   1    334    324    330   1785
  1522   1    330    324    334    312
  1523   1    330    324    334   1997
  1524   1    330    324    334   2011
  1525   1    335    325    331    309
  1526   1    335    325    331    311
  1527   1    335    325    331    319
  1528   1    331    325    335    313
  1529   1    331    325    335    317
  1530   1    331    325    335    376
  1531   1   1800    326    332    310
  1532   1   1800    326    332    312
  1533   1   1800    326    332    320
  1534   1    332    326   1800   1794
  1535   1    332    326   1800   2011
  1536   1    332    326   1800   1994
  1537   1    826    808    327    306
  1538   1    826    808    327    321
  1539   1    826    808    327    818
  1540   1    824    818    327    306
  1541   1    824    818    327    321
  1542   1    824    818    327    808
  1543   1   1808   1785    330    308
  1544   1   1808   1785    330    318
  1545   1   1808   1785    330    324
  1546   1    397    374    333    311
  1547   1    397    374    333    316
  1548   1    397    374    333    361
  1549   1    367    361    333    311
  1550   1    367    361    333    316
  1551   1    367    361    333    374
  1552   1   1868   1997    334    312
  1553   1   1868   1997    334    324
  1554   1   1868   1997    334   2011
  1555   1   1800   2011    334    312
  1556   1   1800   2011    334    324
  1557   1   1800   2011    334   1997
  1558   1    398    376    335    313
  1559   1    398    376    335    317
  1560   1    398    376    335    325
  1561   1    820    814    337    240
  1562   1    820    814    337    319
  1563   1    820    814    337    349
  1564   1    362    349    337    240
  1565   1    362    349    337    319
  1566   1    362    349    337    814
  1567   1    299    339    363    348
  1568   1    299    339    363    351
  1569   1    299    339    363    357
  1570   1    791    340    362    349
  1571   1    791    340    362    356
  1572   1    791    340    362    844
  1573   1    362    340    791    767
  1574   1    362    340    791    773
  1575   1    362    340    791    781
  1576   1    301    341    364    350
  1577   1    301    341    364    352
  1578   1    301    341    364    358
  1579   1    440    342    365    353
  1580   1    440    342    365    359
  1581   1    440    342    365   1819
  1582   1    365    342    440    417
  1583   1    365    342    440    422
  1584   1    365    342    440    427
  1585   1    441    343    366    345
  1586   1    441    343    366    354
  1587   1    441    343    366    360
  1588   1    366    343    441     81
  1589   1    366    343    441    423
  1590   1    366    343    441    921
  1591   1    442    344    367    346
  1592   1    442    344    367    355
  1593   1    442    344    367    361
  1594   1    367    344    442    419
  1595   1    367    344    442    424
  1596   1    367    344    442    425
  1597   1    368    345    366    343
  1598   1    368    345    366    354
  1599   1    368    345    366    360
  1600   1    366    345    368     74
  1601   1    366    345    368    351
  1602   1    366    345    368    408
  1603   1    369    346    367    344
  1604   1    369    346    367    355
  1605   1    369    346    367    361
  1606   1    367    346    369    359
  1607   1    367    346    369   1998
  1608   1    367    346    369   2012
  1609   1    858    347    370    352
  1610   1    858    347    370    360
  1611   1    858    347    370    410
  1612   1    370    347    858    834
  1613   1    370    347    858    846
  1614   1    370    347    858    852
  1615   1    371    348    363    339
  1616   1    371    348    363    351
  1617   1    371    348    363    357
  1618   1    363    348    371    273
  1619   1    363    348    371    353
  1620   1    363    348    371    358
  1621   1    337    349    362    340
  1622   1    337    349    362    356
  1623   1    337    349    362    844
  1624   1    373    350    364    341
  1625   1    373    350    364    352
  1626   1    373    350    364    358
  1627   1    364    350    373    275
  1628   1    364    350    373    355
  1629   1    364    350    373    356
  1630   1    368    351    363    339
  1631   1    368    351    363    348
  1632   1    368    351    363    357
  1633   1    363    351    368     74
  1634   1    363    351    368    345
  1635   1    363    351    368    408
  1636   1    370    352    364    341
  1637   1    370    352    364    350
  1638   1    370    352    364    358
  1639   1    364    352    370    347
  1640   1    364    352    370    360
  1641   1    364    352    370    410
  1642   1    371    353    365    342
  1643   1    371    353    365    359
  1644   1    371    353    365   1819
  1645   1    365    353    371    273
  1646   1    365    353    371    348
  1647   1    365    353    371    358
  1648   1    372    354    366    343
  1649   1    372    354    366    345
  1650   1    372    354    366    360
  1651   1    366    354    372     80
  1652   1    366    354    372    274
  1653   1    366    354    372    850
  1654   1    373    355    367    344
  1655   1    373    355    367    346
  1656   1    373    355    367    361
  1657   1    367    355    373    275
  1658   1    367    355    373    350
  1659   1    367    355    373    356
  1660   1    373    356    362    340
  1661   1    373    356    362    349
  1662   1    373    356    362    844
  1663   1    362    356    373    275
  1664   1    362    356    373    350
  1665   1    362    356    373    355
  1666   1   1844    357    363    339
  1667   1   1844    357    363    348
  1668   1   1844    357    363    351
  1669   1    363    357   1844   1747
  1670   1    363    357   1844   1826
  1671   1    363    357   1844     73
  1672   1    371    358    364    341
  1673   1    371    358    364    350
  1674   1    371    358    364    352
  1675   1    364    358    371    273
  1676   1    364    358    371    348
  1677   1    364    358    371    353
  1678   1    369    359    365    342
  1679   1    369    359    365    353
  1680   1    369    359    365   1819
  1681   1    365    359    369    346
  1682   1    365    359    369   1998
  1683   1    365    359    369   2012
  1684   1    370    360    366    343
  1685   1    370    360    366    345
  1686   1    370    360    366    354
  1687   1    366    360    370    347
  1688   1    366    360    370    352
  1689   1    366    360    370    410
  1690   1    333    361    367    344
  1691   1    333    361    367    346
  1692   1    333    361    367    355
  1693   1    862    844    362    340
  1694   1    862    844    362    349
  1695   1    862    844    362    356
  1696   1   1842   1819    365    342
  1697   1   1842   1819    365    353
  1698   1   1842   1819    365    359
  1699   1    432    408    368     74
  1700   1    432    408    368    345
  1701   1    432    408    368    351
  1702   1   1902   1998    369    346
  1703   1   1902   1998    369    359
  1704   1   1902   1998    369   2012
  1705   1   1834   2012    369    346
  1706   1   1834   2012    369    359
  1707   1   1834   2012    369   1998
  1708   1    433    410    370    347
  1709   1    433    410    370    352
  1710   1    433    410    370    360
  1711   1    856    850    372     80
  1712   1    856    850    372    274
  1713   1    856    850    372    354
  1714   1    333    374    397    383
  1715   1    333    374    397    385
  1716   1    333    374    397    391
  1717   1    826    375    396    390
  1718   1    826    375    396    879
  1719   1    826    375    396    889
  1720   1    396    375    826    803
  1721   1    396    375    826    808
  1722   1    396    375    826    816
  1723   1    335    376    398    384
  1724   1    335    376    398    386
  1725   1    335    376    398    392
  1726   1    474    377    399    387
  1727   1    474    377    399    393
  1728   1    474    377    399   1853
  1729   1    399    377    474    452
  1730   1    399    377    474    456
  1731   1    399    377    474    461
  1732   1    475    378    400    380
  1733   1    475    378    400    388
  1734   1    475    378    400    394
  1735   1    400    378    475    457
  1736   1    400    378    475    956
  1737   1    400    378    475    487
  1738   1    476    379    401    381
  1739   1    476    379    401    389
  1740   1    476    379    401    395
  1741   1    401    379    476    453
  1742   1    401    379    476    458
  1743   1    401    379    476    459
  1744   1    402    380    400    378
  1745   1    402    380    400    388
  1746   1    402    380    400    394
  1747   1    400    380    402    385
  1748   1    400    380    402    443
  1749   1    400    380    402    430
  1750   1    403    381    401    379
  1751   1    403    381    401    389
  1752   1    403    381    401    395
  1753   1    401    381    403    393
  1754   1    401    381    403   2000
  1755   1    401    381    403   2013
  1756   1    893    382    404    386
  1757   1    893    382    404    394
  1758   1    893    382    404    445
  1759   1    404    382    893    870
  1760   1    404    382    893    881
  1761   1    404    382    893    887
  1762   1    405    383    397    374
  1763   1    405    383    397    385
  1764   1    405    383    397    391
  1765   1    397    383    405    308
  1766   1    397    383    405    387
  1767   1    397    383    405    392
  1768   1    407    384    398    376
  1769   1    407    384    398    386
  1770   1    407    384    398    392
  1771   1    398    384    407    310
  1772   1    398    384    407    389
  1773   1    398    384    407    390
  1774   1    402    385    397    374
  1775   1    402    385    397    383
  1776   1    402    385    397    391
  1777   1    397    385    402    380
  1778   1    397    385    402    443
  1779   1    397    385    402    430
  1780   1    404    386    398    376
  1781   1    404    386    398    384
  1782   1    404    386    398    392
  1783   1    398    386    404    382
  1784   1    398    386    404    394
  1785   1    398    386    404    445
  1786   1    405    387    399    377
  1787   1    405    387    399    393
  1788   1    405    387    399   1853
  1789   1    399    387    405    308
  1790   1    399    387    405    383
  1791   1    399    387    405    392
  1792   1    406    388    400    378
  1793   1    406    388    400    380
  1794   1    406    388    400    394
  1795   1    400    388    406    309
  1796   1    400    388    406    885
  1797   1    400    388    406    418
  1798   1    407    389    401    379
  1799   1    407    389    401    381
  1800   1    407    389    401    395
  1801   1    401    389    407    310
  1802   1    401    389    407    384
  1803   1    401    389    407    390
  1804   1    407    390    396    375
  1805   1    407    390    396    879
  1806   1    407    390    396    889
  1807   1    396    390    407    310
  1808   1    396    390    407    384
  1809   1    396    390    407    389
  1810   1   1878    391    397    374
  1811   1   1878    391    397    383
  1812   1   1878    391    397    385
  1813   1    397    391   1878   1781
  1814   1    397    391   1878   1860
  1815   1    397    391   1878   1999
  1816   1    405    392    398    376
  1817   1    405    392    398    384
  1818   1    405    392    398    386
  1819   1    398    392    405    308
  1820   1    398    392    405    383
  1821   1    398    392    405    387
  1822   1    403    393    399    377
  1823   1    403    393    399    387
  1824   1    403    393    399   1853
  1825   1    399    393    403    381
  1826   1    399    393    403   2000
  1827   1    399    393    403   2013
  1828   1    404    394    400    378
  1829   1    404    394    400    380
  1830   1    404    394    400    388
  1831   1    400    394    404    382
  1832   1    400    394    404    386
  1833   1    400    394    404    445
  1834   1   1868    395    401    379
  1835   1   1868    395    401    381
  1836   1   1868    395    401    389
  1837   1    401    395   1868   1862
  1838   1    401    395   1868   2013
  1839   1    401    395   1868   1997
  1840   1    897    879    396    375
  1841   1    897    879    396    390
  1842   1    897    879    396    889
  1843   1    895    889    396    375
  1844   1    895    889    396    390
  1845   1    895    889    396    879
  1846   1   1876   1853    399    377
  1847   1   1876   1853    399    387
  1848   1   1876   1853    399    393
  1849   1    466    443    402    380
  1850   1    466    443    402    385
  1851   1    466    443    402    430
  1852   1    436    430    402    380
  1853   1    436    430    402    385
  1854   1    436    430    402    443
  1855   1   1936   2000    403    381
  1856   1   1936   2000    403    393
  1857   1   1936   2000    403   2013
  1858   1   1868   2013    403    381
  1859   1   1868   2013    403    393
  1860   1   1868   2013    403   2000
  1861   1    467    445    404    382
  1862   1    467    445    404    386
  1863   1    467    445    404    394
  1864   1    891    885    406    309
  1865   1    891    885    406    388
  1866   1    891    885    406    418
  1867   1    431    418    406    309
  1868   1    431    418    406    388
  1869   1    431    418    406    885
  1870   1    368    408    432    417
  1871   1    368    408    432    420
  1872   1    368    408    432    426
  1873   1    862    409    431    418
  1874   1    862    409    431    425
  1875   1    862    409    431    915
  1876   1    431    409    862    838
  1877   1    431    409    862    844
  1878   1    431    409    862    852
  1879   1    370    410    433    419
  1880   1    370    410    433    421
  1881   1    370    410    433    427
  1882   1    509    411    434    422
  1883   1    509    411    434    428
  1884   1    509    411    434   1887
  1885   1    434    411    509    486
  1886   1    434    411    509    491
  1887   1    434    411    509    496
  1888   1    510    412    435    414
  1889   1    510    412    435    423
  1890   1    510    412    435    429
  1891   1    435    412    510     82
  1892   1    435    412    510    492
  1893   1    435    412    510    992
  1894   1    511    413    436    415
  1895   1    511    413    436    424
  1896   1    511    413    436    430
  1897   1    436    413    511    488
  1898   1    436    413    511    493
  1899   1    436    413    511    494
  1900   1    437    414    435    412
  1901   1    437    414    435    423
  1902   1    437    414    435    429
  1903   1    435    414    437     75
  1904   1    435    414    437    420
  1905   1    435    414    437    477
  1906   1    438    415    436    413
  1907   1    438    415    436    424
  1908   1    438    415    436    430
  1909   1    436    415    438    428
  1910   1    436    415    438   2001
  1911   1    436    415    438   2014
  1912   1    929    416    439    421
  1913   1    929    416    439    429
  1914   1    929    416    439    479
  1915   1    439    416    929    905
  1916   1    439    416    929    917
  1917   1    439    416    929    923
  1918   1    440    417    432    408
  1919   1    440    417    432    420
  1920   1    440    417    432    426
  1921   1    432    417    440    342
  1922   1    432    417    440    422
  1923   1    432    417    440    427
  1924   1    406    418    431    409
  1925   1    406    418    431    425
  1926   1    406    418    431    915
  1927   1    442    419    433    410
  1928   1    442    419    433    421
  1929   1    442    419    433    427
  1930   1    433    419    442    344
  1931   1    433    419    442    424
  1932   1    433    419    442    425
  1933   1    437    420    432    408
  1934   1    437    420    432    417
  1935   1    437    420    432    426
  1936   1    432    420    437     75
  1937   1    432    420    437    414
  1938   1    432    420    437    477
  1939   1    439    421    433    410
  1940   1    439    421    433    419
  1941   1    439    421    433    427
  1942   1    433    421    439    416
  1943   1    433    421    439    429
  1944   1    433    421    439    479
  1945   1    440    422    434    411
  1946   1    440    422    434    428
  1947   1    440    422    434   1887
  1948   1    434    422    440    342
  1949   1    434    422    440    417
  1950   1    434    422    440    427
  1951   1    441    423    435    412
  1952   1    441    423    435    414
  1953   1    441    423    435    429
  1954   1    435    423    441     81
  1955   1    435    423    441    343
  1956   1    435    423    441    921
  1957   1    442    424    436    413
  1958   1    442    424    436    415
  1959   1    442    424    436    430
  1960   1    436    424    442    344
  1961   1    436    424    442    419
  1962   1    436    424    442    425
  1963   1    442    425    431    409
  1964   1    442    425    431    418
  1965   1    442    425    431    915
  1966   1    431    425    442    344
  1967   1    431    425    442    419
  1968   1    431    425    442    424
  1969   1   1912    426    432    408
  1970   1   1912    426    432    417
  1971   1   1912    426    432    420
  1972   1    432    426   1912   1815
  1973   1    432    426   1912   1894
  1974   1    432    426   1912     74
  1975   1    440    427    433    410
  1976   1    440    427    433    419
  1977   1    440    427    433    421
  1978   1    433    427    440    342
  1979   1    433    427    440    417
  1980   1    433    427    440    422
  1981   1    438    428    434    411
  1982   1    438    428    434    422
  1983   1    438    428    434   1887
  1984   1    434    428    438    415
  1985   1    434    428    438   2001
  1986   1    434    428    438   2014
  1987   1    439    429    435    412
  1988   1    439    429    435    414
  1989   1    439    429    435    423
  1990   1    435    429    439    416
  1991   1    435    429    439    421
  1992   1    435    429    439    479
  1993   1    402    430    436    413
  1994   1    402    430    436    415
  1995   1    402    430    436    424
  1996   1    933    915    431    409
  1997   1    933    915    431    418
  1998   1    933    915    431    425
  1999   1   1910   1887    434    411
  2000   1   1910   1887    434    422
  2001   1   1910   1887    434    428
  2002   1    501    477    437     75
  2003   1    501    477    437    414
  2004   1    501    477    437    420
  2005   1   1970   2001    438    415
  2006   1   1970   2001    438    428
  2007   1   1970   2001    438   2014
  2008   1   1902   2014    438    415
  2009   1   1902   2014    438    428
  2010   1   1902   2014    438   2001
  2011   1    502    479    439    416
  2012   1    502    479    439    421
  2013   1    502    479    439    429
  2014   1    927    921    441     81
  2015   1    927    921    441    343
  2016   1    927    921    441    423
  2017   1    402    443    466    452
  2018   1    402    443    466    454
  2019   1    402    443    466    460
  2020   1    897    444    465    459
  2021   1    897    444    465    950
  2022   1    897    444    465    960
  2023   1    465    444    897    874
  2024   1    465    444    897    879
  2025   1    465    444    897    887
  2026   1    404    445    467    453
  2027   1    404    445    467    455
  2028   1    404    445    467    461
  2029   1     32    446    468    456
  2030   1     32    446    468    462
  2031   1     32    446    468   1921
  2032   1     33    447    469    449
  2033   1     33    447    469    457
  2034   1     33    447    469    463
  2035   1     34    448    470    450
  2036   1     34    448    470    458
  2037   1     34    448    470    464
  2038   1    471    449    469    447
  2039   1    471    449    469    457
  2040   1    471    449    469    463
  2041   1    469    449    471    454
  2042   1    469    449    471    499
  2043   1    469    449    471      1
  2044   1    472    450    470    448
  2045   1    472    450    470    458
  2046   1    472    450    470    464
  2047   1    470    450    472    462
  2048   1    470    450    472   2015
  2049   1    470    450    472   1982
  2050   1    964    451    473    455
  2051   1    964    451    473    463
  2052   1    964    451    473      3
  2053   1    473    451    964    941
  2054   1    473    451    964    952
  2055   1    473    451    964    958
  2056   1    474    452    466    443
  2057   1    474    452    466    454
  2058   1    474    452    466    460
  2059   1    466    452    474    377
  2060   1    466    452    474    456
  2061   1    466    452    474    461
  2062   1    476    453    467    445
  2063   1    476    453    467    455
  2064   1    476    453    467    461
  2065   1    467    453    476    379
  2066   1    467    453    476    458
  2067   1    467    453    476    459
  2068   1    471    454    466    443
  2069   1    471    454    466    452
  2070   1    471    454    466    460
  2071   1    466    454    471    449
  2072   1    466    454    471    499
  2073   1    466    454    471      1
  2074   1    473    455    467    445
  2075   1    473    455    467    453
  2076   1    473    455    467    461
  2077   1    467    455    473    451
  2078   1    467    455    473    463
  2079   1    467    455    473      3
  2080   1    474    456    468    446
  2081   1    474    456    468    462
  2082   1    474    456    468   1921
  2083   1    468    456    474    377
  2084   1    468    456    474    452
  2085   1    468    456    474    461
  2086   1    475    457    469    447
  2087   1    475    457    469    449
  2088   1    475    457    469    463
  2089   1    469    457    475    378
  2090   1    469    457    475    956
  2091   1    469    457    475    487
  2092   1    476    458    470    448
  2093   1    476    458    470    450
  2094   1    476    458    470    464
  2095   1    470    458    476    379
  2096   1    470    458    476    453
  2097   1    470    458    476    459
  2098   1    476    459    465    444
  2099   1    476    459    465    950
  2100   1    476    459    465    960
  2101   1    465    459    476    379
  2102   1    465    459    476    453
  2103   1    465    459    476    458
  2104   1   1946    460    466    443
  2105   1   1946    460    466    452
  2106   1   1946    460    466    454
  2107   1    466    460   1946   1849
  2108   1    466    460   1946   1928
  2109   1    466    460   1946   2002
  2110   1    474    461    467    445
  2111   1    474    461    467    453
  2112   1    474    461    467    455
  2113   1    467    461    474    377
  2114   1    467    461    474    452
  2115   1    467    461    474    456
  2116   1    472    462    468    446
  2117   1    472    462    468    456
  2118   1    472    462    468   1921
  2119   1    468    462    472    450
  2120   1    468    462    472   2015
  2121   1    468    462    472   1982
  2122   1    473    463    469    447
  2123   1    473    463    469    449
  2124   1    473    463    469    457
  2125   1    469    463    473    451
  2126   1    469    463    473    455
  2127   1    469    463    473      3
  2128   1   1936    464    470    448
  2129   1   1936    464    470    450
  2130   1   1936    464    470    458
  2131   1    470    464   1936   1930
  2132   1    470    464   1936   2015
  2133   1    470    464   1936   2000
  2134   1    968    950    465    444
  2135   1    968    950    465    459
  2136   1    968    950    465    960
  2137   1    966    960    465    444
  2138   1    966    960    465    459
  2139   1    966    960    465    950
  2140   1   1944   1921    468    446
  2141   1   1944   1921    468    456
  2142   1   1944   1921    468    462
  2143   1    505    499    471    449
  2144   1    505    499    471    454
  2145   1    505    499    471      1
  2146   1   1936   2015    472    450
  2147   1   1936   2015    472    462
  2148   1   1936   2015    472   1982
  2149   1   1528   1982    472    450
  2150   1   1528   1982    472    462
  2151   1   1528   1982    472   2015
  2152   1    962    956    475    378
  2153   1    962    956    475    457
  2154   1    962    956    475    487
  2155   1    500    487    475    378
  2156   1    500    487    475    457
  2157   1    500    487    475    956
  2158   1    437    477    501    486
  2159   1    437    477    501    489
  2160   1    437    477    501    495
  2161   1    933    478    500    487
  2162   1    933    478    500    494
  2163   1    933    478    500    986
  2164   1    500    478    933    909
  2165   1    500    478    933    915
  2166   1    500    478    933    923
  2167   1    439    479    502    488
  2168   1    439    479    502    490
  2169   1    439    479    502    496
  2170   1     67    480    503    491
  2171   1     67    480    503    497
  2172   1     67    480    503   1955
  2173   1     68    481    504    483
  2174   1     68    481    504    492
  2175   1     68    481    504    498
  2176   1     69    482    505    484
  2177   1     69    482    505    493
  2178   1     69    482    505    499
  2179   1    506    483    504    481
  2180   1    506    483    504    492
  2181   1    506    483    504    498
  2182   1    504    483    506     76
  2183   1    504    483    506    489
  2184   1    504    483    506     35
  2185   1    507    484    505    482
  2186   1    507    484    505    493
  2187   1    507    484    505    499
  2188   1    505    484    507    497
  2189   1    505    484    507   2016
  2190   1    505    484    507   1983
  2191   1   1000    485    508    490
  2192   1   1000    485    508    498
  2193   1   1000    485    508     37
  2194   1    508    485   1000    976
  2195   1    508    485   1000    988
  2196   1    508    485   1000    994
  2197   1    509    486    501    477
  2198   1    509    486    501    489
  2199   1    509    486    501    495
  2200   1    501    486    509    411
  2201   1    501    486    509    491
  2202   1    501    486    509    496
  2203   1    475    487    500    478
  2204   1    475    487    500    494
  2205   1    475    487    500    986
  2206   1    511    488    502    479
  2207   1    511    488    502    490
  2208   1    511    488    502    496
  2209   1    502    488    511    413
  2210   1    502    488    511    493
  2211   1    502    488    511    494
  2212   1    506    489    501    477
  2213   1    506    489    501    486
  2214   1    506    489    501    495
  2215   1    501    489    506     76
  2216   1    501    489    506    483
  2217   1    501    489    506     35
  2218   1    508    490    502    479
  2219   1    508    490    502    488
  2220   1    508    490    502    496
  2221   1    502    490    508    485
  2222   1    502    490    508    498
  2223   1    502    490    508     37
  2224   1    509    491    503    480
  2225   1    509    491    503    497
  2226   1    509    491    503   1955
  2227   1    503    491    509    411
  2228   1    503    491    509    486
  2229   1    503    491    509    496
  2230   1    510    492    504    481
  2231   1    510    492    504    483
  2232   1    510    492    504    498
  2233   1    504    492    510     82
  2234   1    504    492    510    412
  2235   1    504    492    510    992
  2236   1    511    493    505    482
  2237   1    511    493    505    484
  2238   1    511    493    505    499
  2239   1    505    493    511    413
  2240   1    505    493    511    488
  2241   1    505    493    511    494
  2242   1    511    494    500    478
  2243   1    511    494    500    487
  2244   1    511    494    500    986
  2245   1    500    494    511    413
  2246   1    500    494    511    488
  2247   1    500    494    511    493
  2248   1   1980    495    501    477
  2249   1   1980    495    501    486
  2250   1   1980    495    501    489
  2251   1    501    495   1980   1883
  2252   1    501    495   1980   1962
  2253   1    501    495   1980     75
  2254   1    509    496    502    479
  2255   1    509    496    502    488
  2256   1    509    496    502    490
  2257   1    502    496    509    411
  2258   1    502    496    509    486
  2259   1    502    496    509    491
  2260   1    507    497    503    480
  2261   1    507    497    503    491
  2262   1    507    497    503   1955
  2263   1    503    497    507    484
  2264   1    503    497    507   2016
  2265   1    503    497    507   1983
  2266   1    508    498    504    481
  2267   1    508    498    504    483
  2268   1    508    498    504    492
  2269   1    504    498    508    485
  2270   1    504    498    508    490
  2271   1    504    498    508     37
  2272   1    471    499    505    482
  2273   1    471    499    505    484
  2274   1    471    499    505    493
  2275   1   1004    986    500    478
  2276   1   1004    986    500    487
  2277   1   1004    986    500    494
  2278   1   1978   1955    503    480
  2279   1   1978   1955    503    491
  2280   1   1978   1955    503    497
  2281   1   1970   2016    507    484
  2282   1   1970   2016    507    497
  2283   1   1970   2016    507   1983
  2284   1   1562   1983    507    484
  2285   1   1562   1983    507    497
  2286   1   1562   1983    507   2016
  2287   1    998    992    510     82
  2288   1    998    992    510    412
  2289   1    998    992    510    492
  2290   1    967    512    536    521
  2291   1    967    512    536    523
  2292   1    967    512    536    530
  2293   1    536    512    967    944
  2294   1    536    512    967    949
  2295   1    536    512    967    996
  2296   1   1465    513    535    529
  2297   1   1465    513    535   1021
  2298   1   1465    513    535   1031
  2299   1    535    513   1465   1442
  2300   1    535    513   1465   1447
  2301   1    535    513   1465   1455
  2302   1    969    514    537    522
  2303   1    969    514    537    525
  2304   1    969    514    537    531
  2305   1    537    514    969    946
  2306   1    537    514    969    951
  2307   1    537    514    969    959
  2308   1    615    515    538      9
  2309   1    615    515    538    526
  2310   1    615    515    538    532
  2311   1    538    515    615    592
  2312   1    538    515    615    597
  2313   1    538    515    615    602
  2314   1    616    516    539    518
  2315   1    616    516    539    527
  2316   1    616    516    539    533
  2317   1    539    516    616    598
  2318   1    539    516    616   1098
  2319   1    539    516    616    628
  2320   1    617    517    540    519
  2321   1    617    517    540    528
  2322   1    617    517    540    534
  2323   1    540    517    617    593
  2324   1    540    517    617    599
  2325   1    540    517    617    600
  2326   1    541    518    539    516
  2327   1    541    518    539    527
  2328   1    541    518    539    533
  2329   1    539    518    541    523
  2330   1    539    518    541    583
  2331   1    539    518    541    570
  2332   1    542    519    540    517
  2333   1    542    519    540    528
  2334   1    542    519    540    534
  2335   1    540    519    542     99
  2336   1    540    519    542    524
  2337   1    540    519    542    532
  2338   1   1035    520    543    525
  2339   1   1035    520    543    533
  2340   1   1035    520    543    585
  2341   1    543    520   1035   1012
  2342   1    543    520   1035   1023
  2343   1    543    520   1035   1029
  2344   1    544    521    536    512
  2345   1    544    521    536    523
  2346   1    544    521    536    530
  2347   1    536    521    544    526
  2348   1    536    521    544    531
  2349   1    536    521    544    941
  2350   1    546    522    537    514
  2351   1    546    522    537    525
  2352   1    546    522    537    531
  2353   1    537    522    546    528
  2354   1    537    522    546    529
  2355   1    537    522    546    943
  2356   1    541    523    536    512
  2357   1    541    523    536    521
  2358   1    541    523    536    530
  2359   1    536    523    541    518
  2360   1    536    523    541    583
  2361   1    536    523    541    570
  2362   1     23    524    542     99
  2363   1     23    524    542    519
  2364   1     23    524    542    532
  2365   1    543    525    537    514
  2366   1    543    525    537    522
  2367   1    543    525    537    531
  2368   1    537    525    543    520
  2369   1    537    525    543    533
  2370   1    537    525    543    585
  2371   1    544    526    538      9
  2372   1    544    526    538    515
  2373   1    544    526    538    532
  2374   1    538    526    544    521
  2375   1    538    526    544    531
  2376   1    538    526    544    941
  2377   1    545    527    539    516
  2378   1    545    527    539    518
  2379   1    545    527    539    533
  2380   1    539    527    545   1027
  2381   1    539    527    545    557
  2382   1    539    527    545    942
  2383   1    546    528    540    517
  2384   1    546    528    540    519
  2385   1    546    528    540    534
  2386   1    540    528    546    522
  2387   1    540    528    546    529
  2388   1    540    528    546    943
  2389   1    546    529    535    513
  2390   1    546    529    535   1021
  2391   1    546    529    535   1031
  2392   1    535    529    546    522
  2393   1    535    529    546    528
  2394   1    535    529    546    943
  2395   1     33    530    536    512
  2396   1     33    530    536    521
  2397   1     33    530    536    523
  2398   1    544    531    537    514
  2399   1    544    531    537    522
  2400   1    544    531    537    525
  2401   1    537    531    544    521
  2402   1    537    531    544    526
  2403   1    537    531    544    941
  2404   1    542    532    538      9
  2405   1    542    532    538    515
  2406   1    542    532    538    526
  2407   1    538    532    542     99
  2408   1    538    532    542    519
  2409   1    538    532    542    524
  2410   1    543    533    539    516
  2411   1    543    533    539    518
  2412   1    543    533    539    527
  2413   1    539    533    543    520
  2414   1    539    533    543    525
  2415   1    539    533    543    585
  2416   1     23    534    540    517
  2417   1     23    534    540    519
  2418   1     23    534    540    528
  2419   1   1039   1021    535    513
  2420   1   1039   1021    535    529
  2421   1   1039   1021    535   1031
  2422   1   1037   1031    535    513
  2423   1   1037   1031    535    529
  2424   1   1037   1031    535   1021
  2425   1    607    583    541    518
  2426   1    607    583    541    523
  2427   1    607    583    541    570
  2428   1    576    570    541    518
  2429   1    576    570    541    523
  2430   1    576    570    541    583
  2431   1    608    585    543    520
  2432   1    608    585    543    525
  2433   1    608    585    543    533
  2434   1    964    941    544    521
  2435   1    964    941    544    526
  2436   1    964    941    544    531
  2437   1   1033   1027    545    527
  2438   1   1033   1027    545    557
  2439   1   1033   1027    545    942
  2440   1    571    557    545    527
  2441   1    571    557    545   1027
  2442   1    571    557    545    942
  2443   1    965    942    545    527
  2444   1    965    942    545   1027
  2445   1    965    942    545    557
  2446   1    966    943    546    522
  2447   1    966    943    546    528
  2448   1    966    943    546    529
  2449   1   1003    547    572    556
  2450   1   1003    547    572    559
  2451   1   1003    547    572    566
  2452   1    572    547   1003     83
  2453   1    572    547   1003    979
  2454   1    572    547   1003    985
  2455   1   1501    548    571    557
  2456   1   1501    548    571    565
  2457   1   1501    548    571   1057
  2458   1    571    548   1501   1477
  2459   1    571    548   1501   1483
  2460   1    571    548   1501   1491
  2461   1   1005    549    573    558
  2462   1   1005    549    573    561
  2463   1   1005    549    573    567
  2464   1    573    549   1005    981
  2465   1    573    549   1005    987
  2466   1    573    549   1005    995
  2467   1    651    550    574     43
  2468   1    651    550    574    562
  2469   1    651    550    574    568
  2470   1    574    550    651    627
  2471   1    574    550    651    633
  2472   1    574    550    651    638
  2473   1    652    551    575    553
  2474   1    652    551    575    563
  2475   1    652    551    575    569
  2476   1    575    551    652     84
  2477   1    575    551    652    634
  2478   1    575    551    652   1134
  2479   1    653    552    576    554
  2480   1    653    552    576    564
  2481   1    653    552    576    570
  2482   1    576    552    653    629
  2483   1    576    552    653    635
  2484   1    576    552    653    636
  2485   1    577    553    575    551
  2486   1    577    553    575    563
  2487   1    577    553    575    569
  2488   1    575    553    577     77
  2489   1    575    553    577    559
  2490   1    575    553    577    618
  2491   1    578    554    576    552
  2492   1    578    554    576    564
  2493   1    578    554    576    570
  2494   1    576    554    578    133
  2495   1    576    554    578    560
  2496   1    576    554    578    568
  2497   1   1071    555    579    561
  2498   1   1071    555    579    569
  2499   1   1071    555    579    620
  2500   1    579    555   1071   1047
  2501   1    579    555   1071   1059
  2502   1    579    555   1071   1065
  2503   1    580    556    572    547
  2504   1    580    556    572    559
  2505   1    580    556    572    566
  2506   1    572    556    580    562
  2507   1    572    556    580    567
  2508   1    572    556    580    976
  2509   1    545    557    571    548
  2510   1    545    557    571    565
  2511   1    545    557    571   1057
  2512   1    582    558    573    549
  2513   1    582    558    573    561
  2514   1    582    558    573    567
  2515   1    573    558    582    564
  2516   1    573    558    582    565
  2517   1    573    558    582    978
  2518   1    577    559    572    547
  2519   1    577    559    572    556
  2520   1    577    559    572    566
  2521   1    572    559    577     77
  2522   1    572    559    577    553
  2523   1    572    559    577    618
  2524   1     58    560    578    133
  2525   1     58    560    578    554
  2526   1     58    560    578    568
  2527   1    579    561    573    549
  2528   1    579    561    573    558
  2529   1    579    561    573    567
  2530   1    573    561    579    555
  2531   1    573    561    579    569
  2532   1    573    561    579    620
  2533   1    580    562    574     43
  2534   1    580    562    574    550
  2535   1    580    562    574    568
  2536   1    574    562    580    556
  2537   1    574    562    580    567
  2538   1    574    562    580    976
  2539   1    581    563    575    551
  2540   1    581    563    575    553
  2541   1    581    563    575    569
  2542   1    575    563    581   1063
  2543   1    575    563    581     90
  2544   1    575    563    581    977
  2545   1    582    564    576    552
  2546   1    582    564    576    554
  2547   1    582    564    576    570
  2548   1    576    564    582    558
  2549   1    576    564    582    565
  2550   1    576    564    582    978
  2551   1    582    565    571    548
  2552   1    582    565    571    557
  2553   1    582    565    571   1057
  2554   1    571    565    582    558
  2555   1    571    565    582    564
  2556   1    571    565    582    978
  2557   1     68    566    572    547
  2558   1     68    566    572    556
  2559   1     68    566    572    559
  2560   1    580    567    573    549
  2561   1    580    567    573    558
  2562   1    580    567    573    561
  2563   1    573    567    580    556
  2564   1    573    567    580    562
  2565   1    573    567    580    976
  2566   1    578    568    574     43
  2567   1    578    568    574    550
  2568   1    578    568    574    562
  2569   1    574    568    578    133
  2570   1    574    568    578    554
  2571   1    574    568    578    560
  2572   1    579    569    575    551
  2573   1    579    569    575    553
  2574   1    579    569    575    563
  2575   1    575    569    579    555
  2576   1    575    569    579    561
  2577   1    575    569    579    620
  2578   1    541    570    576    552
  2579   1    541    570    576    554
  2580   1    541    570    576    564
  2581   1   1075   1057    571    548
  2582   1   1075   1057    571    557
  2583   1   1075   1057    571    565
  2584   1    643    618    577     77
  2585   1    643    618    577    553
  2586   1    643    618    577    559
  2587   1    644    620    579    555
  2588   1    644    620    579    561
  2589   1    644    620    579    569
  2590   1   1000    976    580    556
  2591   1   1000    976    580    562
  2592   1   1000    976    580    567
  2593   1   1069   1063    581    563
  2594   1   1069   1063    581     90
  2595   1   1069   1063    581    977
  2596   1   1001    977    581    563
  2597   1   1001    977    581   1063
  2598   1   1001    977    581     90
  2599   1   1002    978    582    558
  2600   1   1002    978    582    564
  2601   1   1002    978    582    565
  2602   1    541    583    607    592
  2603   1    541    583    607    594
  2604   1    541    583    607    601
  2605   1   1039    584    606    600
  2606   1   1039    584    606   1092
  2607   1   1039    584    606   1102
  2608   1    606    584   1039   1016
  2609   1    606    584   1039   1021
  2610   1    606    584   1039   1029
  2611   1    543    585    608    593
  2612   1    543    585    608    596
  2613   1    543    585    608    602
  2614   1    686    586    609    106
  2615   1    686    586    609    597
  2616   1    686    586    609    603
  2617   1    609    586    686    663
  2618   1    609    586    686    668
  2619   1    609    586    686    673
  2620   1    687    587    610    589
  2621   1    687    587    610    598
  2622   1    687    587    610    604
  2623   1    610    587    687    669
  2624   1    610    587    687   1169
  2625   1    610    587    687    699
  2626   1    688    588    611    590
  2627   1    688    588    611    599
  2628   1    688    588    611    605
  2629   1    611    588    688    664
  2630   1    611    588    688    670
  2631   1    611    588    688    671
  2632   1    612    589    610    587
  2633   1    612    589    610    598
  2634   1    612    589    610    604
  2635   1    610    589    612    594
  2636   1    610    589    612    654
  2637   1    610    589    612    641
  2638   1    613    590    611    588
  2639   1    613    590    611    599
  2640   1    613    590    611    605
  2641   1    611    590    613    168
  2642   1    611    590    613    595
  2643   1    611    590    613    603
  2644   1   1106    591    614    596
  2645   1   1106    591    614    604
  2646   1   1106    591    614    656
  2647   1    614    591   1106   1083
  2648   1    614    591   1106   1094
  2649   1    614    591   1106   1100
  2650   1    615    592    607    583
  2651   1    615    592    607    594
  2652   1    615    592    607    601
  2653   1    607    592    615    515
  2654   1    607    592    615    597
  2655   1    607    592    615    602
  2656   1    617    593    608    585
  2657   1    617    593    608    596
  2658   1    617    593    608    602
  2659   1    608    593    617    517
  2660   1    608    593    617    599
  2661   1    608    593    617    600
  2662   1    612    594    607    583
  2663   1    612    594    607    592
  2664   1    612    594    607    601
  2665   1    607    594    612    589
  2666   1    607    594    612    654
  2667   1    607    594    612    641
  2668   1    120    595    613    168
  2669   1    120    595    613    590
  2670   1    120    595    613    603
  2671   1    614    596    608    585
  2672   1    614    596    608    593
  2673   1    614    596    608    602
  2674   1    608    596    614    591
  2675   1    608    596    614    604
  2676   1    608    596    614    656
  2677   1    615    597    609    106
  2678   1    615    597    609    586
  2679   1    615    597    609    603
  2680   1    609    597    615    515
  2681   1    609    597    615    592
  2682   1    609    597    615    602
  2683   1    616    598    610    587
  2684   1    616    598    610    589
  2685   1    616    598    610    604
  2686   1    610    598    616    516
  2687   1    610    598    616   1098
  2688   1    610    598    616    628
  2689   1    617    599    611    588
  2690   1    617    599    611    590
  2691   1    617    599    611    605
  2692   1    611    599    617    517
  2693   1    611    599    617    593
  2694   1    611    599    617    600
  2695   1    617    600    606    584
  2696   1    617    600    606   1092
  2697   1    617    600    606   1102
  2698   1    606    600    617    517
  2699   1    606    600    617    593
  2700   1    606    600    617    599
  2701   1    130    601    607    583
  2702   1    130    601    607    592
  2703   1    130    601    607    594
  2704   1    615    602    608    585
  2705   1    615    602    608    593
  2706   1    615    602    608    596
  2707   1    608    602    615    515
  2708   1    608    602    615    592
  2709   1    608    602    615    597
  2710   1    613    603    609    106
  2711   1    613    603    609    586
  2712   1    613    603    609    597
  2713   1    609    603    613    168
  2714   1    609    603    613    590
  2715   1    609    603    613    595
  2716   1    614    604    610    587
  2717   1    614    604    610    589
  2718   1    614    604    610    598
  2719   1    610    604    614    591
  2720   1    610    604    614    596
  2721   1    610    604    614    656
  2722   1    120    605    611    588
  2723   1    120    605    611    590
  2724   1    120    605    611    599
  2725   1   1110   1092    606    584
  2726   1   1110   1092    606    600
  2727   1   1110   1092    606   1102
  2728   1   1108   1102    606    584
  2729   1   1108   1102    606    600
  2730   1   1108   1102    606   1092
  2731   1    678    654    612    589
  2732   1    678    654    612    594
  2733   1    678    654    612    641
  2734   1    647    641    612    589
  2735   1    647    641    612    594
  2736   1    647    641    612    654
  2737   1    679    656    614    591
  2738   1    679    656    614    596
  2739   1    679    656    614    604
  2740   1   1104   1098    616    516
  2741   1   1104   1098    616    598
  2742   1   1104   1098    616    628
  2743   1    642    628    616    516
  2744   1    642    628    616    598
  2745   1    642    628    616   1098
  2746   1    577    618    643    627
  2747   1    577    618    643    630
  2748   1    577    618    643    637
  2749   1   1075    619    642    628
  2750   1   1075    619    642    636
  2751   1   1075    619    642   1128
  2752   1    642    619   1075   1051
  2753   1    642    619   1075   1057
  2754   1    642    619   1075   1065
  2755   1    579    620    644    629
  2756   1    579    620    644    632
  2757   1    579    620    644    638
  2758   1    722    621    645    140
  2759   1    722    621    645    633
  2760   1    722    621    645    639
  2761   1    645    621    722    698
  2762   1    645    621    722    704
  2763   1    645    621    722    709
  2764   1    723    622    646    624
  2765   1    723    622    646    634
  2766   1    723    622    646    640
  2767   1    646    622    723     85
  2768   1    646    622    723    705
  2769   1    646    622    723   1205
  2770   1    724    623    647    625
  2771   1    724    623    647    635
  2772   1    724    623    647    641
  2773   1    647    623    724    700
  2774   1    647    623    724    706
  2775   1    647    623    724    707
  2776   1    648    624    646    622
  2777   1    648    624    646    634
  2778   1    648    624    646    640
  2779   1    646    624    648     78
  2780   1    646    624    648    630
  2781   1    646    624    648    689
  2782   1    649    625    647    623
  2783   1    649    625    647    635
  2784   1    649    625    647    641
  2785   1    647    625    649    202
  2786   1    647    625    649    631
  2787   1    647    625    649    639
  2788   1   1142    626    650    632
  2789   1   1142    626    650    640
  2790   1   1142    626    650    691
  2791   1    650    626   1142   1118
  2792   1    650    626   1142   1130
  2793   1    650    626   1142   1136
  2794   1    651    627    643    618
  2795   1    651    627    643    630
  2796   1    651    627    643    637
  2797   1    643    627    651    550
  2798   1    643    627    651    633
  2799   1    643    627    651    638
  2800   1    616    628    642    619
  2801   1    616    628    642    636
  2802   1    616    628    642   1128
  2803   1    653    629    644    620
  2804   1    653    629    644    632
  2805   1    653    629    644    638
  2806   1    644    629    653    552
  2807   1    644    629    653    635
  2808   1    644    629    653    636
  2809   1    648    630    643    618
  2810   1    648    630    643    627
  2811   1    648    630    643    637
  2812   1    643    630    648     78
  2813   1    643    630    648    624
  2814   1    643    630    648    689
  2815   1    155    631    649    202
  2816   1    155    631    649    625
  2817   1    155    631    649    639
  2818   1    650    632    644    620
  2819   1    650    632    644    629
  2820   1    650    632    644    638
  2821   1    644    632    650    626
  2822   1    644    632    650    640
  2823   1    644    632    650    691
  2824   1    651    633    645    140
  2825   1    651    633    645    621
  2826   1    651    633    645    639
  2827   1    645    633    651    550
  2828   1    645    633    651    627
  2829   1    645    633    651    638
  2830   1    652    634    646    622
  2831   1    652    634    646    624
  2832   1    652    634    646    640
  2833   1    646    634    652     84
  2834   1    646    634    652    551
  2835   1    646    634    652   1134
  2836   1    653    635    647    623
  2837   1    653    635    647    625
  2838   1    653    635    647    641
  2839   1    647    635    653    552
  2840   1    647    635    653    629
  2841   1    647    635    653    636
  2842   1    653    636    642    619
  2843   1    653    636    642    628
  2844   1    653    636    642   1128
  2845   1    642    636    653    552
  2846   1    642    636    653    629
  2847   1    642    636    653    635
  2848   1    165    637    643    618
  2849   1    165    637    643    627
  2850   1    165    637    643    630
  2851   1    651    638    644    620
  2852   1    651    638    644    629
  2853   1    651    638    644    632
  2854   1    644    638    651    550
  2855   1    644    638    651    627
  2856   1    644    638    651    633
  2857   1    649    639    645    140
  2858   1    649    639    645    621
  2859   1    649    639    645    633
  2860   1    645    639    649    202
  2861   1    645    639    649    625
  2862   1    645    639    649    631
  2863   1    650    640    646    622
  2864   1    650    640    646    624
  2865   1    650    640    646    634
  2866   1    646    640    650    626
  2867   1    646    640    650    632
  2868   1    646    640    650    691
  2869   1    612    641    647    623
  2870   1    612    641    647    625
  2871   1    612    641    647    635
  2872   1   1146   1128    642    619
  2873   1   1146   1128    642    628
  2874   1   1146   1128    642    636
  2875   1    714    689    648     78
  2876   1    714    689    648    624
  2877   1    714    689    648    630
  2878   1    715    691    650    626
  2879   1    715    691    650    632
  2880   1    715    691    650    640
  2881   1   1140   1134    652     84
  2882   1   1140   1134    652    551
  2883   1   1140   1134    652    634
  2884   1    612    654    678    663
  2885   1    612    654    678    665
  2886   1    612    654    678    672
  2887   1   1110    655    677    671
  2888   1   1110    655    677   1163
  2889   1   1110    655    677   1173
  2890   1    677    655   1110   1087
  2891   1    677    655   1110   1092
  2892   1    677    655   1110   1100
  2893   1    614    656    679    664
  2894   1    614    656    679    667
  2895   1    614    656    679    673
  2896   1    757    657    680    175
  2897   1    757    657    680    668
  2898   1    757    657    680    674
  2899   1    680    657    757    734
  2900   1    680    657    757    739
  2901   1    680    657    757    744
  2902   1    758    658    681    660
  2903   1    758    658    681    669
  2904   1    758    658    681    675
  2905   1    681    658    758    740
  2906   1    681    658    758   1240
  2907   1    681    658    758    770
  2908   1    759    659    682    661
  2909   1    759    659    682    670
  2910   1    759    659    682    676
  2911   1    682    659    759    735
  2912   1    682    659    759    741
  2913   1    682    659    759    742
  2914   1    683    660    681    658
  2915   1    683    660    681    669
  2916   1    683    660    681    675
  2917   1    681    660    683    665
  2918   1    681    660    683    725
  2919   1    681    660    683    712
  2920   1    684    661    682    659
  2921   1    684    661    682    670
  2922   1    684    661    682    676
  2923   1    682    661    684    237
  2924   1    682    661    684    666
  2925   1    682    661    684    674
  2926   1   1177    662    685    667
  2927   1   1177    662    685    675
  2928   1   1177    662    685    727
  2929   1    685    662   1177   1154
  2930   1    685    662   1177   1165
  2931   1    685    662   1177   1171
  2932   1    686    663    678    654
  2933   1    686    663    678    665
  2934   1    686    663    678    672
  2935   1    678    663    686    586
  2936   1    678    663    686    668
  2937   1    678    663    686    673
  2938   1    688    664    679    656
  2939   1    688    664    679    667
  2940   1    688    664    679    673
  2941   1    679    664    688    588
  2942   1    679    664    688    670
  2943   1    679    664    688    671
  2944   1    683    665    678    654
  2945   1    683    665    678    663
  2946   1    683    665    678    672
  2947   1    678    665    683    660
  2948   1    678    665    683    725
  2949   1    678    665    683    712
  2950   1    189    666    684    237
  2951   1    189    666    684    661
  2952   1    189    666    684    674
  2953   1    685    667    679    656
  2954   1    685    667    679    664
  2955   1    685    667    679    673
  2956   1    679    667    685    662
  2957   1    679    667    685    675
  2958   1    679    667    685    727
  2959   1    686    668    680    175
  2960   1    686    668    680    657
  2961   1    686    668    680    674
  2962   1    680    668    686    586
  2963   1    680    668    686    663
  2964   1    680    668    686    673
  2965   1    687    669    681    658
  2966   1    687    669    681    660
  2967   1    687    669    681    675
  2968   1    681    669    687    587
  2969   1    681    669    687   1169
  2970   1    681    669    687    699
  2971   1    688    670    682    659
  2972   1    688    670    682    661
  2973   1    688    670    682    676
  2974   1    682    670    688    588
  2975   1    682    670    688    664
  2976   1    682    670    688    671
  2977   1    688    671    677    655
  2978   1    688    671    677   1163
  2979   1    688    671    677   1173
  2980   1    677    671    688    588
  2981   1    677    671    688    664
  2982   1    677    671    688    670
  2983   1    199    672    678    654
  2984   1    199    672    678    663
  2985   1    199    672    678    665
  2986   1    686    673    679    656
  2987   1    686    673    679    664
  2988   1    686    673    679    667
  2989   1    679    673    686    586
  2990   1    679    673    686    663
  2991   1    679    673    686    668
  2992   1    684    674    680    175
  2993   1    684    674    680    657
  2994   1    684    674    680    668
  2995   1    680    674    684    237
  2996   1    680    674    684    661
  2997   1    680    674    684    666
  2998   1    685    675    681    658
  2999   1    685    675    681    660
  3000   1    685    675    681    669
  3001   1    681    675    685    662
  3002   1    681    675    685    667
  3003   1    681    675    685    727
  3004   1    189    676    682    659
  3005   1    189    676    682    661
  3006   1    189    676    682    670
  3007   1   1181   1163    677    655
  3008   1   1181   1163    677    671
  3009   1   1181   1163    677   1173
  3010   1   1179   1173    677    655
  3011   1   1179   1173    677    671
  3012   1   1179   1173    677   1163
  3013   1    749    725    683    660
  3014   1    749    725    683    665
  3015   1    749    725    683    712
  3016   1    718    712    683    660
  3017   1    718    712    683    665
  3018   1    718    712    683    725
  3019   1    750    727    685    662
  3020   1    750    727    685    667
  3021   1    750    727    685    675
  3022   1   1175   1169    687    587
  3023   1   1175   1169    687    669
  3024   1   1175   1169    687    699
  3025   1    713    699    687    587
  3026   1    713    699    687    669
  3027   1    713    699    687   1169
  3028   1    648    689    714    698
  3029   1    648    689    714    701
  3030   1    648    689    714    708
  3031   1   1146    690    713    699
  3032   1   1146    690    713    707
  3033   1   1146    690    713   1199
  3034   1    713    690   1146   1122
  3035   1    713    690   1146   1128
  3036   1    713    690   1146   1136
  3037   1    650    691    715    700
  3038   1    650    691    715    703
  3039   1    650    691    715    709
  3040   1    793    692    716    209
  3041   1    793    692    716    704
  3042   1    793    692    716    710
  3043   1    716    692    793    769
  3044   1    716    692    793    775
  3045   1    716    692    793    780
  3046   1    794    693    717    695
  3047   1    794    693    717    705
  3048   1    794    693    717    711
  3049   1    717    693    794     86
  3050   1    717    693    794    776
  3051   1    717    693    794   1276
  3052   1    795    694    718    696
  3053   1    795    694    718    706
  3054   1    795    694    718    712
  3055   1    718    694    795    771
  3056   1    718    694    795    777
  3057   1    718    694    795    778
  3058   1    719    695    717    693
  3059   1    719    695    717    705
  3060   1    719    695    717    711
  3061   1    717    695    719     79
  3062   1    717    695    719    701
  3063   1    717    695    719    760
  3064   1    720    696    718    694
  3065   1    720    696    718    706
  3066   1    720    696    718    712
  3067   1    718    696    720    271
  3068   1    718    696    720    702
  3069   1    718    696    720    710
  3070   1   1213    697    721    703
  3071   1   1213    697    721    711
  3072   1   1213    697    721    762
  3073   1    721    697   1213   1189
  3074   1    721    697   1213   1201
  3075   1    721    697   1213   1207
  3076   1    722    698    714    689
  3077   1    722    698    714    701
  3078   1    722    698    714    708
  3079   1    714    698    722    621
  3080   1    714    698    722    704
  3081   1    714    698    722    709
  3082   1    687    699    713    690
  3083   1    687    699    713    707
  3084   1    687    699    713   1199
  3085   1    724    700    715    691
  3086   1    724    700    715    703
  3087   1    724    700    715    709
  3088   1    715    700    724    623
  3089   1    715    700    724    706
  3090   1    715    700    724    707
  3091   1    719    701    714    689
  3092   1    719    701    714    698
  3093   1    719    701    714    708
  3094   1    714    701    719     79
  3095   1    714    701    719    695
  3096   1    714    701    719    760
  3097   1    224    702    720    271
  3098   1    224    702    720    696
  3099   1    224    702    720    710
  3100   1    721    703    715    691
  3101   1    721    703    715    700
  3102   1    721    703    715    709
  3103   1    715    703    721    697
  3104   1    715    703    721    711
  3105   1    715    703    721    762
  3106   1    722    704    716    209
  3107   1    722    704    716    692
  3108   1    722    704    716    710
  3109   1    716    704    722    621
  3110   1    716    704    722    698
  3111   1    716    704    722    709
  3112   1    723    705    717    693
  3113   1    723    705    717    695
  3114   1    723    705    717    711
  3115   1    717    705    723     85
  3116   1    717    705    723    622
  3117   1    717    705    723   1205
  3118   1    724    706    718    694
  3119   1    724    706    718    696
  3120   1    724    706    718    712
  3121   1    718    706    724    623
  3122   1    718    706    724    700
  3123   1    718    706    724    707
  3124   1    724    707    713    690
  3125   1    724    707    713    699
  3126   1    724    707    713   1199
  3127   1    713    707    724    623
  3128   1    713    707    724    700
  3129   1    713    707    724    706
  3130   1    234    708    714    689
  3131   1    234    708    714    698
  3132   1    234    708    714    701
  3133   1    722    709    715    691
  3134   1    722    709    715    700
  3135   1    722    709    715    703
  3136   1    715    709    722    621
  3137   1    715    709    722    698
  3138   1    715    709    722    704
  3139   1    720    710    716    209
  3140   1    720    710    716    692
  3141   1    720    710    716    704
  3142   1    716    710    720    271
  3143   1    716    710    720    696
  3144   1    716    710    720    702
  3145   1    721    711    717    693
  3146   1    721    711    717    695
  3147   1    721    711    717    705
  3148   1    717    711    721    697
  3149   1    717    711    721    703
  3150   1    717    711    721    762
  3151   1    683    712    718    694
  3152   1    683    712    718    696
  3153   1    683    712    718    706
  3154   1   1217   1199    713    690
  3155   1   1217   1199    713    699
  3156   1   1217   1199    713    707
  3157   1    785    760    719     79
  3158   1    785    760    719    695
  3159   1    785    760    719    701
  3160   1    786    762    721    697
  3161   1    786    762    721    703
  3162   1    786    762    721    711
  3163   1   1211   1205    723     85
  3164   1   1211   1205    723    622
  3165   1   1211   1205    723    705
  3166   1    683    725    749    734
  3167   1    683    725    749    736
  3168   1    683    725    749    743
  3169   1   1181    726    748    742
  3170   1   1181    726    748   1234
  3171   1   1181    726    748   1244
  3172   1    748    726   1181   1158
  3173   1    748    726   1181   1163
  3174   1    748    726   1181   1171
  3175   1    685    727    750    735
  3176   1    685    727    750    738
  3177   1    685    727    750    744
  3178   1    828    728    751    244
  3179   1    828    728    751    739
  3180   1    828    728    751    745
  3181   1    751    728    828    805
  3182   1    751    728    828    810
  3183   1    751    728    828    815
  3184   1    829    729    752    731
  3185   1    829    729    752    740
  3186   1    829    729    752    746
  3187   1    752    729    829    811
  3188   1    752    729    829   1311
  3189   1    752    729    829    841
  3190   1    830    730    753    732
  3191   1    830    730    753    741
  3192   1    830    730    753    747
  3193   1    753    730    830    806
  3194   1    753    730    830    812
  3195   1    753    730    830    813
  3196   1    754    731    752    729
  3197   1    754    731    752    740
  3198   1    754    731    752    746
  3199   1    752    731    754    736
  3200   1    752    731    754    796
  3201   1    752    731    754    783
  3202   1    755    732    753    730
  3203   1    755    732    753    741
  3204   1    755    732    753    747
  3205   1    753    732    755    306
  3206   1    753    732    755    737
  3207   1    753    732    755    745
  3208   1   1248    733    756    738
  3209   1   1248    733    756    746
  3210   1   1248    733    756    798
  3211   1    756    733   1248   1225
  3212   1    756    733   1248   1236
  3213   1    756    733   1248   1242
  3214   1    757    734    749    725
  3215   1    757    734    749    736
  3216   1    757    734    749    743
  3217   1    749    734    757    657
  3218   1    749    734    757    739
  3219   1    749    734    757    744
  3220   1    759    735    750    727
  3221   1    759    735    750    738
  3222   1    759    735    750    744
  3223   1    750    735    759    659
  3224   1    750    735    759    741
  3225   1    750    735    759    742
  3226   1    754    736    749    725
  3227   1    754    736    749    734
  3228   1    754    736    749    743
  3229   1    749    736    754    731
  3230   1    749    736    754    796
  3231   1    749    736    754    783
  3232   1    258    737    755    306
  3233   1    258    737    755    732
  3234   1    258    737    755    745
  3235   1    756    738    750    727
  3236   1    756    738    750    735
  3237   1    756    738    750    744
  3238   1    750    738    756    733
  3239   1    750    738    756    746
  3240   1    750    738    756    798
  3241   1    757    739    751    244
  3242   1    757    739    751    728
  3243   1    757    739    751    745
  3244   1    751    739    757    657
  3245   1    751    739    757    734
  3246   1    751    739    757    744
  3247   1    758    740    752    729
  3248   1    758    740    752    731
  3249   1    758    740    752    746
  3250   1    752    740    758    658
  3251   1    752    740    758   1240
  3252   1    752    740    758    770
  3253   1    759    741    753    730
  3254   1    759    741    753    732
  3255   1    759    741    753    747
  3256   1    753    741    759    659
  3257   1    753    741    759    735
  3258   1    753    741    759    742
  3259   1    759    742    748    726
  3260   1    759    742    748   1234
  3261   1    759    742    748   1244
  3262   1    748    742    759    659
  3263   1    748    742    759    735
  3264   1    748    742    759    741
  3265   1    268    743    749    725
  3266   1    268    743    749    734
  3267   1    268    743    749    736
  3268   1    757    744    750    727
  3269   1    757    744    750    735
  3270   1    757    744    750    738
  3271   1    750    744    757    657
  3272   1    750    744    757    734
  3273   1    750    744    757    739
  3274   1    755    745    751    244
  3275   1    755    745    751    728
  3276   1    755    745    751    739
  3277   1    751    745    755    306
  3278   1    751    745    755    732
  3279   1    751    745    755    737
  3280   1    756    746    752    729
  3281   1    756    746    752    731
  3282   1    756    746    752    740
  3283   1    752    746    756    733
  3284   1    752    746    756    738
  3285   1    752    746    756    798
  3286   1    258    747    753    730
  3287   1    258    747    753    732
  3288   1    258    747    753    741
  3289   1   1252   1234    748    726
  3290   1   1252   1234    748    742
  3291   1   1252   1234    748   1244
  3292   1   1250   1244    748    726
  3293   1   1250   1244    748    742
  3294   1   1250   1244    748   1234
  3295   1    820    796    754    731
  3296   1    820    796    754    736
  3297   1    820    796    754    783
  3298   1    789    783    754    731
  3299   1    789    783    754    736
  3300   1    789    783    754    796
  3301   1    821    798    756    733
  3302   1    821    798    756    738
  3303   1    821    798    756    746
  3304   1   1246   1240    758    658
  3305   1   1246   1240    758    740
  3306   1   1246   1240    758    770
  3307   1    784    770    758    658
  3308   1    784    770    758    740
  3309   1    784    770    758   1240
  3310   1    719    760    785    769
  3311   1    719    760    785    772
  3312   1    719    760    785    779
  3313   1   1217    761    784    770
  3314   1   1217    761    784    778
  3315   1   1217    761    784   1270
  3316   1    784    761   1217   1193
  3317   1    784    761   1217   1199
  3318   1    784    761   1217   1207
  3319   1    721    762    786    771
  3320   1    721    762    786    774
  3321   1    721    762    786    780
  3322   1    864    763    787    278
  3323   1    864    763    787    775
  3324   1    864    763    787    781
  3325   1    787    763    864    840
  3326   1    787    763    864    846
  3327   1    787    763    864    851
  3328   1    865    764    788    766
  3329   1    865    764    788    776
  3330   1    865    764    788    782
  3331   1    788    764    865     87
  3332   1    788    764    865    847
  3333   1    788    764    865   1347
  3334   1    866    765    789    767
  3335   1    866    765    789    777
  3336   1    866    765    789    783
  3337   1    789    765    866    842
  3338   1    789    765    866    848
  3339   1    789    765    866    849
  3340   1    790    766    788    764
  3341   1    790    766    788    776
  3342   1    790    766    788    782
  3343   1    788    766    790     80
  3344   1    788    766    790    772
  3345   1    788    766    790    831
  3346   1    791    767    789    765
  3347   1    791    767    789    777
  3348   1    791    767    789    783
  3349   1    789    767    791    340
  3350   1    789    767    791    773
  3351   1    789    767    791    781
  3352   1   1284    768    792    774
  3353   1   1284    768    792    782
  3354   1   1284    768    792    833
  3355   1    792    768   1284   1260
  3356   1    792    768   1284   1272
  3357   1    792    768   1284   1278
  3358   1    793    769    785    760
  3359   1    793    769    785    772
  3360   1    793    769    785    779
  3361   1    785    769    793    692
  3362   1    785    769    793    775
  3363   1    785    769    793    780
  3364   1    758    770    784    761
  3365   1    758    770    784    778
  3366   1    758    770    784   1270
  3367   1    795    771    786    762
  3368   1    795    771    786    774
  3369   1    795    771    786    780
  3370   1    786    771    795    694
  3371   1    786    771    795    777
  3372   1    786    771    795    778
  3373   1    790    772    785    760
  3374   1    790    772    785    769
  3375   1    790    772    785    779
  3376   1    785    772    790     80
  3377   1    785    772    790    766
  3378   1    785    772    790    831
  3379   1    293    773    791    340
  3380   1    293    773    791    767
  3381   1    293    773    791    781
  3382   1    792    774    786    762
  3383   1    792    774    786    771
  3384   1    792    774    786    780
  3385   1    786    774    792    768
  3386   1    786    774    792    782
  3387   1    786    774    792    833
  3388   1    793    775    787    278
  3389   1    793    775    787    763
  3390   1    793    775    787    781
  3391   1    787    775    793    692
  3392   1    787    775    793    769
  3393   1    787    775    793    780
  3394   1    794    776    788    764
  3395   1    794    776    788    766
  3396   1    794    776    788    782
  3397   1    788    776    794     86
  3398   1    788    776    794    693
  3399   1    788    776    794   1276
  3400   1    795    777    789    765
  3401   1    795    777    789    767
  3402   1    795    777    789    783
  3403   1    789    777    795    694
  3404   1    789    777    795    771
  3405   1    789    777    795    778
  3406   1    795    778    784    761
  3407   1    795    778    784    770
  3408   1    795    778    784   1270
  3409   1    784    778    795    694
  3410   1    784    778    795    771
  3411   1    784    778    795    777
  3412   1    303    779    785    760
  3413   1    303    779    785    769
  3414   1    303    779    785    772
  3415   1    793    780    786    762
  3416   1    793    780    786    771
  3417   1    793    780    786    774
  3418   1    786    780    793    692
  3419   1    786    780    793    769
  3420   1    786    780    793    775
  3421   1    791    781    787    278
  3422   1    791    781    787    763
  3423   1    791    781    787    775
  3424   1    787    781    791    340
  3425   1    787    781    791    767
  3426   1    787    781    791    773
  3427   1    792    782    788    764
  3428   1    792    782    788    766
  3429   1    792    782    788    776
  3430   1    788    782    792    768
  3431   1    788    782    792    774
  3432   1    788    782    792    833
  3433   1    754    783    789    765
  3434   1    754    783    789    767
  3435   1    754    783    789    777
  3436   1   1288   1270    784    761
  3437   1   1288   1270    784    770
  3438   1   1288   1270    784    778
  3439   1    856    831    790     80
  3440   1    856    831    790    766
  3441   1    856    831    790    772
  3442   1    857    833    792    768
  3443   1    857    833    792    774
  3444   1    857    833    792    782
  3445   1   1282   1276    794     86
  3446   1   1282   1276    794    693
  3447   1   1282   1276    794    776
  3448   1    754    796    820    805
  3449   1    754    796    820    807
  3450   1    754    796    820    814
  3451   1   1252    797    819    813
  3452   1   1252    797    819   1305
  3453   1   1252    797    819   1315
  3454   1    819    797   1252   1229
  3455   1    819    797   1252   1234
  3456   1    819    797   1252   1242
  3457   1    756    798    821    806
  3458   1    756    798    821    809
  3459   1    756    798    821    815
  3460   1    899    799    822    313
  3461   1    899    799    822    810
  3462   1    899    799    822    816
  3463   1    822    799    899    876
  3464   1    822    799    899    881
  3465   1    822    799    899    886
  3466   1    900    800    823    802
  3467   1    900    800    823    811
  3468   1    900    800    823    817
  3469   1    823    800    900    882
  3470   1    823    800    900   1382
  3471   1    823    800    900    912
  3472   1    901    801    824    803
  3473   1    901    801    824    812
  3474   1    901    801    824    818
  3475   1    824    801    901    877
  3476   1    824    801    901    883
  3477   1    824    801    901    884
  3478   1    825    802    823    800
  3479   1    825    802    823    811
  3480   1    825    802    823    817
  3481   1    823    802    825    807
  3482   1    823    802    825    867
  3483   1    823    802    825    854
  3484   1    826    803    824    801
  3485   1    826    803    824    812
  3486   1    826    803    824    818
  3487   1    824    803    826    375
  3488   1    824    803    826    808
  3489   1    824    803    826    816
  3490   1   1319    804    827    809
  3491   1   1319    804    827    817
  3492   1   1319    804    827    869
  3493   1    827    804   1319   1296
  3494   1    827    804   1319   1307
  3495   1    827    804   1319   1313
  3496   1    828    805    820    796
  3497   1    828    805    820    807
  3498   1    828    805    820    814
  3499   1    820    805    828    728
  3500   1    820    805    828    810
  3501   1    820    805    828    815
  3502   1    830    806    821    798
  3503   1    830    806    821    809
  3504   1    830    806    821    815
  3505   1    821    806    830    730
  3506   1    821    806    830    812
  3507   1    821    806    830    813
  3508   1    825    807    820    796
  3509   1    825    807    820    805
  3510   1    825    807    820    814
  3511   1    820    807    825    802
  3512   1    820    807    825    867
  3513   1    820    807    825    854
  3514   1    327    808    826    375
  3515   1    327    808    826    803
  3516   1    327    808    826    816
  3517   1    827    809    821    798
  3518   1    827    809    821    806
  3519   1    827    809    821    815
  3520   1    821    809    827    804
  3521   1    821    809    827    817
  3522   1    821    809    827    869
  3523   1    828    810    822    313
  3524   1    828    810    822    799
  3525   1    828    810    822    816
  3526   1    822    810    828    728
  3527   1    822    810    828    805
  3528   1    822    810    828    815
  3529   1    829    811    823    800
  3530   1    829    811    823    802
  3531   1    829    811    823    817
  3532   1    823    811    829    729
  3533   1    823    811    829   1311
  3534   1    823    811    829    841
  3535   1    830    812    824    801
  3536   1    830    812    824    803
  3537   1    830    812    824    818
  3538   1    824    812    830    730
  3539   1    824    812    830    806
  3540   1    824    812    830    813
  3541   1    830    813    819    797
  3542   1    830    813    819   1305
  3543   1    830    813    819   1315
  3544   1    819    813    830    730
  3545   1    819    813    830    806
  3546   1    819    813    830    812
  3547   1    337    814    820    796
  3548   1    337    814    820    805
  3549   1    337    814    820    807
  3550   1    828    815    821    798
  3551   1    828    815    821    806
  3552   1    828    815    821    809
  3553   1    821    815    828    728
  3554   1    821    815    828    805
  3555   1    821    815    828    810
  3556   1    826    816    822    313
  3557   1    826    816    822    799
  3558   1    826    816    822    810
  3559   1    822    816    826    375
  3560   1    822    816    826    803
  3561   1    822    816    826    808
  3562   1    827    817    823    800
  3563   1    827    817    823    802
  3564   1    827    817    823    811
  3565   1    823    817    827    804
  3566   1    823    817    827    809
  3567   1    823    817    827    869
  3568   1    327    818    824    801
  3569   1    327    818    824    803
  3570   1    327    818    824    812
  3571   1   1323   1305    819    797
  3572   1   1323   1305    819    813
  3573   1   1323   1305    819   1315
  3574   1   1321   1315    819    797
  3575   1   1321   1315    819    813
  3576   1   1321   1315    819   1305
  3577   1    891    867    825    802
  3578   1    891    867    825    807
  3579   1    891    867    825    854
  3580   1    860    854    825    802
  3581   1    860    854    825    807
  3582   1    860    854    825    867
  3583   1    892    869    827    804
  3584   1    892    869    827    809
  3585   1    892    869    827    817
  3586   1   1317   1311    829    729
  3587   1   1317   1311    829    811
  3588   1   1317   1311    829    841
  3589   1    855    841    829    729
  3590   1    855    841    829    811
  3591   1    855    841    829   1311
  3592   1    790    831    856    840
  3593   1    790    831    856    843
  3594   1    790    831    856    850
  3595   1   1288    832    855    841
  3596   1   1288    832    855    849
  3597   1   1288    832    855   1341
  3598   1    855    832   1288   1264
  3599   1    855    832   1288   1270
  3600   1    855    832   1288   1278
  3601   1    792    833    857    842
  3602   1    792    833    857    845
  3603   1    792    833    857    851
  3604   1    935    834    858    347
  3605   1    935    834    858    846
  3606   1    935    834    858    852
  3607   1    858    834    935    911
  3608   1    858    834    935    917
  3609   1    858    834    935    922
  3610   1    936    835    859    837
  3611   1    936    835    859    847
  3612   1    936    835    859    853
  3613   1    859    835    936     88
  3614   1    859    835    936    918
  3615   1    859    835    936   1418
  3616   1    937    836    860    838
  3617   1    937    836    860    848
  3618   1    937    836    860    854
  3619   1    860    836    937    913
  3620   1    860    836    937    919
  3621   1    860    836    937    920
  3622   1    861    837    859    835
  3623   1    861    837    859    847
  3624   1    861    837    859    853
  3625   1    859    837    861     81
  3626   1    859    837    861    843
  3627   1    859    837    861    902
  3628   1    862    838    860    836
  3629   1    862    838    860    848
  3630   1    862    838    860    854
  3631   1    860    838    862    409
  3632   1    860    838    862    844
  3633   1    860    838    862    852
  3634   1   1355    839    863    845
  3635   1   1355    839    863    853
  3636   1   1355    839    863    904
  3637   1    863    839   1355   1331
  3638   1    863    839   1355   1343
  3639   1    863    839   1355   1349
  3640   1    864    840    856    831
  3641   1    864    840    856    843
  3642   1    864    840    856    850
  3643   1    856    840    864    763
  3644   1    856    840    864    846
  3645   1    856    840    864    851
  3646   1    829    841    855    832
  3647   1    829    841    855    849
  3648   1    829    841    855   1341
  3649   1    866    842    857    833
  3650   1    866    842    857    845
  3651   1    866    842    857    851
  3652   1    857    842    866    765
  3653   1    857    842    866    848
  3654   1    857    842    866    849
  3655   1    861    843    856    831
  3656   1    861    843    856    840
  3657   1    861    843    856    850
  3658   1    856    843    861     81
  3659   1    856    843    861    837
  3660   1    856    843    861    902
  3661   1    362    844    862    409
  3662   1    362    844    862    838
  3663   1    362    844    862    852
  3664   1    863    845    857    833
  3665   1    863    845    857    842
  3666   1    863    845    857    851
  3667   1    857    845    863    839
  3668   1    857    845    863    853
  3669   1    857    845    863    904
  3670   1    864    846    858    347
  3671   1    864    846    858    834
  3672   1    864    846    858    852
  3673   1    858    846    864    763
  3674   1    858    846    864    840
  3675   1    858    846    864    851
  3676   1    865    847    859    835
  3677   1    865    847    859    837
  3678   1    865    847    859    853
  3679   1    859    847    865     87
  3680   1    859    847    865    764
  3681   1    859    847    865   1347
  3682   1    866    848    860    836
  3683   1    866    848    860    838
  3684   1    866    848    860    854
  3685   1    860    848    866    765
  3686   1    860    848    866    842
  3687   1    860    848    866    849
  3688   1    866    849    855    832
  3689   1    866    849    855    841
  3690   1    866    849    855   1341
  3691   1    855    849    866    765
  3692   1    855    849    866    842
  3693   1    855    849    866    848
  3694   1    372    850    856    831
  3695   1    372    850    856    840
  3696   1    372    850    856    843
  3697   1    864    851    857    833
  3698   1    864    851    857    842
  3699   1    864    851    857    845
  3700   1    857    851    864    763
  3701   1    857    851    864    840
  3702   1    857    851    864    846
  3703   1    862    852    858    347
  3704   1    862    852    858    834
  3705   1    862    852    858    846
  3706   1    858    852    862    409
  3707   1    858    852    862    838
  3708   1    858    852    862    844
  3709   1    863    853    859    835
  3710   1    863    853    859    837
  3711   1    863    853    859    847
  3712   1    859    853    863    839
  3713   1    859    853    863    845
  3714   1    859    853    863    904
  3715   1    825    854    860    836
  3716   1    825    854    860    838
  3717   1    825    854    860    848
  3718   1   1359   1341    855    832
  3719   1   1359   1341    855    841
  3720   1   1359   1341    855    849
  3721   1    927    902    861     81
  3722   1    927    902    861    837
  3723   1    927    902    861    843
  3724   1    928    904    863    839
  3725   1    928    904    863    845
  3726   1    928    904    863    853
  3727   1   1353   1347    865     87
  3728   1   1353   1347    865    764
  3729   1   1353   1347    865    847
  3730   1    825    867    891    876
  3731   1    825    867    891    878
  3732   1    825    867    891    885
  3733   1   1323    868    890    884
  3734   1   1323    868    890   1376
  3735   1   1323    868    890   1386
  3736   1    890    868   1323   1300
  3737   1    890    868   1323   1305
  3738   1    890    868   1323   1313
  3739   1    827    869    892    877
  3740   1    827    869    892    880
  3741   1    827    869    892    886
  3742   1    970    870    893    382
  3743   1    970    870    893    881
  3744   1    970    870    893    887
  3745   1    893    870    970    947
  3746   1    893    870    970    952
  3747   1    893    870    970    957
  3748   1    971    871    894    873
  3749   1    971    871    894    882
  3750   1    971    871    894    888
  3751   1    894    871    971    953
  3752   1    894    871    971   1453
  3753   1    894    871    971    983
  3754   1    972    872    895    874
  3755   1    972    872    895    883
  3756   1    972    872    895    889
  3757   1    895    872    972    948
  3758   1    895    872    972    954
  3759   1    895    872    972    955
  3760   1    896    873    894    871
  3761   1    896    873    894    882
  3762   1    896    873    894    888
  3763   1    894    873    896    878
  3764   1    894    873    896    938
  3765   1    894    873    896    925
  3766   1    897    874    895    872
  3767   1    897    874    895    883
  3768   1    897    874    895    889
  3769   1    895    874    897    444
  3770   1    895    874    897    879
  3771   1    895    874    897    887
  3772   1   1390    875    898    880
  3773   1   1390    875    898    888
  3774   1   1390    875    898    940
  3775   1    898    875   1390   1367
  3776   1    898    875   1390   1378
  3777   1    898    875   1390   1384
  3778   1    899    876    891    867
  3779   1    899    876    891    878
  3780   1    899    876    891    885
  3781   1    891    876    899    799
  3782   1    891    876    899    881
  3783   1    891    876    899    886
  3784   1    901    877    892    869
  3785   1    901    877    892    880
  3786   1    901    877    892    886
  3787   1    892    877    901    801
  3788   1    892    877    901    883
  3789   1    892    877    901    884
  3790   1    896    878    891    867
  3791   1    896    878    891    876
  3792   1    896    878    891    885
  3793   1    891    878    896    873
  3794   1    891    878    896    938
  3795   1    891    878    896    925
  3796   1    396    879    897    444
  3797   1    396    879    897    874
  3798   1    396    879    897    887
  3799   1    898    880    892    869
  3800   1    898    880    892    877
  3801   1    898    880    892    886
  3802   1    892    880    898    875
  3803   1    892    880    898    888
  3804   1    892    880    898    940
  3805   1    899    881    893    382
  3806   1    899    881    893    870
  3807   1    899    881    893    887
  3808   1    893    881    899    799
  3809   1    893    881    899    876
  3810   1    893    881    899    886
  3811   1    900    882    894    871
  3812   1    900    882    894    873
  3813   1    900    882    894    888
  3814   1    894    882    900    800
  3815   1    894    882    900   1382
  3816   1    894    882    900    912
  3817   1    901    883    895    872
  3818   1    901    883    895    874
  3819   1    901    883    895    889
  3820   1    895    883    901    801
  3821   1    895    883    901    877
  3822   1    895    883    901    884
  3823   1    901    884    890    868
  3824   1    901    884    890   1376
  3825   1    901    884    890   1386
  3826   1    890    884    901    801
  3827   1    890    884    901    877
  3828   1    890    884    901    883
  3829   1    406    885    891    867
  3830   1    406    885    891    876
  3831   1    406    885    891    878
  3832   1    899    886    892    869
  3833   1    899    886    892    877
  3834   1    899    886    892    880
  3835   1    892    886    899    799
  3836   1    892    886    899    876
  3837   1    892    886    899    881
  3838   1    897    887    893    382
  3839   1    897    887    893    870
  3840   1    897    887    893    881
  3841   1    893    887    897    444
  3842   1    893    887    897    874
  3843   1    893    887    897    879
  3844   1    898    888    894    871
  3845   1    898    888    894    873
  3846   1    898    888    894    882
  3847   1    894    888    898    875
  3848   1    894    888    898    880
  3849   1    894    888    898    940
  3850   1    396    889    895    872
  3851   1    396    889    895    874
  3852   1    396    889    895    883
  3853   1   1394   1376    890    868
  3854   1   1394   1376    890    884
  3855   1   1394   1376    890   1386
  3856   1   1392   1386    890    868
  3857   1   1392   1386    890    884
  3858   1   1392   1386    890   1376
  3859   1    962    938    896    873
  3860   1    962    938    896    878
  3861   1    962    938    896    925
  3862   1    931    925    896    873
  3863   1    931    925    896    878
  3864   1    931    925    896    938
  3865   1    963    940    898    875
  3866   1    963    940    898    880
  3867   1    963    940    898    888
  3868   1   1388   1382    900    800
  3869   1   1388   1382    900    882
  3870   1   1388   1382    900    912
  3871   1    926    912    900    800
  3872   1    926    912    900    882
  3873   1    926    912    900   1382
  3874   1    861    902    927    911
  3875   1    861    902    927    914
  3876   1    861    902    927    921
  3877   1   1359    903    926    912
  3878   1   1359    903    926    920
  3879   1   1359    903    926   1412
  3880   1    926    903   1359   1335
  3881   1    926    903   1359   1341
  3882   1    926    903   1359   1349
  3883   1    863    904    928    913
  3884   1    863    904    928    916
  3885   1    863    904    928    922
  3886   1   1006    905    929    416
  3887   1   1006    905    929    917
  3888   1   1006    905    929    923
  3889   1    929    905   1006    982
  3890   1    929    905   1006    988
  3891   1    929    905   1006    993
  3892   1   1007    906    930    908
  3893   1   1007    906    930    918
  3894   1   1007    906    930    924
  3895   1    930    906   1007     89
  3896   1    930    906   1007    989
  3897   1    930    906   1007   1489
  3898   1   1008    907    931    909
  3899   1   1008    907    931    919
  3900   1   1008    907    931    925
  3901   1    931    907   1008    984
  3902   1    931    907   1008    990
  3903   1    931    907   1008    991
  3904   1    932    908    930    906
  3905   1    932    908    930    918
  3906   1    932    908    930    924
  3907   1    930    908    932     82
  3908   1    930    908    932    914
  3909   1    930    908    932    973
  3910   1    933    909    931    907
  3911   1    933    909    931    919
  3912   1    933    909    931    925
  3913   1    931    909    933    478
  3914   1    931    909    933    915
  3915   1    931    909    933    923
  3916   1   1426    910    934    916
  3917   1   1426    910    934    924
  3918   1   1426    910    934    975
  3919   1    934    910   1426   1402
  3920   1    934    910   1426   1414
  3921   1    934    910   1426   1420
  3922   1    935    911    927    902
  3923   1    935    911    927    914
  3924   1    935    911    927    921
  3925   1    927    911    935    834
  3926   1    927    911    935    917
  3927   1    927    911    935    922
  3928   1    900    912    926    903
  3929   1    900    912    926    920
  3930   1    900    912    926   1412
  3931   1    937    913    928    904
  3932   1    937    913    928    916
  3933   1    937    913    928    922
  3934   1    928    913    937    836
  3935   1    928    913    937    919
  3936   1    928    913    937    920
  3937   1    932    914    927    902
  3938   1    932    914    927    911
  3939   1    932    914    927    921
  3940   1    927    914    932     82
  3941   1    927    914    932    908
  3942   1    927    914    932    973
  3943   1    431    915    933    478
  3944   1    431    915    933    909
  3945   1    431    915    933    923
  3946   1    934    916    928    904
  3947   1    934    916    928    913
  3948   1    934    916    928    922
  3949   1    928    916    934    910
  3950   1    928    916    934    924
  3951   1    928    916    934    975
  3952   1    935    917    929    416
  3953   1    935    917    929    905
  3954   1    935    917    929    923
  3955   1    929    917    935    834
  3956   1    929    917    935    911
  3957   1    929    917    935    922
  3958   1    936    918    930    906
  3959   1    936    918    930    908
  3960   1    936    918    930    924
  3961   1    930    918    936     88
  3962   1    930    918    936    835
  3963   1    930    918    936   1418
  3964   1    937    919    931    907
  3965   1    937    919    931    909
  3966   1    937    919    931    925
  3967   1    931    919    937    836
  3968   1    931    919    937    913
  3969   1    931    919    937    920
  3970   1    937    920    926    903
  3971   1    937    920    926    912
  3972   1    937    920    926   1412
  3973   1    926    920    937    836
  3974   1    926    920    937    913
  3975   1    926    920    937    919
  3976   1    441    921    927    902
  3977   1    441    921    927    911
  3978   1    441    921    927    914
  3979   1    935    922    928    904
  3980   1    935    922    928    913
  3981   1    935    922    928    916
  3982   1    928    922    935    834
  3983   1    928    922    935    911
  3984   1    928    922    935    917
  3985   1    933    923    929    416
  3986   1    933    923    929    905
  3987   1    933    923    929    917
  3988   1    929    923    933    478
  3989   1    929    923    933    909
  3990   1    929    923    933    915
  3991   1    934    924    930    906
  3992   1    934    924    930    908
  3993   1    934    924    930    918
  3994   1    930    924    934    910
  3995   1    930    924    934    916
  3996   1    930    924    934    975
  3997   1    896    925    931    907
  3998   1    896    925    931    909
  3999   1    896    925    931    919
  4000   1   1430   1412    926    903
  4001   1   1430   1412    926    912
  4002   1   1430   1412    926    920
  4003   1    998    973    932     82
  4004   1    998    973    932    908
  4005   1    998    973    932    914
  4006   1    999    975    934    910
  4007   1    999    975    934    916
  4008   1    999    975    934    924
  4009   1   1424   1418    936     88
  4010   1   1424   1418    936    835
  4011   1   1424   1418    936    918
  4012   1    896    938    962    947
  4013   1    896    938    962    949
  4014   1    896    938    962    956
  4015   1   1394    939    961    955
  4016   1   1394    939    961   1447
  4017   1   1394    939    961   1457
  4018   1    961    939   1394   1371
  4019   1    961    939   1394   1376
  4020   1    961    939   1394   1384
  4021   1    898    940    963    948
  4022   1    898    940    963    951
  4023   1    898    940    963    957
  4024   1    544    941    964    451
  4025   1    544    941    964    952
  4026   1    544    941    964    958
  4027   1    545    942    965    944
  4028   1    545    942    965    953
  4029   1    545    942    965    959
  4030   1    546    943    966    945
  4031   1    546    943    966    954
  4032   1    546    943    966    960
  4033   1    967    944    965    942
  4034   1    967    944    965    953
  4035   1    967    944    965    959
  4036   1    965    944    967    949
  4037   1    965    944    967    996
  4038   1    965    944    967    512
  4039   1    968    945    966    943
  4040   1    968    945    966    954
  4041   1    968    945    966    960
  4042   1    966    945    968    950
  4043   1    966    945    968    958
  4044   1    966    945    968      2
  4045   1   1461    946    969    951
  4046   1   1461    946    969    959
  4047   1   1461    946    969    514
  4048   1    969    946   1461   1438
  4049   1    969    946   1461   1449
  4050   1    969    946   1461   1455
  4051   1    970    947    962    938
  4052   1    970    947    962    949
  4053   1    970    947    962    956
  4054   1    962    947    970    870
  4055   1    962    947    970    952
  4056   1    962    947    970    957
  4057   1    972    948    963    940
  4058   1    972    948    963    951
  4059   1    972    948    963    957
  4060   1    963    948    972    872
  4061   1    963    948    972    954
  4062   1    963    948    972    955
  4063   1    967    949    962    938
  4064   1    967    949    962    947
  4065   1    967    949    962    956
  4066   1    962    949    967    944
  4067   1    962    949    967    996
  4068   1    962    949    967    512
  4069   1    465    950    968    945
  4070   1    465    950    968    958
  4071   1    465    950    968      2
  4072   1    969    951    963    940
  4073   1    969    951    963    948
  4074   1    969    951    963    957
  4075   1    963    951    969    946
  4076   1    963    951    969    959
  4077   1    963    951    969    514
  4078   1    970    952    964    451
  4079   1    970    952    964    941
  4080   1    970    952    964    958
  4081   1    964    952    970    870
  4082   1    964    952    970    947
  4083   1    964    952    970    957
  4084   1    971    953    965    942
  4085   1    971    953    965    944
  4086   1    971    953    965    959
  4087   1    965    953    971    871
  4088   1    965    953    971   1453
  4089   1    965    953    971    983
  4090   1    972    954    966    943
  4091   1    972    954    966    945
  4092   1    972    954    966    960
  4093   1    966    954    972    872
  4094   1    966    954    972    948
  4095   1    966    954    972    955
  4096   1    972    955    961    939
  4097   1    972    955    961   1447
  4098   1    972    955    961   1457
  4099   1    961    955    972    872
  4100   1    961    955    972    948
  4101   1    961    955    972    954
  4102   1    475    956    962    938
  4103   1    475    956    962    947
  4104   1    475    956    962    949
  4105   1    970    957    963    940
  4106   1    970    957    963    948
  4107   1    970    957    963    951
  4108   1    963    957    970    870
  4109   1    963    957    970    947
  4110   1    963    957    970    952
  4111   1    968    958    964    451
  4112   1    968    958    964    941
  4113   1    968    958    964    952
  4114   1    964    958    968    945
  4115   1    964    958    968    950
  4116   1    964    958    968      2
  4117   1    969    959    965    942
  4118   1    969    959    965    944
  4119   1    969    959    965    953
  4120   1    965    959    969    946
  4121   1    965    959    969    951
  4122   1    965    959    969    514
  4123   1    465    960    966    943
  4124   1    465    960    966    945
  4125   1    465    960    966    954
  4126   1   1465   1447    961    939
  4127   1   1465   1447    961    955
  4128   1   1465   1447    961   1457
  4129   1   1463   1457    961    939
  4130   1   1463   1457    961    955
  4131   1   1463   1457    961   1447
  4132   1   1002    996    967    944
  4133   1   1002    996    967    949
  4134   1   1002    996    967    512
  4135   1   1459   1453    971    871
  4136   1   1459   1453    971    953
  4137   1   1459   1453    971    983
  4138   1    997    983    971    871
  4139   1    997    983    971    953
  4140   1    997    983    971   1453
  4141   1    932    973    998    982
  4142   1    932    973    998    985
  4143   1    932    973    998    992
  4144   1   1430    974    997    983
  4145   1   1430    974    997    991
  4146   1   1430    974    997   1483
  4147   1    997    974   1430   1406
  4148   1    997    974   1430   1412
  4149   1    997    974   1430   1420
  4150   1    934    975    999    984
  4151   1    934    975    999    987
  4152   1    934    975    999    993
  4153   1    580    976   1000    485
  4154   1    580    976   1000    988
  4155   1    580    976   1000    994
  4156   1    581    977   1001    979
  4157   1    581    977   1001    989
  4158   1    581    977   1001    995
  4159   1    582    978   1002    980
  4160   1    582    978   1002    990
  4161   1    582    978   1002    996
  4162   1   1003    979   1001    977
  4163   1   1003    979   1001    989
  4164   1   1003    979   1001    995
  4165   1   1001    979   1003     83
  4166   1   1001    979   1003    985
  4167   1   1001    979   1003    547
  4168   1   1004    980   1002    978
  4169   1   1004    980   1002    990
  4170   1   1004    980   1002    996
  4171   1   1002    980   1004    986
  4172   1   1002    980   1004    994
  4173   1   1002    980   1004     36
  4174   1   1497    981   1005    987
  4175   1   1497    981   1005    995
  4176   1   1497    981   1005    549
  4177   1   1005    981   1497   1473
  4178   1   1005    981   1497   1485
  4179   1   1005    981   1497   1491
  4180   1   1006    982    998    973
  4181   1   1006    982    998    985
  4182   1   1006    982    998    992
  4183   1    998    982   1006    905
  4184   1    998    982   1006    988
  4185   1    998    982   1006    993
  4186   1    971    983    997    974
  4187   1    971    983    997    991
  4188   1    971    983    997   1483
  4189   1   1008    984    999    975
  4190   1   1008    984    999    987
  4191   1   1008    984    999    993
  4192   1    999    984   1008    907
  4193   1    999    984   1008    990
  4194   1    999    984   1008    991
  4195   1   1003    985    998    973
  4196   1   1003    985    998    982
  4197   1   1003    985    998    992
  4198   1    998    985   1003     83
  4199   1    998    985   1003    979
  4200   1    998    985   1003    547
  4201   1    500    986   1004    980
  4202   1    500    986   1004    994
  4203   1    500    986   1004     36
  4204   1   1005    987    999    975
  4205   1   1005    987    999    984
  4206   1   1005    987    999    993
  4207   1    999    987   1005    981
  4208   1    999    987   1005    995
  4209   1    999    987   1005    549
  4210   1   1006    988   1000    485
  4211   1   1006    988   1000    976
  4212   1   1006    988   1000    994
  4213   1   1000    988   1006    905
  4214   1   1000    988   1006    982
  4215   1   1000    988   1006    993
  4216   1   1007    989   1001    977
  4217   1   1007    989   1001    979
  4218   1   1007    989   1001    995
  4219   1   1001    989   1007     89
  4220   1   1001    989   1007    906
  4221   1   1001    989   1007   1489
  4222   1   1008    990   1002    978
  4223   1   1008    990   1002    980
  4224   1   1008    990   1002    996
  4225   1   1002    990   1008    907
  4226   1   1002    990   1008    984
  4227   1   1002    990   1008    991
  4228   1   1008    991    997    974
  4229   1   1008    991    997    983
  4230   1   1008    991    997   1483
  4231   1    997    991   1008    907
  4232   1    997    991   1008    984
  4233   1    997    991   1008    990
  4234   1    510    992    998    973
  4235   1    510    992    998    982
  4236   1    510    992    998    985
  4237   1   1006    993    999    975
  4238   1   1006    993    999    984
  4239   1   1006    993    999    987
  4240   1    999    993   1006    905
  4241   1    999    993   1006    982
  4242   1    999    993   1006    988
  4243   1   1004    994   1000    485
  4244   1   1004    994   1000    976
  4245   1   1004    994   1000    988
  4246   1   1000    994   1004    980
  4247   1   1000    994   1004    986
  4248   1   1000    994   1004     36
  4249   1   1005    995   1001    977
  4250   1   1005    995   1001    979
  4251   1   1005    995   1001    989
  4252   1   1001    995   1005    981
  4253   1   1001    995   1005    987
  4254   1   1001    995   1005    549
  4255   1    967    996   1002    978
  4256   1    967    996   1002    980
  4257   1    967    996   1002    990
  4258   1   1501   1483    997    974
  4259   1   1501   1483    997    983
  4260   1   1501   1483    997    991
  4261   1   1495   1489   1007     89
  4262   1   1495   1489   1007    906
  4263   1   1495   1489   1007    989
  4264   1   1464   1009   1033   1018
  4265   1   1464   1009   1033   1020
  4266   1   1464   1009   1033   1027
  4267   1   1033   1009   1464   1441
  4268   1   1033   1009   1464   1446
  4269   1   1033   1009   1464   1493
  4270   1   1943   1010   1032   1026
  4271   1   1943   1010   1032   1517
  4272   1   1943   1010   1032   1527
  4273   1   1032   1010   1943   1920
  4274   1   1032   1010   1943   1925
  4275   1   1032   1010   1943   1933
  4276   1   1466   1011   1034   1019
  4277   1   1466   1011   1034   1022
  4278   1   1466   1011   1034   1028
  4279   1   1034   1011   1466   1443
  4280   1   1034   1011   1466   1448
  4281   1   1034   1011   1466   1456
  4282   1   1112   1012   1035    520
  4283   1   1112   1012   1035   1023
  4284   1   1112   1012   1035   1029
  4285   1   1035   1012   1112   1089
  4286   1   1035   1012   1112   1094
  4287   1   1035   1012   1112   1099
  4288   1   1113   1013   1036   1015
  4289   1   1113   1013   1036   1024
  4290   1   1113   1013   1036   1030
  4291   1   1036   1013   1113   1095
  4292   1   1036   1013   1113   1591
  4293   1   1036   1013   1113   1125
  4294   1   1114   1014   1037   1016
  4295   1   1114   1014   1037   1025
  4296   1   1114   1014   1037   1031
  4297   1   1037   1014   1114   1090
  4298   1   1037   1014   1114   1096
  4299   1   1037   1014   1114   1097
  4300   1   1038   1015   1036   1013
  4301   1   1038   1015   1036   1024
  4302   1   1038   1015   1036   1030
  4303   1   1036   1015   1038   1020
  4304   1   1036   1015   1038   1080
  4305   1   1036   1015   1038   1067
  4306   1   1039   1016   1037   1014
  4307   1   1039   1016   1037   1025
  4308   1   1039   1016   1037   1031
  4309   1   1037   1016   1039    584
  4310   1   1037   1016   1039   1021
  4311   1   1037   1016   1039   1029
  4312   1   1531   1017   1040   1022
  4313   1   1531   1017   1040   1030
  4314   1   1531   1017   1040   1082
  4315   1   1040   1017   1531   1508
  4316   1   1040   1017   1531   1519
  4317   1   1040   1017   1531   1525
  4318   1   1041   1018   1033   1009
  4319   1   1041   1018   1033   1020
  4320   1   1041   1018   1033   1027
  4321   1   1033   1018   1041   1023
  4322   1   1033   1018   1041   1028
  4323   1   1033   1018   1041   1438
  4324   1   1043   1019   1034   1011
  4325   1   1043   1019   1034   1022
  4326   1   1043   1019   1034   1028
  4327   1   1034   1019   1043   1025
  4328   1   1034   1019   1043   1026
  4329   1   1034   1019   1043   1440
  4330   1   1038   1020   1033   1009
  4331   1   1038   1020   1033   1018
  4332   1   1038   1020   1033   1027
  4333   1   1033   1020   1038   1015
  4334   1   1033   1020   1038   1080
  4335   1   1033   1020   1038   1067
  4336   1    535   1021   1039    584
  4337   1    535   1021   1039   1016
  4338   1    535   1021   1039   1029
  4339   1   1040   1022   1034   1011
  4340   1   1040   1022   1034   1019
  4341   1   1040   1022   1034   1028
  4342   1   1034   1022   1040   1017
  4343   1   1034   1022   1040   1030
  4344   1   1034   1022   1040   1082
  4345   1   1041   1023   1035    520
  4346   1   1041   1023   1035   1012
  4347   1   1041   1023   1035   1029
  4348   1   1035   1023   1041   1018
  4349   1   1035   1023   1041   1028
  4350   1   1035   1023   1041   1438
  4351   1   1042   1024   1036   1013
  4352   1   1042   1024   1036   1015
  4353   1   1042   1024   1036   1030
  4354   1   1036   1024   1042   1523
  4355   1   1036   1024   1042   1054
  4356   1   1036   1024   1042   1439
  4357   1   1043   1025   1037   1014
  4358   1   1043   1025   1037   1016
  4359   1   1043   1025   1037   1031
  4360   1   1037   1025   1043   1019
  4361   1   1037   1025   1043   1026
  4362   1   1037   1025   1043   1440
  4363   1   1043   1026   1032   1010
  4364   1   1043   1026   1032   1517
  4365   1   1043   1026   1032   1527
  4366   1   1032   1026   1043   1019
  4367   1   1032   1026   1043   1025
  4368   1   1032   1026   1043   1440
  4369   1    545   1027   1033   1009
  4370   1    545   1027   1033   1018
  4371   1    545   1027   1033   1020
  4372   1   1041   1028   1034   1011
  4373   1   1041   1028   1034   1019
  4374   1   1041   1028   1034   1022
  4375   1   1034   1028   1041   1018
  4376   1   1034   1028   1041   1023
  4377   1   1034   1028   1041   1438
  4378   1   1039   1029   1035    520
  4379   1   1039   1029   1035   1012
  4380   1   1039   1029   1035   1023
  4381   1   1035   1029   1039    584
  4382   1   1035   1029   1039   1016
  4383   1   1035   1029   1039   1021
  4384   1   1040   1030   1036   1013
  4385   1   1040   1030   1036   1015
  4386   1   1040   1030   1036   1024
  4387   1   1036   1030   1040   1017
  4388   1   1036   1030   1040   1022
  4389   1   1036   1030   1040   1082
  4390   1    535   1031   1037   1014
  4391   1    535   1031   1037   1016
  4392   1    535   1031   1037   1025
  4393   1   1535   1517   1032   1010
  4394   1   1535   1517   1032   1026
  4395   1   1535   1517   1032   1527
  4396   1   1533   1527   1032   1010
  4397   1   1533   1527   1032   1026
  4398   1   1533   1527   1032   1517
  4399   1   1104   1080   1038   1015
  4400   1   1104   1080   1038   1020
  4401   1   1104   1080   1038   1067
  4402   1   1073   1067   1038   1015
  4403   1   1073   1067   1038   1020
  4404   1   1073   1067   1038   1080
  4405   1   1105   1082   1040   1017
  4406   1   1105   1082   1040   1022
  4407   1   1105   1082   1040   1030
  4408   1   1461   1438   1041   1018
  4409   1   1461   1438   1041   1023
  4410   1   1461   1438   1041   1028
  4411   1   1529   1523   1042   1024
  4412   1   1529   1523   1042   1054
  4413   1   1529   1523   1042   1439
  4414   1   1068   1054   1042   1024
  4415   1   1068   1054   1042   1523
  4416   1   1068   1054   1042   1439
  4417   1   1462   1439   1042   1024
  4418   1   1462   1439   1042   1523
  4419   1   1462   1439   1042   1054
  4420   1   1463   1440   1043   1019
  4421   1   1463   1440   1043   1025
  4422   1   1463   1440   1043   1026
  4423   1   1500   1044   1069   1053
  4424   1   1500   1044   1069   1056
  4425   1   1500   1044   1069   1063
  4426   1   1069   1044   1500     90
  4427   1   1069   1044   1500   1476
  4428   1   1069   1044   1500   1482
  4429   1   1977   1045   1068   1054
  4430   1   1977   1045   1068   1062
  4431   1   1977   1045   1068   1551
  4432   1   1068   1045   1977   1954
  4433   1   1068   1045   1977   1959
  4434   1   1068   1045   1977   1967
  4435   1   1502   1046   1070   1055
  4436   1   1502   1046   1070   1058
  4437   1   1502   1046   1070   1064
  4438   1   1070   1046   1502   1478
  4439   1   1070   1046   1502   1484
  4440   1   1070   1046   1502   1492
  4441   1   1148   1047   1071    555
  4442   1   1148   1047   1071   1059
  4443   1   1148   1047   1071   1065
  4444   1   1071   1047   1148   1124
  4445   1   1071   1047   1148   1130
  4446   1   1071   1047   1148   1135
  4447   1   1149   1048   1072   1050
  4448   1   1149   1048   1072   1060
  4449   1   1149   1048   1072   1066
  4450   1   1072   1048   1149     91
  4451   1   1072   1048   1149   1131
  4452   1   1072   1048   1149   1625
  4453   1   1150   1049   1073   1051
  4454   1   1150   1049   1073   1061
  4455   1   1150   1049   1073   1067
  4456   1   1073   1049   1150   1126
  4457   1   1073   1049   1150   1132
  4458   1   1073   1049   1150   1133
  4459   1   1074   1050   1072   1048
  4460   1   1074   1050   1072   1060
  4461   1   1074   1050   1072   1066
  4462   1   1072   1050   1074     84
  4463   1   1072   1050   1074   1056
  4464   1   1072   1050   1074   1115
  4465   1   1075   1051   1073   1049
  4466   1   1075   1051   1073   1061
  4467   1   1075   1051   1073   1067
  4468   1   1073   1051   1075    619
  4469   1   1073   1051   1075   1057
  4470   1   1073   1051   1075   1065
  4471   1   1565   1052   1076   1058
  4472   1   1565   1052   1076   1066
  4473   1   1565   1052   1076   1117
  4474   1   1076   1052   1565   1542
  4475   1   1076   1052   1565   1553
  4476   1   1076   1052   1565   1559
  4477   1   1077   1053   1069   1044
  4478   1   1077   1053   1069   1056
  4479   1   1077   1053   1069   1063
  4480   1   1069   1053   1077   1059
  4481   1   1069   1053   1077   1064
  4482   1   1069   1053   1077   1473
  4483   1   1042   1054   1068   1045
  4484   1   1042   1054   1068   1062
  4485   1   1042   1054   1068   1551
  4486   1   1079   1055   1070   1046
  4487   1   1079   1055   1070   1058
  4488   1   1079   1055   1070   1064
  4489   1   1070   1055   1079   1061
  4490   1   1070   1055   1079   1062
  4491   1   1070   1055   1079   1475
  4492   1   1074   1056   1069   1044
  4493   1   1074   1056   1069   1053
  4494   1   1074   1056   1069   1063
  4495   1   1069   1056   1074     84
  4496   1   1069   1056   1074   1050
  4497   1   1069   1056   1074   1115
  4498   1    571   1057   1075    619
  4499   1    571   1057   1075   1051
  4500   1    571   1057   1075   1065
  4501   1   1076   1058   1070   1046
  4502   1   1076   1058   1070   1055
  4503   1   1076   1058   1070   1064
  4504   1   1070   1058   1076   1052
  4505   1   1070   1058   1076   1066
  4506   1   1070   1058   1076   1117
  4507   1   1077   1059   1071    555
  4508   1   1077   1059   1071   1047
  4509   1   1077   1059   1071   1065
  4510   1   1071   1059   1077   1053
  4511   1   1071   1059   1077   1064
  4512   1   1071   1059   1077   1473
  4513   1   1078   1060   1072   1048
  4514   1   1078   1060   1072   1050
  4515   1   1078   1060   1072   1066
  4516   1   1072   1060   1078   1557
  4517   1   1072   1060   1078     97
  4518   1   1072   1060   1078   1474
  4519   1   1079   1061   1073   1049
  4520   1   1079   1061   1073   1051
  4521   1   1079   1061   1073   1067
  4522   1   1073   1061   1079   1055
  4523   1   1073   1061   1079   1062
  4524   1   1073   1061   1079   1475
  4525   1   1079   1062   1068   1045
  4526   1   1079   1062   1068   1054
  4527   1   1079   1062   1068   1551
  4528   1   1068   1062   1079   1055
  4529   1   1068   1062   1079   1061
  4530   1   1068   1062   1079   1475
  4531   1    581   1063   1069   1044
  4532   1    581   1063   1069   1053
  4533   1    581   1063   1069   1056
  4534   1   1077   1064   1070   1046
  4535   1   1077   1064   1070   1055
  4536   1   1077   1064   1070   1058
  4537   1   1070   1064   1077   1053
  4538   1   1070   1064   1077   1059
  4539   1   1070   1064   1077   1473
  4540   1   1075   1065   1071    555
  4541   1   1075   1065   1071   1047
  4542   1   1075   1065   1071   1059
  4543   1   1071   1065   1075    619
  4544   1   1071   1065   1075   1051
  4545   1   1071   1065   1075   1057
  4546   1   1076   1066   1072   1048
  4547   1   1076   1066   1072   1050
  4548   1   1076   1066   1072   1060
  4549   1   1072   1066   1076   1052
  4550   1   1072   1066   1076   1058
  4551   1   1072   1066   1076   1117
  4552   1   1038   1067   1073   1049
  4553   1   1038   1067   1073   1051
  4554   1   1038   1067   1073   1061
  4555   1   1569   1551   1068   1045
  4556   1   1569   1551   1068   1054
  4557   1   1569   1551   1068   1062
  4558   1   1140   1115   1074     84
  4559   1   1140   1115   1074   1050
  4560   1   1140   1115   1074   1056
  4561   1   1141   1117   1076   1052
  4562   1   1141   1117   1076   1058
  4563   1   1141   1117   1076   1066
  4564   1   1497   1473   1077   1053
  4565   1   1497   1473   1077   1059
  4566   1   1497   1473   1077   1064
  4567   1   1563   1557   1078   1060
  4568   1   1563   1557   1078     97
  4569   1   1563   1557   1078   1474
  4570   1   1498   1474   1078   1060
  4571   1   1498   1474   1078   1557
  4572   1   1498   1474   1078     97
  4573   1   1499   1475   1079   1055
  4574   1   1499   1475   1079   1061
  4575   1   1499   1475   1079   1062
  4576   1   1038   1080   1104   1089
  4577   1   1038   1080   1104   1091
  4578   1   1038   1080   1104   1098
  4579   1   1535   1081   1103   1097
  4580   1   1535   1081   1103   1585
  4581   1   1535   1081   1103   1595
  4582   1   1103   1081   1535   1512
  4583   1   1103   1081   1535   1517
  4584   1   1103   1081   1535   1525
  4585   1   1040   1082   1105   1090
  4586   1   1040   1082   1105   1093
  4587   1   1040   1082   1105   1099
  4588   1   1183   1083   1106    591
  4589   1   1183   1083   1106   1094
  4590   1   1183   1083   1106   1100
  4591   1   1106   1083   1183   1160
  4592   1   1106   1083   1183   1165
  4593   1   1106   1083   1183   1170
  4594   1   1184   1084   1107   1086
  4595   1   1184   1084   1107   1095
  4596   1   1184   1084   1107   1101
  4597   1   1107   1084   1184   1166
  4598   1   1107   1084   1184   1659
  4599   1   1107   1084   1184   1196
  4600   1   1185   1085   1108   1087
  4601   1   1185   1085   1108   1096
  4602   1   1185   1085   1108   1102
  4603   1   1108   1085   1185   1161
  4604   1   1108   1085   1185   1167
  4605   1   1108   1085   1185   1168
  4606   1   1109   1086   1107   1084
  4607   1   1109   1086   1107   1095
  4608   1   1109   1086   1107   1101
  4609   1   1107   1086   1109   1091
  4610   1   1107   1086   1109   1151
  4611   1   1107   1086   1109   1138
  4612   1   1110   1087   1108   1085
  4613   1   1110   1087   1108   1096
  4614   1   1110   1087   1108   1102
  4615   1   1108   1087   1110    655
  4616   1   1108   1087   1110   1092
  4617   1   1108   1087   1110   1100
  4618   1   1599   1088   1111   1093
  4619   1   1599   1088   1111   1101
  4620   1   1599   1088   1111   1153
  4621   1   1111   1088   1599   1576
  4622   1   1111   1088   1599   1587
  4623   1   1111   1088   1599   1593
  4624   1   1112   1089   1104   1080
  4625   1   1112   1089   1104   1091
  4626   1   1112   1089   1104   1098
  4627   1   1104   1089   1112   1012
  4628   1   1104   1089   1112   1094
  4629   1   1104   1089   1112   1099
  4630   1   1114   1090   1105   1082
  4631   1   1114   1090   1105   1093
  4632   1   1114   1090   1105   1099
  4633   1   1105   1090   1114   1014
  4634   1   1105   1090   1114   1096
  4635   1   1105   1090   1114   1097
  4636   1   1109   1091   1104   1080
  4637   1   1109   1091   1104   1089
  4638   1   1109   1091   1104   1098
  4639   1   1104   1091   1109   1086
  4640   1   1104   1091   1109   1151
  4641   1   1104   1091   1109   1138
  4642   1    606   1092   1110    655
  4643   1    606   1092   1110   1087
  4644   1    606   1092   1110   1100
  4645   1   1111   1093   1105   1082
  4646   1   1111   1093   1105   1090
  4647   1   1111   1093   1105   1099
  4648   1   1105   1093   1111   1088
  4649   1   1105   1093   1111   1101
  4650   1   1105   1093   1111   1153
  4651   1   1112   1094   1106    591
  4652   1   1112   1094   1106   1083
  4653   1   1112   1094   1106   1100
  4654   1   1106   1094   1112   1012
  4655   1   1106   1094   1112   1089
  4656   1   1106   1094   1112   1099
  4657   1   1113   1095   1107   1084
  4658   1   1113   1095   1107   1086
  4659   1   1113   1095   1107   1101
  4660   1   1107   1095   1113   1013
  4661   1   1107   1095   1113   1591
  4662   1   1107   1095   1113   1125
  4663   1   1114   1096   1108   1085
  4664   1   1114   1096   1108   1087
  4665   1   1114   1096   1108   1102
  4666   1   1108   1096   1114   1014
  4667   1   1108   1096   1114   1090
  4668   1   1108   1096   1114   1097
  4669   1   1114   1097   1103   1081
  4670   1   1114   1097   1103   1585
  4671   1   1114   1097   1103   1595
  4672   1   1103   1097   1114   1014
  4673   1   1103   1097   1114   1090
  4674   1   1103   1097   1114   1096
  4675   1    616   1098   1104   1080
  4676   1    616   1098   1104   1089
  4677   1    616   1098   1104   1091
  4678   1   1112   1099   1105   1082
  4679   1   1112   1099   1105   1090
  4680   1   1112   1099   1105   1093
  4681   1   1105   1099   1112   1012
  4682   1   1105   1099   1112   1089
  4683   1   1105   1099   1112   1094
  4684   1   1110   1100   1106    591
  4685   1   1110   1100   1106   1083
  4686   1   1110   1100   1106   1094
  4687   1   1106   1100   1110    655
  4688   1   1106   1100   1110   1087
  4689   1   1106   1100   1110   1092
  4690   1   1111   1101   1107   1084
  4691   1   1111   1101   1107   1086
  4692   1   1111   1101   1107   1095
  4693   1   1107   1101   1111   1088
  4694   1   1107   1101   1111   1093
  4695   1   1107   1101   1111   1153
  4696   1    606   1102   1108   1085
  4697   1    606   1102   1108   1087
  4698   1    606   1102   1108   1096
  4699   1   1603   1585   1103   1081
  4700   1   1603   1585   1103   1097
  4701   1   1603   1585   1103   1595
  4702   1   1601   1595   1103   1081
  4703   1   1601   1595   1103   1097
  4704   1   1601   1595   1103   1585
  4705   1   1175   1151   1109   1086
  4706   1   1175   1151   1109   1091
  4707   1   1175   1151   1109   1138
  4708   1   1144   1138   1109   1086
  4709   1   1144   1138   1109   1091
  4710   1   1144   1138   1109   1151
  4711   1   1176   1153   1111   1088
  4712   1   1176   1153   1111   1093
  4713   1   1176   1153   1111   1101
  4714   1   1597   1591   1113   1013
  4715   1   1597   1591   1113   1095
  4716   1   1597   1591   1113   1125
  4717   1   1139   1125   1113   1013
  4718   1   1139   1125   1113   1095
  4719   1   1139   1125   1113   1591
  4720   1   1074   1115   1140   1124
  4721   1   1074   1115   1140   1127
  4722   1   1074   1115   1140   1134
  4723   1   1569   1116   1139   1125
  4724   1   1569   1116   1139   1133
  4725   1   1569   1116   1139   1619
  4726   1   1139   1116   1569   1546
  4727   1   1139   1116   1569   1551
  4728   1   1139   1116   1569   1559
  4729   1   1076   1117   1141   1126
  4730   1   1076   1117   1141   1129
  4731   1   1076   1117   1141   1135
  4732   1   1219   1118   1142    626
  4733   1   1219   1118   1142   1130
  4734   1   1219   1118   1142   1136
  4735   1   1142   1118   1219   1195
  4736   1   1142   1118   1219   1201
  4737   1   1142   1118   1219   1206
  4738   1   1220   1119   1143   1121
  4739   1   1220   1119   1143   1131
  4740   1   1220   1119   1143   1137
  4741   1   1143   1119   1220     92
  4742   1   1143   1119   1220   1202
  4743   1   1143   1119   1220   1693
  4744   1   1221   1120   1144   1122
  4745   1   1221   1120   1144   1132
  4746   1   1221   1120   1144   1138
  4747   1   1144   1120   1221   1197
  4748   1   1144   1120   1221   1203
  4749   1   1144   1120   1221   1204
  4750   1   1145   1121   1143   1119
  4751   1   1145   1121   1143   1131
  4752   1   1145   1121   1143   1137
  4753   1   1143   1121   1145     85
  4754   1   1143   1121   1145   1127
  4755   1   1143   1121   1145   1186
  4756   1   1146   1122   1144   1120
  4757   1   1146   1122   1144   1132
  4758   1   1146   1122   1144   1138
  4759   1   1144   1122   1146    690
  4760   1   1144   1122   1146   1128
  4761   1   1144   1122   1146   1136
  4762   1   1633   1123   1147   1129
  4763   1   1633   1123   1147   1137
  4764   1   1633   1123   1147   1188
  4765   1   1147   1123   1633   1610
  4766   1   1147   1123   1633   1621
  4767   1   1147   1123   1633   1627
  4768   1   1148   1124   1140   1115
  4769   1   1148   1124   1140   1127
  4770   1   1148   1124   1140   1134
  4771   1   1140   1124   1148   1047
  4772   1   1140   1124   1148   1130
  4773   1   1140   1124   1148   1135
  4774   1   1113   1125   1139   1116
  4775   1   1113   1125   1139   1133
  4776   1   1113   1125   1139   1619
  4777   1   1150   1126   1141   1117
  4778   1   1150   1126   1141   1129
  4779   1   1150   1126   1141   1135
  4780   1   1141   1126   1150   1049
  4781   1   1141   1126   1150   1132
  4782   1   1141   1126   1150   1133
  4783   1   1145   1127   1140   1115
  4784   1   1145   1127   1140   1124
  4785   1   1145   1127   1140   1134
  4786   1   1140   1127   1145     85
  4787   1   1140   1127   1145   1121
  4788   1   1140   1127   1145   1186
  4789   1    642   1128   1146    690
  4790   1    642   1128   1146   1122
  4791   1    642   1128   1146   1136
  4792   1   1147   1129   1141   1117
  4793   1   1147   1129   1141   1126
  4794   1   1147   1129   1141   1135
  4795   1   1141   1129   1147   1123
  4796   1   1141   1129   1147   1137
  4797   1   1141   1129   1147   1188
  4798   1   1148   1130   1142    626
  4799   1   1148   1130   1142   1118
  4800   1   1148   1130   1142   1136
  4801   1   1142   1130   1148   1047
  4802   1   1142   1130   1148   1124
  4803   1   1142   1130   1148   1135
  4804   1   1149   1131   1143   1119
  4805   1   1149   1131   1143   1121
  4806   1   1149   1131   1143   1137
  4807   1   1143   1131   1149     91
  4808   1   1143   1131   1149   1048
  4809   1   1143   1131   1149   1625
  4810   1   1150   1132   1144   1120
  4811   1   1150   1132   1144   1122
  4812   1   1150   1132   1144   1138
  4813   1   1144   1132   1150   1049
  4814   1   1144   1132   1150   1126
  4815   1   1144   1132   1150   1133
  4816   1   1150   1133   1139   1116
  4817   1   1150   1133   1139   1125
  4818   1   1150   1133   1139   1619
  4819   1   1139   1133   1150   1049
  4820   1   1139   1133   1150   1126
  4821   1   1139   1133   1150   1132
  4822   1    652   1134   1140   1115
  4823   1    652   1134   1140   1124
  4824   1    652   1134   1140   1127
  4825   1   1148   1135   1141   1117
  4826   1   1148   1135   1141   1126
  4827   1   1148   1135   1141   1129
  4828   1   1141   1135   1148   1047
  4829   1   1141   1135   1148   1124
  4830   1   1141   1135   1148   1130
  4831   1   1146   1136   1142    626
  4832   1   1146   1136   1142   1118
  4833   1   1146   1136   1142   1130
  4834   1   1142   1136   1146    690
  4835   1   1142   1136   1146   1122
  4836   1   1142   1136   1146   1128
  4837   1   1147   1137   1143   1119
  4838   1   1147   1137   1143   1121
  4839   1   1147   1137   1143   1131
  4840   1   1143   1137   1147   1123
  4841   1   1143   1137   1147   1129
  4842   1   1143   1137   1147   1188
  4843   1   1109   1138   1144   1120
  4844   1   1109   1138   1144   1122
  4845   1   1109   1138   1144   1132
  4846   1   1637   1619   1139   1116
  4847   1   1637   1619   1139   1125
  4848   1   1637   1619   1139   1133
  4849   1   1211   1186   1145     85
  4850   1   1211   1186   1145   1121
  4851   1   1211   1186   1145   1127
  4852   1   1212   1188   1147   1123
  4853   1   1212   1188   1147   1129
  4854   1   1212   1188   1147   1137
  4855   1   1631   1625   1149     91
  4856   1   1631   1625   1149   1048
  4857   1   1631   1625   1149   1131
  4858   1   1109   1151   1175   1160
  4859   1   1109   1151   1175   1162
  4860   1   1109   1151   1175   1169
  4861   1   1603   1152   1174   1168
  4862   1   1603   1152   1174   1653
  4863   1   1603   1152   1174   1663
  4864   1   1174   1152   1603   1580
  4865   1   1174   1152   1603   1585
  4866   1   1174   1152   1603   1593
  4867   1   1111   1153   1176   1161
  4868   1   1111   1153   1176   1164
  4869   1   1111   1153   1176   1170
  4870   1   1254   1154   1177    662
  4871   1   1254   1154   1177   1165
  4872   1   1254   1154   1177   1171
  4873   1   1177   1154   1254   1231
  4874   1   1177   1154   1254   1236
  4875   1   1177   1154   1254   1241
  4876   1   1255   1155   1178   1157
  4877   1   1255   1155   1178   1166
  4878   1   1255   1155   1178   1172
  4879   1   1178   1155   1255   1237
  4880   1   1178   1155   1255   1727
  4881   1   1178   1155   1255   1267
  4882   1   1256   1156   1179   1158
  4883   1   1256   1156   1179   1167
  4884   1   1256   1156   1179   1173
  4885   1   1179   1156   1256   1232
  4886   1   1179   1156   1256   1238
  4887   1   1179   1156   1256   1239
  4888   1   1180   1157   1178   1155
  4889   1   1180   1157   1178   1166
  4890   1   1180   1157   1178   1172
  4891   1   1178   1157   1180   1162
  4892   1   1178   1157   1180   1222
  4893   1   1178   1157   1180   1209
  4894   1   1181   1158   1179   1156
  4895   1   1181   1158   1179   1167
  4896   1   1181   1158   1179   1173
  4897   1   1179   1158   1181    726
  4898   1   1179   1158   1181   1163
  4899   1   1179   1158   1181   1171
  4900   1   1667   1159   1182   1164
  4901   1   1667   1159   1182   1172
  4902   1   1667   1159   1182   1224
  4903   1   1182   1159   1667   1644
  4904   1   1182   1159   1667   1655
  4905   1   1182   1159   1667   1661
  4906   1   1183   1160   1175   1151
  4907   1   1183   1160   1175   1162
  4908   1   1183   1160   1175   1169
  4909   1   1175   1160   1183   1083
  4910   1   1175   1160   1183   1165
  4911   1   1175   1160   1183   1170
  4912   1   1185   1161   1176   1153
  4913   1   1185   1161   1176   1164
  4914   1   1185   1161   1176   1170
  4915   1   1176   1161   1185   1085
  4916   1   1176   1161   1185   1167
  4917   1   1176   1161   1185   1168
  4918   1   1180   1162   1175   1151
  4919   1   1180   1162   1175   1160
  4920   1   1180   1162   1175   1169
  4921   1   1175   1162   1180   1157
  4922   1   1175   1162   1180   1222
  4923   1   1175   1162   1180   1209
  4924   1    677   1163   1181    726
  4925   1    677   1163   1181   1158
  4926   1    677   1163   1181   1171
  4927   1   1182   1164   1176   1153
  4928   1   1182   1164   1176   1161
  4929   1   1182   1164   1176   1170
  4930   1   1176   1164   1182   1159
  4931   1   1176   1164   1182   1172
  4932   1   1176   1164   1182   1224
  4933   1   1183   1165   1177    662
  4934   1   1183   1165   1177   1154
  4935   1   1183   1165   1177   1171
  4936   1   1177   1165   1183   1083
  4937   1   1177   1165   1183   1160
  4938   1   1177   1165   1183   1170
  4939   1   1184   1166   1178   1155
  4940   1   1184   1166   1178   1157
  4941   1   1184   1166   1178   1172
  4942   1   1178   1166   1184   1084
  4943   1   1178   1166   1184   1659
  4944   1   1178   1166   1184   1196
  4945   1   1185   1167   1179   1156
  4946   1   1185   1167   1179   1158
  4947   1   1185   1167   1179   1173
  4948   1   1179   1167   1185   1085
  4949   1   1179   1167   1185   1161
  4950   1   1179   1167   1185   1168
  4951   1   1185   1168   1174   1152
  4952   1   1185   1168   1174   1653
  4953   1   1185   1168   1174   1663
  4954   1   1174   1168   1185   1085
  4955   1   1174   1168   1185   1161
  4956   1   1174   1168   1185   1167
  4957   1    687   1169   1175   1151
  4958   1    687   1169   1175   1160
  4959   1    687   1169   1175   1162
  4960   1   1183   1170   1176   1153
  4961   1   1183   1170   1176   1161
  4962   1   1183   1170   1176   1164
  4963   1   1176   1170   1183   1083
  4964   1   1176   1170   1183   1160
  4965   1   1176   1170   1183   1165
  4966   1   1181   1171   1177    662
  4967   1   1181   1171   1177   1154
  4968   1   1181   1171   1177   1165
  4969   1   1177   1171   1181    726
  4970   1   1177   1171   1181   1158
  4971   1   1177   1171   1181   1163
  4972   1   1182   1172   1178   1155
  4973   1   1182   1172   1178   1157
  4974   1   1182   1172   1178   1166
  4975   1   1178   1172   1182   1159
  4976   1   1178   1172   1182   1164
  4977   1   1178   1172   1182   1224
  4978   1    677   1173   1179   1156
  4979   1    677   1173   1179   1158
  4980   1    677   1173   1179   1167
  4981   1   1671   1653   1174   1152
  4982   1   1671   1653   1174   1168
  4983   1   1671   1653   1174   1663
  4984   1   1669   1663   1174   1152
  4985   1   1669   1663   1174   1168
  4986   1   1669   1663   1174   1653
  4987   1   1246   1222   1180   1157
  4988   1   1246   1222   1180   1162
  4989   1   1246   1222   1180   1209
  4990   1   1215   1209   1180   1157
  4991   1   1215   1209   1180   1162
  4992   1   1215   1209   1180   1222
  4993   1   1247   1224   1182   1159
  4994   1   1247   1224   1182   1164
  4995   1   1247   1224   1182   1172
  4996   1   1665   1659   1184   1084
  4997   1   1665   1659   1184   1166
  4998   1   1665   1659   1184   1196
  4999   1   1210   1196   1184   1084
  5000   1   1210   1196   1184   1166
  5001   1   1210   1196   1184   1659
  5002   1   1145   1186   1211   1195
  5003   1   1145   1186   1211   1198
  5004   1   1145   1186   1211   1205
  5005   1   1637   1187   1210   1196
  5006   1   1637   1187   1210   1204
  5007   1   1637   1187   1210   1687
  5008   1   1210   1187   1637   1614
  5009   1   1210   1187   1637   1619
  5010   1   1210   1187   1637   1627
  5011   1   1147   1188   1212   1197
  5012   1   1147   1188   1212   1200
  5013   1   1147   1188   1212   1206
  5014   1   1290   1189   1213    697
  5015   1   1290   1189   1213   1201
  5016   1   1290   1189   1213   1207
  5017   1   1213   1189   1290   1266
  5018   1   1213   1189   1290   1272
  5019   1   1213   1189   1290   1277
  5020   1   1291   1190   1214   1192
  5021   1   1291   1190   1214   1202
  5022   1   1291   1190   1214   1208
  5023   1   1214   1190   1291     93
  5024   1   1214   1190   1291   1273
  5025   1   1214   1190   1291   1761
  5026   1   1292   1191   1215   1193
  5027   1   1292   1191   1215   1203
  5028   1   1292   1191   1215   1209
  5029   1   1215   1191   1292   1268
  5030   1   1215   1191   1292   1274
  5031   1   1215   1191   1292   1275
  5032   1   1216   1192   1214   1190
  5033   1   1216   1192   1214   1202
  5034   1   1216   1192   1214   1208
  5035   1   1214   1192   1216     86
  5036   1   1214   1192   1216   1198
  5037   1   1214   1192   1216   1257
  5038   1   1217   1193   1215   1191
  5039   1   1217   1193   1215   1203
  5040   1   1217   1193   1215   1209
  5041   1   1215   1193   1217    761
  5042   1   1215   1193   1217   1199
  5043   1   1215   1193   1217   1207
  5044   1   1701   1194   1218   1200
  5045   1   1701   1194   1218   1208
  5046   1   1701   1194   1218   1259
  5047   1   1218   1194   1701   1678
  5048   1   1218   1194   1701   1689
  5049   1   1218   1194   1701   1695
  5050   1   1219   1195   1211   1186
  5051   1   1219   1195   1211   1198
  5052   1   1219   1195   1211   1205
  5053   1   1211   1195   1219   1118
  5054   1   1211   1195   1219   1201
  5055   1   1211   1195   1219   1206
  5056   1   1184   1196   1210   1187
  5057   1   1184   1196   1210   1204
  5058   1   1184   1196   1210   1687
  5059   1   1221   1197   1212   1188
  5060   1   1221   1197   1212   1200
  5061   1   1221   1197   1212   1206
  5062   1   1212   1197   1221   1120
  5063   1   1212   1197   1221   1203
  5064   1   1212   1197   1221   1204
  5065   1   1216   1198   1211   1186
  5066   1   1216   1198   1211   1195
  5067   1   1216   1198   1211   1205
  5068   1   1211   1198   1216     86
  5069   1   1211   1198   1216   1192
  5070   1   1211   1198   1216   1257
  5071   1    713   1199   1217    761
  5072   1    713   1199   1217   1193
  5073   1    713   1199   1217   1207
  5074   1   1218   1200   1212   1188
  5075   1   1218   1200   1212   1197
  5076   1   1218   1200   1212   1206
  5077   1   1212   1200   1218   1194
  5078   1   1212   1200   1218   1208
  5079   1   1212   1200   1218   1259
  5080   1   1219   1201   1213    697
  5081   1   1219   1201   1213   1189
  5082   1   1219   1201   1213   1207
  5083   1   1213   1201   1219   1118
  5084   1   1213   1201   1219   1195
  5085   1   1213   1201   1219   1206
  5086   1   1220   1202   1214   1190
  5087   1   1220   1202   1214   1192
  5088   1   1220   1202   1214   1208
  5089   1   1214   1202   1220     92
  5090   1   1214   1202   1220   1119
  5091   1   1214   1202   1220   1693
  5092   1   1221   1203   1215   1191
  5093   1   1221   1203   1215   1193
  5094   1   1221   1203   1215   1209
  5095   1   1215   1203   1221   1120
  5096   1   1215   1203   1221   1197
  5097   1   1215   1203   1221   1204
  5098   1   1221   1204   1210   1187
  5099   1   1221   1204   1210   1196
  5100   1   1221   1204   1210   1687
  5101   1   1210   1204   1221   1120
  5102   1   1210   1204   1221   1197
  5103   1   1210   1204   1221   1203
  5104   1    723   1205   1211   1186
  5105   1    723   1205   1211   1195
  5106   1    723   1205   1211   1198
  5107   1   1219   1206   1212   1188
  5108   1   1219   1206   1212   1197
  5109   1   1219   1206   1212   1200
  5110   1   1212   1206   1219   1118
  5111   1   1212   1206   1219   1195
  5112   1   1212   1206   1219   1201
  5113   1   1217   1207   1213    697
  5114   1   1217   1207   1213   1189
  5115   1   1217   1207   1213   1201
  5116   1   1213   1207   1217    761
  5117   1   1213   1207   1217   1193
  5118   1   1213   1207   1217   1199
  5119   1   1218   1208   1214   1190
  5120   1   1218   1208   1214   1192
  5121   1   1218   1208   1214   1202
  5122   1   1214   1208   1218   1194
  5123   1   1214   1208   1218   1200
  5124   1   1214   1208   1218   1259
  5125   1   1180   1209   1215   1191
  5126   1   1180   1209   1215   1193
  5127   1   1180   1209   1215   1203
  5128   1   1705   1687   1210   1187
  5129   1   1705   1687   1210   1196
  5130   1   1705   1687   1210   1204
  5131   1   1282   1257   1216     86
  5132   1   1282   1257   1216   1192
  5133   1   1282   1257   1216   1198
  5134   1   1283   1259   1218   1194
  5135   1   1283   1259   1218   1200
  5136   1   1283   1259   1218   1208
  5137   1   1699   1693   1220     92
  5138   1   1699   1693   1220   1119
  5139   1   1699   1693   1220   1202
  5140   1   1180   1222   1246   1231
  5141   1   1180   1222   1246   1233
  5142   1   1180   1222   1246   1240
  5143   1   1671   1223   1245   1239
  5144   1   1671   1223   1245   1721
  5145   1   1671   1223   1245   1731
  5146   1   1245   1223   1671   1648
  5147   1   1245   1223   1671   1653
  5148   1   1245   1223   1671   1661
  5149   1   1182   1224   1247   1232
  5150   1   1182   1224   1247   1235
  5151   1   1182   1224   1247   1241
  5152   1   1325   1225   1248    733
  5153   1   1325   1225   1248   1236
  5154   1   1325   1225   1248   1242
  5155   1   1248   1225   1325   1302
  5156   1   1248   1225   1325   1307
  5157   1   1248   1225   1325   1312
  5158   1   1326   1226   1249   1228
  5159   1   1326   1226   1249   1237
  5160   1   1326   1226   1249   1243
  5161   1   1249   1226   1326   1308
  5162   1   1249   1226   1326   1795
  5163   1   1249   1226   1326   1338
  5164   1   1327   1227   1250   1229
  5165   1   1327   1227   1250   1238
  5166   1   1327   1227   1250   1244
  5167   1   1250   1227   1327   1303
  5168   1   1250   1227   1327   1309
  5169   1   1250   1227   1327   1310
  5170   1   1251   1228   1249   1226
  5171   1   1251   1228   1249   1237
  5172   1   1251   1228   1249   1243
  5173   1   1249   1228   1251   1233
  5174   1   1249   1228   1251   1293
  5175   1   1249   1228   1251   1280
  5176   1   1252   1229   1250   1227
  5177   1   1252   1229   1250   1238
  5178   1   1252   1229   1250   1244
  5179   1   1250   1229   1252    797
  5180   1   1250   1229   1252   1234
  5181   1   1250   1229   1252   1242
  5182   1   1735   1230   1253   1235
  5183   1   1735   1230   1253   1243
  5184   1   1735   1230   1253   1295
  5185   1   1253   1230   1735   1712
  5186   1   1253   1230   1735   1723
  5187   1   1253   1230   1735   1729
  5188   1   1254   1231   1246   1222
  5189   1   1254   1231   1246   1233
  5190   1   1254   1231   1246   1240
  5191   1   1246   1231   1254   1154
  5192   1   1246   1231   1254   1236
  5193   1   1246   1231   1254   1241
  5194   1   1256   1232   1247   1224
  5195   1   1256   1232   1247   1235
  5196   1   1256   1232   1247   1241
  5197   1   1247   1232   1256   1156
  5198   1   1247   1232   1256   1238
  5199   1   1247   1232   1256   1239
  5200   1   1251   1233   1246   1222
  5201   1   1251   1233   1246   1231
  5202   1   1251   1233   1246   1240
  5203   1   1246   1233   1251   1228
  5204   1   1246   1233   1251   1293
  5205   1   1246   1233   1251   1280
  5206   1    748   1234   1252    797
  5207   1    748   1234   1252   1229
  5208   1    748   1234   1252   1242
  5209   1   1253   1235   1247   1224
  5210   1   1253   1235   1247   1232
  5211   1   1253   1235   1247   1241
  5212   1   1247   1235   1253   1230
  5213   1   1247   1235   1253   1243
  5214   1   1247   1235   1253   1295
  5215   1   1254   1236   1248    733
  5216   1   1254   1236   1248   1225
  5217   1   1254   1236   1248   1242
  5218   1   1248   1236   1254   1154
  5219   1   1248   1236   1254   1231
  5220   1   1248   1236   1254   1241
  5221   1   1255   1237   1249   1226
  5222   1   1255   1237   1249   1228
  5223   1   1255   1237   1249   1243
  5224   1   1249   1237   1255   1155
  5225   1   1249   1237   1255   1727
  5226   1   1249   1237   1255   1267
  5227   1   1256   1238   1250   1227
  5228   1   1256   1238   1250   1229
  5229   1   1256   1238   1250   1244
  5230   1   1250   1238   1256   1156
  5231   1   1250   1238   1256   1232
  5232   1   1250   1238   1256   1239
  5233   1   1256   1239   1245   1223
  5234   1   1256   1239   1245   1721
  5235   1   1256   1239   1245   1731
  5236   1   1245   1239   1256   1156
  5237   1   1245   1239   1256   1232
  5238   1   1245   1239   1256   1238
  5239   1    758   1240   1246   1222
  5240   1    758   1240   1246   1231
  5241   1    758   1240   1246   1233
  5242   1   1254   1241   1247   1224
  5243   1   1254   1241   1247   1232
  5244   1   1254   1241   1247   1235
  5245   1   1247   1241   1254   1154
  5246   1   1247   1241   1254   1231
  5247   1   1247   1241   1254   1236
  5248   1   1252   1242   1248    733
  5249   1   1252   1242   1248   1225
  5250   1   1252   1242   1248   1236
  5251   1   1248   1242   1252    797
  5252   1   1248   1242   1252   1229
  5253   1   1248   1242   1252   1234
  5254   1   1253   1243   1249   1226
  5255   1   1253   1243   1249   1228
  5256   1   1253   1243   1249   1237
  5257   1   1249   1243   1253   1230
  5258   1   1249   1243   1253   1235
  5259   1   1249   1243   1253   1295
  5260   1    748   1244   1250   1227
  5261   1    748   1244   1250   1229
  5262   1    748   1244   1250   1238
  5263   1   1739   1721   1245   1223
  5264   1   1739   1721   1245   1239
  5265   1   1739   1721   1245   1731
  5266   1   1737   1731   1245   1223
  5267   1   1737   1731   1245   1239
  5268   1   1737   1731   1245   1721
  5269   1   1317   1293   1251   1228
  5270   1   1317   1293   1251   1233
  5271   1   1317   1293   1251   1280
  5272   1   1286   1280   1251   1228
  5273   1   1286   1280   1251   1233
  5274   1   1286   1280   1251   1293
  5275   1   1318   1295   1253   1230
  5276   1   1318   1295   1253   1235
  5277   1   1318   1295   1253   1243
  5278   1   1733   1727   1255   1155
  5279   1   1733   1727   1255   1237
  5280   1   1733   1727   1255   1267
  5281   1   1281   1267   1255   1155
  5282   1   1281   1267   1255   1237
  5283   1   1281   1267   1255   1727
  5284   1   1216   1257   1282   1266
  5285   1   1216   1257   1282   1269
  5286   1   1216   1257   1282   1276
  5287   1   1705   1258   1281   1267
  5288   1   1705   1258   1281   1275
  5289   1   1705   1258   1281   1755
  5290   1   1281   1258   1705   1682
  5291   1   1281   1258   1705   1687
  5292   1   1281   1258   1705   1695
  5293   1   1218   1259   1283   1268
  5294   1   1218   1259   1283   1271
  5295   1   1218   1259   1283   1277
  5296   1   1361   1260   1284    768
  5297   1   1361   1260   1284   1272
  5298   1   1361   1260   1284   1278
  5299   1   1284   1260   1361   1337
  5300   1   1284   1260   1361   1343
  5301   1   1284   1260   1361   1348
  5302   1   1362   1261   1285   1263
  5303   1   1362   1261   1285   1273
  5304   1   1362   1261   1285   1279
  5305   1   1285   1261   1362     94
  5306   1   1285   1261   1362   1344
  5307   1   1285   1261   1362   1829
  5308   1   1363   1262   1286   1264
  5309   1   1363   1262   1286   1274
  5310   1   1363   1262   1286   1280
  5311   1   1286   1262   1363   1339
  5312   1   1286   1262   1363   1345
  5313   1   1286   1262   1363   1346
  5314   1   1287   1263   1285   1261
  5315   1   1287   1263   1285   1273
  5316   1   1287   1263   1285   1279
  5317   1   1285   1263   1287     87
  5318   1   1285   1263   1287   1269
  5319   1   1285   1263   1287   1328
  5320   1   1288   1264   1286   1262
  5321   1   1288   1264   1286   1274
  5322   1   1288   1264   1286   1280
  5323   1   1286   1264   1288    832
  5324   1   1286   1264   1288   1270
  5325   1   1286   1264   1288   1278
  5326   1   1769   1265   1289   1271
  5327   1   1769   1265   1289   1279
  5328   1   1769   1265   1289   1330
  5329   1   1289   1265   1769   1746
  5330   1   1289   1265   1769   1757
  5331   1   1289   1265   1769   1763
  5332   1   1290   1266   1282   1257
  5333   1   1290   1266   1282   1269
  5334   1   1290   1266   1282   1276
  5335   1   1282   1266   1290   1189
  5336   1   1282   1266   1290   1272
  5337   1   1282   1266   1290   1277
  5338   1   1255   1267   1281   1258
  5339   1   1255   1267   1281   1275
  5340   1   1255   1267   1281   1755
  5341   1   1292   1268   1283   1259
  5342   1   1292   1268   1283   1271
  5343   1   1292   1268   1283   1277
  5344   1   1283   1268   1292   1191
  5345   1   1283   1268   1292   1274
  5346   1   1283   1268   1292   1275
  5347   1   1287   1269   1282   1257
  5348   1   1287   1269   1282   1266
  5349   1   1287   1269   1282   1276
  5350   1   1282   1269   1287     87
  5351   1   1282   1269   1287   1263
  5352   1   1282   1269   1287   1328
  5353   1    784   1270   1288    832
  5354   1    784   1270   1288   1264
  5355   1    784   1270   1288   1278
  5356   1   1289   1271   1283   1259
  5357   1   1289   1271   1283   1268
  5358   1   1289   1271   1283   1277
  5359   1   1283   1271   1289   1265
  5360   1   1283   1271   1289   1279
  5361   1   1283   1271   1289   1330
  5362   1   1290   1272   1284    768
  5363   1   1290   1272   1284   1260
  5364   1   1290   1272   1284   1278
  5365   1   1284   1272   1290   1189
  5366   1   1284   1272   1290   1266
  5367   1   1284   1272   1290   1277
  5368   1   1291   1273   1285   1261
  5369   1   1291   1273   1285   1263
  5370   1   1291   1273   1285   1279
  5371   1   1285   1273   1291     93
  5372   1   1285   1273   1291   1190
  5373   1   1285   1273   1291   1761
  5374   1   1292   1274   1286   1262
  5375   1   1292   1274   1286   1264
  5376   1   1292   1274   1286   1280
  5377   1   1286   1274   1292   1191
  5378   1   1286   1274   1292   1268
  5379   1   1286   1274   1292   1275
  5380   1   1292   1275   1281   1258
  5381   1   1292   1275   1281   1267
  5382   1   1292   1275   1281   1755
  5383   1   1281   1275   1292   1191
  5384   1   1281   1275   1292   1268
  5385   1   1281   1275   1292   1274
  5386   1    794   1276   1282   1257
  5387   1    794   1276   1282   1266
  5388   1    794   1276   1282   1269
  5389   1   1290   1277   1283   1259
  5390   1   1290   1277   1283   1268
  5391   1   1290   1277   1283   1271
  5392   1   1283   1277   1290   1189
  5393   1   1283   1277   1290   1266
  5394   1   1283   1277   1290   1272
  5395   1   1288   1278   1284    768
  5396   1   1288   1278   1284   1260
  5397   1   1288   1278   1284   1272
  5398   1   1284   1278   1288    832
  5399   1   1284   1278   1288   1264
  5400   1   1284   1278   1288   1270
  5401   1   1289   1279   1285   1261
  5402   1   1289   1279   1285   1263
  5403   1   1289   1279   1285   1273
  5404   1   1285   1279   1289   1265
  5405   1   1285   1279   1289   1271
  5406   1   1285   1279   1289   1330
  5407   1   1251   1280   1286   1262
  5408   1   1251   1280   1286   1264
  5409   1   1251   1280   1286   1274
  5410   1   1773   1755   1281   1258
  5411   1   1773   1755   1281   1267
  5412   1   1773   1755   1281   1275
  5413   1   1353   1328   1287     87
  5414   1   1353   1328   1287   1263
  5415   1   1353   1328   1287   1269
  5416   1   1354   1330   1289   1265
  5417   1   1354   1330   1289   1271
  5418   1   1354   1330   1289   1279
  5419   1   1767   1761   1291     93
  5420   1   1767   1761   1291   1190
  5421   1   1767   1761   1291   1273
  5422   1   1251   1293   1317   1302
  5423   1   1251   1293   1317   1304
  5424   1   1251   1293   1317   1311
  5425   1   1739   1294   1316   1310
  5426   1   1739   1294   1316   1789
  5427   1   1739   1294   1316   1799
  5428   1   1316   1294   1739   1716
  5429   1   1316   1294   1739   1721
  5430   1   1316   1294   1739   1729
  5431   1   1253   1295   1318   1303
  5432   1   1253   1295   1318   1306
  5433   1   1253   1295   1318   1312
  5434   1   1396   1296   1319    804
  5435   1   1396   1296   1319   1307
  5436   1   1396   1296   1319   1313
  5437   1   1319   1296   1396   1373
  5438   1   1319   1296   1396   1378
  5439   1   1319   1296   1396   1383
  5440   1   1397   1297   1320   1299
  5441   1   1397   1297   1320   1308
  5442   1   1397   1297   1320   1314
  5443   1   1320   1297   1397   1379
  5444   1   1320   1297   1397   1863
  5445   1   1320   1297   1397   1409
  5446   1   1398   1298   1321   1300
  5447   1   1398   1298   1321   1309
  5448   1   1398   1298   1321   1315
  5449   1   1321   1298   1398   1374
  5450   1   1321   1298   1398   1380
  5451   1   1321   1298   1398   1381
  5452   1   1322   1299   1320   1297
  5453   1   1322   1299   1320   1308
  5454   1   1322   1299   1320   1314
  5455   1   1320   1299   1322   1304
  5456   1   1320   1299   1322   1364
  5457   1   1320   1299   1322   1351
  5458   1   1323   1300   1321   1298
  5459   1   1323   1300   1321   1309
  5460   1   1323   1300   1321   1315
  5461   1   1321   1300   1323    868
  5462   1   1321   1300   1323   1305
  5463   1   1321   1300   1323   1313
  5464   1   1803   1301   1324   1306
  5465   1   1803   1301   1324   1314
  5466   1   1803   1301   1324   1366
  5467   1   1324   1301   1803   1780
  5468   1   1324   1301   1803   1791
  5469   1   1324   1301   1803   1797
  5470   1   1325   1302   1317   1293
  5471   1   1325   1302   1317   1304
  5472   1   1325   1302   1317   1311
  5473   1   1317   1302   1325   1225
  5474   1   1317   1302   1325   1307
  5475   1   1317   1302   1325   1312
  5476   1   1327   1303   1318   1295
  5477   1   1327   1303   1318   1306
  5478   1   1327   1303   1318   1312
  5479   1   1318   1303   1327   1227
  5480   1   1318   1303   1327   1309
  5481   1   1318   1303   1327   1310
  5482   1   1322   1304   1317   1293
  5483   1   1322   1304   1317   1302
  5484   1   1322   1304   1317   1311
  5485   1   1317   1304   1322   1299
  5486   1   1317   1304   1322   1364
  5487   1   1317   1304   1322   1351
  5488   1    819   1305   1323    868
  5489   1    819   1305   1323   1300
  5490   1    819   1305   1323   1313
  5491   1   1324   1306   1318   1295
  5492   1   1324   1306   1318   1303
  5493   1   1324   1306   1318   1312
  5494   1   1318   1306   1324   1301
  5495   1   1318   1306   1324   1314
  5496   1   1318   1306   1324   1366
  5497   1   1325   1307   1319    804
  5498   1   1325   1307   1319   1296
  5499   1   1325   1307   1319   1313
  5500   1   1319   1307   1325   1225
  5501   1   1319   1307   1325   1302
  5502   1   1319   1307   1325   1312
  5503   1   1326   1308   1320   1297
  5504   1   1326   1308   1320   1299
  5505   1   1326   1308   1320   1314
  5506   1   1320   1308   1326   1226
  5507   1   1320   1308   1326   1795
  5508   1   1320   1308   1326   1338
  5509   1   1327   1309   1321   1298
  5510   1   1327   1309   1321   1300
  5511   1   1327   1309   1321   1315
  5512   1   1321   1309   1327   1227
  5513   1   1321   1309   1327   1303
  5514   1   1321   1309   1327   1310
  5515   1   1327   1310   1316   1294
  5516   1   1327   1310   1316   1789
  5517   1   1327   1310   1316   1799
  5518   1   1316   1310   1327   1227
  5519   1   1316   1310   1327   1303
  5520   1   1316   1310   1327   1309
  5521   1    829   1311   1317   1293
  5522   1    829   1311   1317   1302
  5523   1    829   1311   1317   1304
  5524   1   1325   1312   1318   1295
  5525   1   1325   1312   1318   1303
  5526   1   1325   1312   1318   1306
  5527   1   1318   1312   1325   1225
  5528   1   1318   1312   1325   1302
  5529   1   1318   1312   1325   1307
  5530   1   1323   1313   1319    804
  5531   1   1323   1313   1319   1296
  5532   1   1323   1313   1319   1307
  5533   1   1319   1313   1323    868
  5534   1   1319   1313   1323   1300
  5535   1   1319   1313   1323   1305
  5536   1   1324   1314   1320   1297
  5537   1   1324   1314   1320   1299
  5538   1   1324   1314   1320   1308
  5539   1   1320   1314   1324   1301
  5540   1   1320   1314   1324   1306
  5541   1   1320   1314   1324   1366
  5542   1    819   1315   1321   1298
  5543   1    819   1315   1321   1300
  5544   1    819   1315   1321   1309
  5545   1   1807   1789   1316   1294
  5546   1   1807   1789   1316   1310
  5547   1   1807   1789   1316   1799
  5548   1   1805   1799   1316   1294
  5549   1   1805   1799   1316   1310
  5550   1   1805   1799   1316   1789
  5551   1   1388   1364   1322   1299
  5552   1   1388   1364   1322   1304
  5553   1   1388   1364   1322   1351
  5554   1   1357   1351   1322   1299
  5555   1   1357   1351   1322   1304
  5556   1   1357   1351   1322   1364
  5557   1   1389   1366   1324   1301
  5558   1   1389   1366   1324   1306
  5559   1   1389   1366   1324   1314
  5560   1   1801   1795   1326   1226
  5561   1   1801   1795   1326   1308
  5562   1   1801   1795   1326   1338
  5563   1   1352   1338   1326   1226
  5564   1   1352   1338   1326   1308
  5565   1   1352   1338   1326   1795
  5566   1   1287   1328   1353   1337
  5567   1   1287   1328   1353   1340
  5568   1   1287   1328   1353   1347
  5569   1   1773   1329   1352   1338
  5570   1   1773   1329   1352   1346
  5571   1   1773   1329   1352   1823
  5572   1   1352   1329   1773   1750
  5573   1   1352   1329   1773   1755
  5574   1   1352   1329   1773   1763
  5575   1   1289   1330   1354   1339
  5576   1   1289   1330   1354   1342
  5577   1   1289   1330   1354   1348
  5578   1   1432   1331   1355    839
  5579   1   1432   1331   1355   1343
  5580   1   1432   1331   1355   1349
  5581   1   1355   1331   1432   1408
  5582   1   1355   1331   1432   1414
  5583   1   1355   1331   1432   1419
  5584   1   1433   1332   1356   1334
  5585   1   1433   1332   1356   1344
  5586   1   1433   1332   1356   1350
  5587   1   1356   1332   1433     95
  5588   1   1356   1332   1433   1415
  5589   1   1356   1332   1433   1897
  5590   1   1434   1333   1357   1335
  5591   1   1434   1333   1357   1345
  5592   1   1434   1333   1357   1351
  5593   1   1357   1333   1434   1410
  5594   1   1357   1333   1434   1416
  5595   1   1357   1333   1434   1417
  5596   1   1358   1334   1356   1332
  5597   1   1358   1334   1356   1344
  5598   1   1358   1334   1356   1350
  5599   1   1356   1334   1358     88
  5600   1   1356   1334   1358   1340
  5601   1   1356   1334   1358   1399
  5602   1   1359   1335   1357   1333
  5603   1   1359   1335   1357   1345
  5604   1   1359   1335   1357   1351
  5605   1   1357   1335   1359    903
  5606   1   1357   1335   1359   1341
  5607   1   1357   1335   1359   1349
  5608   1   1837   1336   1360   1342
  5609   1   1837   1336   1360   1350
  5610   1   1837   1336   1360   1401
  5611   1   1360   1336   1837   1814
  5612   1   1360   1336   1837   1825
  5613   1   1360   1336   1837   1831
  5614   1   1361   1337   1353   1328
  5615   1   1361   1337   1353   1340
  5616   1   1361   1337   1353   1347
  5617   1   1353   1337   1361   1260
  5618   1   1353   1337   1361   1343
  5619   1   1353   1337   1361   1348
  5620   1   1326   1338   1352   1329
  5621   1   1326   1338   1352   1346
  5622   1   1326   1338   1352   1823
  5623   1   1363   1339   1354   1330
  5624   1   1363   1339   1354   1342
  5625   1   1363   1339   1354   1348
  5626   1   1354   1339   1363   1262
  5627   1   1354   1339   1363   1345
  5628   1   1354   1339   1363   1346
  5629   1   1358   1340   1353   1328
  5630   1   1358   1340   1353   1337
  5631   1   1358   1340   1353   1347
  5632   1   1353   1340   1358     88
  5633   1   1353   1340   1358   1334
  5634   1   1353   1340   1358   1399
  5635   1    855   1341   1359    903
  5636   1    855   1341   1359   1335
  5637   1    855   1341   1359   1349
  5638   1   1360   1342   1354   1330
  5639   1   1360   1342   1354   1339
  5640   1   1360   1342   1354   1348
  5641   1   1354   1342   1360   1336
  5642   1   1354   1342   1360   1350
  5643   1   1354   1342   1360   1401
  5644   1   1361   1343   1355    839
  5645   1   1361   1343   1355   1331
  5646   1   1361   1343   1355   1349
  5647   1   1355   1343   1361   1260
  5648   1   1355   1343   1361   1337
  5649   1   1355   1343   1361   1348
  5650   1   1362   1344   1356   1332
  5651   1   1362   1344   1356   1334
  5652   1   1362   1344   1356   1350
  5653   1   1356   1344   1362     94
  5654   1   1356   1344   1362   1261
  5655   1   1356   1344   1362   1829
  5656   1   1363   1345   1357   1333
  5657   1   1363   1345   1357   1335
  5658   1   1363   1345   1357   1351
  5659   1   1357   1345   1363   1262
  5660   1   1357   1345   1363   1339
  5661   1   1357   1345   1363   1346
  5662   1   1363   1346   1352   1329
  5663   1   1363   1346   1352   1338
  5664   1   1363   1346   1352   1823
  5665   1   1352   1346   1363   1262
  5666   1   1352   1346   1363   1339
  5667   1   1352   1346   1363   1345
  5668   1    865   1347   1353   1328
  5669   1    865   1347   1353   1337
  5670   1    865   1347   1353   1340
  5671   1   1361   1348   1354   1330
  5672   1   1361   1348   1354   1339
  5673   1   1361   1348   1354   1342
  5674   1   1354   1348   1361   1260
  5675   1   1354   1348   1361   1337
  5676   1   1354   1348   1361   1343
  5677   1   1359   1349   1355    839
  5678   1   1359   1349   1355   1331
  5679   1   1359   1349   1355   1343
  5680   1   1355   1349   1359    903
  5681   1   1355   1349   1359   1335
  5682   1   1355   1349   1359   1341
  5683   1   1360   1350   1356   1332
  5684   1   1360   1350   1356   1334
  5685   1   1360   1350   1356   1344
  5686   1   1356   1350   1360   1336
  5687   1   1356   1350   1360   1342
  5688   1   1356   1350   1360   1401
  5689   1   1322   1351   1357   1333
  5690   1   1322   1351   1357   1335
  5691   1   1322   1351   1357   1345
  5692   1   1841   1823   1352   1329
  5693   1   1841   1823   1352   1338
  5694   1   1841   1823   1352   1346
  5695   1   1424   1399   1358     88
  5696   1   1424   1399   1358   1334
  5697   1   1424   1399   1358   1340
  5698   1   1425   1401   1360   1336
  5699   1   1425   1401   1360   1342
  5700   1   1425   1401   1360   1350
  5701   1   1835   1829   1362     94
  5702   1   1835   1829   1362   1261
  5703   1   1835   1829   1362   1344
  5704   1   1322   1364   1388   1373
  5705   1   1322   1364   1388   1375
  5706   1   1322   1364   1388   1382
  5707   1   1807   1365   1387   1381
  5708   1   1807   1365   1387   1857
  5709   1   1807   1365   1387   1867
  5710   1   1387   1365   1807   1784
  5711   1   1387   1365   1807   1789
  5712   1   1387   1365   1807   1797
  5713   1   1324   1366   1389   1374
  5714   1   1324   1366   1389   1377
  5715   1   1324   1366   1389   1383
  5716   1   1467   1367   1390    875
  5717   1   1467   1367   1390   1378
  5718   1   1467   1367   1390   1384
  5719   1   1390   1367   1467   1444
  5720   1   1390   1367   1467   1449
  5721   1   1390   1367   1467   1454
  5722   1   1468   1368   1391   1370
  5723   1   1468   1368   1391   1379
  5724   1   1468   1368   1391   1385
  5725   1   1391   1368   1468   1450
  5726   1   1391   1368   1468   1931
  5727   1   1391   1368   1468   1480
  5728   1   1469   1369   1392   1371
  5729   1   1469   1369   1392   1380
  5730   1   1469   1369   1392   1386
  5731   1   1392   1369   1469   1445
  5732   1   1392   1369   1469   1451
  5733   1   1392   1369   1469   1452
  5734   1   1393   1370   1391   1368
  5735   1   1393   1370   1391   1379
  5736   1   1393   1370   1391   1385
  5737   1   1391   1370   1393   1375
  5738   1   1391   1370   1393   1435
  5739   1   1391   1370   1393   1422
  5740   1   1394   1371   1392   1369
  5741   1   1394   1371   1392   1380
  5742   1   1394   1371   1392   1386
  5743   1   1392   1371   1394    939
  5744   1   1392   1371   1394   1376
  5745   1   1392   1371   1394   1384
  5746   1   1871   1372   1395   1377
  5747   1   1871   1372   1395   1385
  5748   1   1871   1372   1395   1437
  5749   1   1395   1372   1871   1848
  5750   1   1395   1372   1871   1859
  5751   1   1395   1372   1871   1865
  5752   1   1396   1373   1388   1364
  5753   1   1396   1373   1388   1375
  5754   1   1396   1373   1388   1382
  5755   1   1388   1373   1396   1296
  5756   1   1388   1373   1396   1378
  5757   1   1388   1373   1396   1383
  5758   1   1398   1374   1389   1366
  5759   1   1398   1374   1389   1377
  5760   1   1398   1374   1389   1383
  5761   1   1389   1374   1398   1298
  5762   1   1389   1374   1398   1380
  5763   1   1389   1374   1398   1381
  5764   1   1393   1375   1388   1364
  5765   1   1393   1375   1388   1373
  5766   1   1393   1375   1388   1382
  5767   1   1388   1375   1393   1370
  5768   1   1388   1375   1393   1435
  5769   1   1388   1375   1393   1422
  5770   1    890   1376   1394    939
  5771   1    890   1376   1394   1371
  5772   1    890   1376   1394   1384
  5773   1   1395   1377   1389   1366
  5774   1   1395   1377   1389   1374
  5775   1   1395   1377   1389   1383
  5776   1   1389   1377   1395   1372
  5777   1   1389   1377   1395   1385
  5778   1   1389   1377   1395   1437
  5779   1   1396   1378   1390    875
  5780   1   1396   1378   1390   1367
  5781   1   1396   1378   1390   1384
  5782   1   1390   1378   1396   1296
  5783   1   1390   1378   1396   1373
  5784   1   1390   1378   1396   1383
  5785   1   1397   1379   1391   1368
  5786   1   1397   1379   1391   1370
  5787   1   1397   1379   1391   1385
  5788   1   1391   1379   1397   1297
  5789   1   1391   1379   1397   1863
  5790   1   1391   1379   1397   1409
  5791   1   1398   1380   1392   1369
  5792   1   1398   1380   1392   1371
  5793   1   1398   1380   1392   1386
  5794   1   1392   1380   1398   1298
  5795   1   1392   1380   1398   1374
  5796   1   1392   1380   1398   1381
  5797   1   1398   1381   1387   1365
  5798   1   1398   1381   1387   1857
  5799   1   1398   1381   1387   1867
  5800   1   1387   1381   1398   1298
  5801   1   1387   1381   1398   1374
  5802   1   1387   1381   1398   1380
  5803   1    900   1382   1388   1364
  5804   1    900   1382   1388   1373
  5805   1    900   1382   1388   1375
  5806   1   1396   1383   1389   1366
  5807   1   1396   1383   1389   1374
  5808   1   1396   1383   1389   1377
  5809   1   1389   1383   1396   1296
  5810   1   1389   1383   1396   1373
  5811   1   1389   1383   1396   1378
  5812   1   1394   1384   1390    875
  5813   1   1394   1384   1390   1367
  5814   1   1394   1384   1390   1378
  5815   1   1390   1384   1394    939
  5816   1   1390   1384   1394   1371
  5817   1   1390   1384   1394   1376
  5818   1   1395   1385   1391   1368
  5819   1   1395   1385   1391   1370
  5820   1   1395   1385   1391   1379
  5821   1   1391   1385   1395   1372
  5822   1   1391   1385   1395   1377
  5823   1   1391   1385   1395   1437
  5824   1    890   1386   1392   1369
  5825   1    890   1386   1392   1371
  5826   1    890   1386   1392   1380
  5827   1   1875   1857   1387   1365
  5828   1   1875   1857   1387   1381
  5829   1   1875   1857   1387   1867
  5830   1   1873   1867   1387   1365
  5831   1   1873   1867   1387   1381
  5832   1   1873   1867   1387   1857
  5833   1   1459   1435   1393   1370
  5834   1   1459   1435   1393   1375
  5835   1   1459   1435   1393   1422
  5836   1   1428   1422   1393   1370
  5837   1   1428   1422   1393   1375
  5838   1   1428   1422   1393   1435
  5839   1   1460   1437   1395   1372
  5840   1   1460   1437   1395   1377
  5841   1   1460   1437   1395   1385
  5842   1   1869   1863   1397   1297
  5843   1   1869   1863   1397   1379
  5844   1   1869   1863   1397   1409
  5845   1   1423   1409   1397   1297
  5846   1   1423   1409   1397   1379
  5847   1   1423   1409   1397   1863
  5848   1   1358   1399   1424   1408
  5849   1   1358   1399   1424   1411
  5850   1   1358   1399   1424   1418
  5851   1   1841   1400   1423   1409
  5852   1   1841   1400   1423   1417
  5853   1   1841   1400   1423   1891
  5854   1   1423   1400   1841   1818
  5855   1   1423   1400   1841   1823
  5856   1   1423   1400   1841   1831
  5857   1   1360   1401   1425   1410
  5858   1   1360   1401   1425   1413
  5859   1   1360   1401   1425   1419
  5860   1   1503   1402   1426    910
  5861   1   1503   1402   1426   1414
  5862   1   1503   1402   1426   1420
  5863   1   1426   1402   1503   1479
  5864   1   1426   1402   1503   1485
  5865   1   1426   1402   1503   1490
  5866   1   1504   1403   1427   1405
  5867   1   1504   1403   1427   1415
  5868   1   1504   1403   1427   1421
  5869   1   1427   1403   1504     96
  5870   1   1427   1403   1504   1486
  5871   1   1427   1403   1504   1965
  5872   1   1505   1404   1428   1406
  5873   1   1505   1404   1428   1416
  5874   1   1505   1404   1428   1422
  5875   1   1428   1404   1505   1481
  5876   1   1428   1404   1505   1487
  5877   1   1428   1404   1505   1488
  5878   1   1429   1405   1427   1403
  5879   1   1429   1405   1427   1415
  5880   1   1429   1405   1427   1421
  5881   1   1427   1405   1429     89
  5882   1   1427   1405   1429   1411
  5883   1   1427   1405   1429   1470
  5884   1   1430   1406   1428   1404
  5885   1   1430   1406   1428   1416
  5886   1   1430   1406   1428   1422
  5887   1   1428   1406   1430    974
  5888   1   1428   1406   1430   1412
  5889   1   1428   1406   1430   1420
  5890   1   1905   1407   1431   1413
  5891   1   1905   1407   1431   1421
  5892   1   1905   1407   1431   1472
  5893   1   1431   1407   1905   1882
  5894   1   1431   1407   1905   1893
  5895   1   1431   1407   1905   1899
  5896   1   1432   1408   1424   1399
  5897   1   1432   1408   1424   1411
  5898   1   1432   1408   1424   1418
  5899   1   1424   1408   1432   1331
  5900   1   1424   1408   1432   1414
  5901   1   1424   1408   1432   1419
  5902   1   1397   1409   1423   1400
  5903   1   1397   1409   1423   1417
  5904   1   1397   1409   1423   1891
  5905   1   1434   1410   1425   1401
  5906   1   1434   1410   1425   1413
  5907   1   1434   1410   1425   1419
  5908   1   1425   1410   1434   1333
  5909   1   1425   1410   1434   1416
  5910   1   1425   1410   1434   1417
  5911   1   1429   1411   1424   1399
  5912   1   1429   1411   1424   1408
  5913   1   1429   1411   1424   1418
  5914   1   1424   1411   1429     89
  5915   1   1424   1411   1429   1405
  5916   1   1424   1411   1429   1470
  5917   1    926   1412   1430    974
  5918   1    926   1412   1430   1406
  5919   1    926   1412   1430   1420
  5920   1   1431   1413   1425   1401
  5921   1   1431   1413   1425   1410
  5922   1   1431   1413   1425   1419
  5923   1   1425   1413   1431   1407
  5924   1   1425   1413   1431   1421
  5925   1   1425   1413   1431   1472
  5926   1   1432   1414   1426    910
  5927   1   1432   1414   1426   1402
  5928   1   1432   1414   1426   1420
  5929   1   1426   1414   1432   1331
  5930   1   1426   1414   1432   1408
  5931   1   1426   1414   1432   1419
  5932   1   1433   1415   1427   1403
  5933   1   1433   1415   1427   1405
  5934   1   1433   1415   1427   1421
  5935   1   1427   1415   1433     95
  5936   1   1427   1415   1433   1332
  5937   1   1427   1415   1433   1897
  5938   1   1434   1416   1428   1404
  5939   1   1434   1416   1428   1406
  5940   1   1434   1416   1428   1422
  5941   1   1428   1416   1434   1333
  5942   1   1428   1416   1434   1410
  5943   1   1428   1416   1434   1417
  5944   1   1434   1417   1423   1400
  5945   1   1434   1417   1423   1409
  5946   1   1434   1417   1423   1891
  5947   1   1423   1417   1434   1333
  5948   1   1423   1417   1434   1410
  5949   1   1423   1417   1434   1416
  5950   1    936   1418   1424   1399
  5951   1    936   1418   1424   1408
  5952   1    936   1418   1424   1411
  5953   1   1432   1419   1425   1401
  5954   1   1432   1419   1425   1410
  5955   1   1432   1419   1425   1413
  5956   1   1425   1419   1432   1331
  5957   1   1425   1419   1432   1408
  5958   1   1425   1419   1432   1414
  5959   1   1430   1420   1426    910
  5960   1   1430   1420   1426   1402
  5961   1   1430   1420   1426   1414
  5962   1   1426   1420   1430    974
  5963   1   1426   1420   1430   1406
  5964   1   1426   1420   1430   1412
  5965   1   1431   1421   1427   1403
  5966   1   1431   1421   1427   1405
  5967   1   1431   1421   1427   1415
  5968   1   1427   1421   1431   1407
  5969   1   1427   1421   1431   1413
  5970   1   1427   1421   1431   1472
  5971   1   1393   1422   1428   1404
  5972   1   1393   1422   1428   1406
  5973   1   1393   1422   1428   1416
  5974   1   1909   1891   1423   1400
  5975   1   1909   1891   1423   1409
  5976   1   1909   1891   1423   1417
  5977   1   1495   1470   1429     89
  5978   1   1495   1470   1429   1405
  5979   1   1495   1470   1429   1411
  5980   1   1496   1472   1431   1407
  5981   1   1496   1472   1431   1413
  5982   1   1496   1472   1431   1421
  5983   1   1903   1897   1433     95
  5984   1   1903   1897   1433   1332
  5985   1   1903   1897   1433   1415
  5986   1   1393   1435   1459   1444
  5987   1   1393   1435   1459   1446
  5988   1   1393   1435   1459   1453
  5989   1   1875   1436   1458   1452
  5990   1   1875   1436   1458   1925
  5991   1   1875   1436   1458   1935
  5992   1   1458   1436   1875   1852
  5993   1   1458   1436   1875   1857
  5994   1   1458   1436   1875   1865
  5995   1   1395   1437   1460   1445
  5996   1   1395   1437   1460   1448
  5997   1   1395   1437   1460   1454
  5998   1   1041   1438   1461    946
  5999   1   1041   1438   1461   1449
  6000   1   1041   1438   1461   1455
  6001   1   1042   1439   1462   1441
  6002   1   1042   1439   1462   1450
  6003   1   1042   1439   1462   1456
  6004   1   1043   1440   1463   1442
  6005   1   1043   1440   1463   1451
  6006   1   1043   1440   1463   1457
  6007   1   1464   1441   1462   1439
  6008   1   1464   1441   1462   1450
  6009   1   1464   1441   1462   1456
  6010   1   1462   1441   1464   1446
  6011   1   1462   1441   1464   1493
  6012   1   1462   1441   1464   1009
  6013   1   1465   1442   1463   1440
  6014   1   1465   1442   1463   1451
  6015   1   1465   1442   1463   1457
  6016   1   1463   1442   1465   1447
  6017   1   1463   1442   1465   1455
  6018   1   1463   1442   1465    513
  6019   1   1939   1443   1466   1448
  6020   1   1939   1443   1466   1456
  6021   1   1939   1443   1466   1011
  6022   1   1466   1443   1939   1916
  6023   1   1466   1443   1939   1927
  6024   1   1466   1443   1939   1933
  6025   1   1467   1444   1459   1435
  6026   1   1467   1444   1459   1446
  6027   1   1467   1444   1459   1453
  6028   1   1459   1444   1467   1367
  6029   1   1459   1444   1467   1449
  6030   1   1459   1444   1467   1454
  6031   1   1469   1445   1460   1437
  6032   1   1469   1445   1460   1448
  6033   1   1469   1445   1460   1454
  6034   1   1460   1445   1469   1369
  6035   1   1460   1445   1469   1451
  6036   1   1460   1445   1469   1452
  6037   1   1464   1446   1459   1435
  6038   1   1464   1446   1459   1444
  6039   1   1464   1446   1459   1453
  6040   1   1459   1446   1464   1441
  6041   1   1459   1446   1464   1493
  6042   1   1459   1446   1464   1009
  6043   1    961   1447   1465   1442
  6044   1    961   1447   1465   1455
  6045   1    961   1447   1465    513
  6046   1   1466   1448   1460   1437
  6047   1   1466   1448   1460   1445
  6048   1   1466   1448   1460   1454
  6049   1   1460   1448   1466   1443
  6050   1   1460   1448   1466   1456
  6051   1   1460   1448   1466   1011
  6052   1   1467   1449   1461    946
  6053   1   1467   1449   1461   1438
  6054   1   1467   1449   1461   1455
  6055   1   1461   1449   1467   1367
  6056   1   1461   1449   1467   1444
  6057   1   1461   1449   1467   1454
  6058   1   1468   1450   1462   1439
  6059   1   1468   1450   1462   1441
  6060   1   1468   1450   1462   1456
  6061   1   1462   1450   1468   1368
  6062   1   1462   1450   1468   1931
  6063   1   1462   1450   1468   1480
  6064   1   1469   1451   1463   1440
  6065   1   1469   1451   1463   1442
  6066   1   1469   1451   1463   1457
  6067   1   1463   1451   1469   1369
  6068   1   1463   1451   1469   1445
  6069   1   1463   1451   1469   1452
  6070   1   1469   1452   1458   1436
  6071   1   1469   1452   1458   1925
  6072   1   1469   1452   1458   1935
  6073   1   1458   1452   1469   1369
  6074   1   1458   1452   1469   1445
  6075   1   1458   1452   1469   1451
  6076   1    971   1453   1459   1435
  6077   1    971   1453   1459   1444
  6078   1    971   1453   1459   1446
  6079   1   1467   1454   1460   1437
  6080   1   1467   1454   1460   1445
  6081   1   1467   1454   1460   1448
  6082   1   1460   1454   1467   1367
  6083   1   1460   1454   1467   1444
  6084   1   1460   1454   1467   1449
  6085   1   1465   1455   1461    946
  6086   1   1465   1455   1461   1438
  6087   1   1465   1455   1461   1449
  6088   1   1461   1455   1465   1442
  6089   1   1461   1455   1465   1447
  6090   1   1461   1455   1465    513
  6091   1   1466   1456   1462   1439
  6092   1   1466   1456   1462   1441
  6093   1   1466   1456   1462   1450
  6094   1   1462   1456   1466   1443
  6095   1   1462   1456   1466   1448
  6096   1   1462   1456   1466   1011
  6097   1    961   1457   1463   1440
  6098   1    961   1457   1463   1442
  6099   1    961   1457   1463   1451
  6100   1   1943   1925   1458   1436
  6101   1   1943   1925   1458   1452
  6102   1   1943   1925   1458   1935
  6103   1   1941   1935   1458   1436
  6104   1   1941   1935   1458   1452
  6105   1   1941   1935   1458   1925
  6106   1   1499   1493   1464   1441
  6107   1   1499   1493   1464   1446
  6108   1   1499   1493   1464   1009
  6109   1   1937   1931   1468   1368
  6110   1   1937   1931   1468   1450
  6111   1   1937   1931   1468   1480
  6112   1   1494   1480   1468   1368
  6113   1   1494   1480   1468   1450
  6114   1   1494   1480   1468   1931
  6115   1   1429   1470   1495   1479
  6116   1   1429   1470   1495   1482
  6117   1   1429   1470   1495   1489
  6118   1   1909   1471   1494   1480
  6119   1   1909   1471   1494   1488
  6120   1   1909   1471   1494   1959
  6121   1   1494   1471   1909   1886
  6122   1   1494   1471   1909   1891
  6123   1   1494   1471   1909   1899
  6124   1   1431   1472   1496   1481
  6125   1   1431   1472   1496   1484
  6126   1   1431   1472   1496   1490
  6127   1   1077   1473   1497    981
  6128   1   1077   1473   1497   1485
  6129   1   1077   1473   1497   1491
  6130   1   1078   1474   1498   1476
  6131   1   1078   1474   1498   1486
  6132   1   1078   1474   1498   1492
  6133   1   1079   1475   1499   1477
  6134   1   1079   1475   1499   1487
  6135   1   1079   1475   1499   1493
  6136   1   1500   1476   1498   1474
  6137   1   1500   1476   1498   1486
  6138   1   1500   1476   1498   1492
  6139   1   1498   1476   1500     90
  6140   1   1498   1476   1500   1482
  6141   1   1498   1476   1500   1044
  6142   1   1501   1477   1499   1475
  6143   1   1501   1477   1499   1487
  6144   1   1501   1477   1499   1493
  6145   1   1499   1477   1501   1483
  6146   1   1499   1477   1501   1491
  6147   1   1499   1477   1501    548
  6148   1   1973   1478   1502   1484
  6149   1   1973   1478   1502   1492
  6150   1   1973   1478   1502   1046
  6151   1   1502   1478   1973   1950
  6152   1   1502   1478   1973   1961
  6153   1   1502   1478   1973   1967
  6154   1   1503   1479   1495   1470
  6155   1   1503   1479   1495   1482
  6156   1   1503   1479   1495   1489
  6157   1   1495   1479   1503   1402
  6158   1   1495   1479   1503   1485
  6159   1   1495   1479   1503   1490
  6160   1   1468   1480   1494   1471
  6161   1   1468   1480   1494   1488
  6162   1   1468   1480   1494   1959
  6163   1   1505   1481   1496   1472
  6164   1   1505   1481   1496   1484
  6165   1   1505   1481   1496   1490
  6166   1   1496   1481   1505   1404
  6167   1   1496   1481   1505   1487
  6168   1   1496   1481   1505   1488
  6169   1   1500   1482   1495   1470
  6170   1   1500   1482   1495   1479
  6171   1   1500   1482   1495   1489
  6172   1   1495   1482   1500     90
  6173   1   1495   1482   1500   1476
  6174   1   1495   1482   1500   1044
  6175   1    997   1483   1501   1477
  6176   1    997   1483   1501   1491
  6177   1    997   1483   1501    548
  6178   1   1502   1484   1496   1472
  6179   1   1502   1484   1496   1481
  6180   1   1502   1484   1496   1490
  6181   1   1496   1484   1502   1478
  6182   1   1496   1484   1502   1492
  6183   1   1496   1484   1502   1046
  6184   1   1503   1485   1497    981
  6185   1   1503   1485   1497   1473
  6186   1   1503   1485   1497   1491
  6187   1   1497   1485   1503   1402
  6188   1   1497   1485   1503   1479
  6189   1   1497   1485   1503   1490
  6190   1   1504   1486   1498   1474
  6191   1   1504   1486   1498   1476
  6192   1   1504   1486   1498   1492
  6193   1   1498   1486   1504     96
  6194   1   1498   1486   1504   1403
  6195   1   1498   1486   1504   1965
  6196   1   1505   1487   1499   1475
  6197   1   1505   1487   1499   1477
  6198   1   1505   1487   1499   1493
  6199   1   1499   1487   1505   1404
  6200   1   1499   1487   1505   1481
  6201   1   1499   1487   1505   1488
  6202   1   1505   1488   1494   1471
  6203   1   1505   1488   1494   1480
  6204   1   1505   1488   1494   1959
  6205   1   1494   1488   1505   1404
  6206   1   1494   1488   1505   1481
  6207   1   1494   1488   1505   1487
  6208   1   1007   1489   1495   1470
  6209   1   1007   1489   1495   1479
  6210   1   1007   1489   1495   1482
  6211   1   1503   1490   1496   1472
  6212   1   1503   1490   1496   1481
  6213   1   1503   1490   1496   1484
  6214   1   1496   1490   1503   1402
  6215   1   1496   1490   1503   1479
  6216   1   1496   1490   1503   1485
  6217   1   1501   1491   1497    981
  6218   1   1501   1491   1497   1473
  6219   1   1501   1491   1497   1485
  6220   1   1497   1491   1501   1477
  6221   1   1497   1491   1501   1483
  6222   1   1497   1491   1501    548
  6223   1   1502   1492   1498   1474
  6224   1   1502   1492   1498   1476
  6225   1   1502   1492   1498   1486
  6226   1   1498   1492   1502   1478
  6227   1   1498   1492   1502   1484
  6228   1   1498   1492   1502   1046
  6229   1   1464   1493   1499   1475
  6230   1   1464   1493   1499   1477
  6231   1   1464   1493   1499   1487
  6232   1   1977   1959   1494   1471
  6233   1   1977   1959   1494   1480
  6234   1   1977   1959   1494   1488
  6235   1   1971   1965   1504     96
  6236   1   1971   1965   1504   1403
  6237   1   1971   1965   1504   1486
  6238   1   1942   1506   1529   1514
  6239   1   1942   1506   1529   1516
  6240   1   1942   1506   1529   1523
  6241   1   1529   1506   1942   1919
  6242   1   1529   1506   1942   1924
  6243   1   1529   1506   1942   1969
  6244   1   1944   1507   1530   1515
  6245   1   1944   1507   1530   1518
  6246   1   1944   1507   1530   1524
  6247   1   1530   1507   1944   1921
  6248   1   1530   1507   1944   1926
  6249   1   1530   1507   1944   1934
  6250   1   1605   1508   1531   1017
  6251   1   1605   1508   1531   1519
  6252   1   1605   1508   1531   1525
  6253   1   1531   1508   1605   1582
  6254   1   1531   1508   1605   1587
  6255   1   1531   1508   1605   1592
  6256   1   1606   1509   1532   1511
  6257   1   1606   1509   1532   1520
  6258   1   1606   1509   1532   1526
  6259   1   1532   1509   1606   1588
  6260   1   1532   1509   1606    115
  6261   1   1532   1509   1606   1987
  6262   1   1607   1510   1533   1512
  6263   1   1607   1510   1533   1521
  6264   1   1607   1510   1533   1527
  6265   1   1533   1510   1607   1583
  6266   1   1533   1510   1607   1589
  6267   1   1533   1510   1607   1590
  6268   1   1534   1511   1532   1509
  6269   1   1534   1511   1532   1520
  6270   1   1534   1511   1532   1526
  6271   1   1532   1511   1534   1516
  6272   1   1532   1511   1534   1574
  6273   1   1532   1511   1534   1561
  6274   1   1535   1512   1533   1510
  6275   1   1535   1512   1533   1521
  6276   1   1535   1512   1533   1527
  6277   1   1533   1512   1535   1081
  6278   1   1533   1512   1535   1517
  6279   1   1533   1512   1535   1525
  6280   1     26   1513   1536   1518
  6281   1     26   1513   1536   1526
  6282   1     26   1513   1536   1575
  6283   1   1537   1514   1529   1506
  6284   1   1537   1514   1529   1516
  6285   1   1537   1514   1529   1523
  6286   1   1529   1514   1537   1519
  6287   1   1529   1514   1537   1524
  6288   1   1529   1514   1537   1916
  6289   1   1539   1515   1530   1507
  6290   1   1539   1515   1530   1518
  6291   1   1539   1515   1530   1524
  6292   1   1530   1515   1539   1521
  6293   1   1530   1515   1539   1522
  6294   1   1530   1515   1539   1918
  6295   1   1534   1516   1529   1506
  6296   1   1534   1516   1529   1514
  6297   1   1534   1516   1529   1523
  6298   1   1529   1516   1534   1511
  6299   1   1529   1516   1534   1574
  6300   1   1529   1516   1534   1561
  6301   1   1032   1517   1535   1081
  6302   1   1032   1517   1535   1512
  6303   1   1032   1517   1535   1525
  6304   1   1536   1518   1530   1507
  6305   1   1536   1518   1530   1515
  6306   1   1536   1518   1530   1524
  6307   1   1530   1518   1536   1513
  6308   1   1530   1518   1536   1526
  6309   1   1530   1518   1536   1575
  6310   1   1537   1519   1531   1017
  6311   1   1537   1519   1531   1508
  6312   1   1537   1519   1531   1525
  6313   1   1531   1519   1537   1514
  6314   1   1531   1519   1537   1524
  6315   1   1531   1519   1537   1916
  6316   1   1538   1520   1532   1509
  6317   1   1538   1520   1532   1511
  6318   1   1538   1520   1532   1526
  6319   1   1532   1520   1538     18
  6320   1   1532   1520   1538   1917
  6321   1   1532   1520   1538   1984
  6322   1   1539   1521   1533   1510
  6323   1   1539   1521   1533   1512
  6324   1   1539   1521   1533   1527
  6325   1   1533   1521   1539   1515
  6326   1   1533   1521   1539   1522
  6327   1   1533   1521   1539   1918
  6328   1   1539   1522   1528   2003
  6329   1   1539   1522   1528     22
  6330   1   1539   1522   1528   1982
  6331   1   1528   1522   1539   1515
  6332   1   1528   1522   1539   1521
  6333   1   1528   1522   1539   1918
  6334   1   1042   1523   1529   1506
  6335   1   1042   1523   1529   1514
  6336   1   1042   1523   1529   1516
  6337   1   1537   1524   1530   1507
  6338   1   1537   1524   1530   1515
  6339   1   1537   1524   1530   1518
  6340   1   1530   1524   1537   1514
  6341   1   1530   1524   1537   1519
  6342   1   1530   1524   1537   1916
  6343   1   1535   1525   1531   1017
  6344   1   1535   1525   1531   1508
  6345   1   1535   1525   1531   1519
  6346   1   1531   1525   1535   1081
  6347   1   1531   1525   1535   1512
  6348   1   1531   1525   1535   1517
  6349   1   1536   1526   1532   1509
  6350   1   1536   1526   1532   1511
  6351   1   1536   1526   1532   1520
  6352   1   1532   1526   1536   1513
  6353   1   1532   1526   1536   1518
  6354   1   1532   1526   1536   1575
  6355   1   1032   1527   1533   1510
  6356   1   1032   1527   1533   1512
  6357   1   1032   1527   1533   1521
  6358   1     30   2003   1528   1522
  6359   1     30   2003   1528     22
  6360   1     30   2003   1528   1982
  6361   1    472   1982   1528   1522
  6362   1    472   1982   1528   2003
  6363   1    472   1982   1528     22
  6364   1   1597   1574   1534   1511
  6365   1   1597   1574   1534   1516
  6366   1   1597   1574   1534   1561
  6367   1   1567   1561   1534   1511
  6368   1   1567   1561   1534   1516
  6369   1   1567   1561   1534   1574
  6370   1   1598   1575   1536   1513
  6371   1   1598   1575   1536   1518
  6372   1   1598   1575   1536   1526
  6373   1   1939   1916   1537   1514
  6374   1   1939   1916   1537   1519
  6375   1   1939   1916   1537   1524
  6376   1   1940   1917   1538   1520
  6377   1   1940   1917   1538     18
  6378   1   1940   1917   1538   1984
  6379   1   1562   1984   1538   1520
  6380   1   1562   1984   1538     18
  6381   1   1562   1984   1538   1917
  6382   1   1941   1918   1539   1515
  6383   1   1941   1918   1539   1521
  6384   1   1941   1918   1539   1522
  6385   1   1976   1540   1563   1548
  6386   1   1976   1540   1563   1550
  6387   1   1976   1540   1563   1557
  6388   1   1563   1540   1976     97
  6389   1   1563   1540   1976   1953
  6390   1   1563   1540   1976   1958
  6391   1   1978   1541   1564   1549
  6392   1   1978   1541   1564   1552
  6393   1   1978   1541   1564   1558
  6394   1   1564   1541   1978   1955
  6395   1   1564   1541   1978   1960
  6396   1   1564   1541   1978   1968
  6397   1   1639   1542   1565   1052
  6398   1   1639   1542   1565   1553
  6399   1   1639   1542   1565   1559
  6400   1   1565   1542   1639   1616
  6401   1   1565   1542   1639   1621
  6402   1   1565   1542   1639   1626
  6403   1   1640   1543   1566   1545
  6404   1   1640   1543   1566   1554
  6405   1   1640   1543   1566   1560
  6406   1   1566   1543   1640   1622
  6407   1   1566   1543   1640     70
  6408   1   1566   1543   1640    150
  6409   1   1641   1544   1567   1546
  6410   1   1641   1544   1567   1555
  6411   1   1641   1544   1567   1561
  6412   1   1567   1544   1641   1617
  6413   1   1567   1544   1641   1623
  6414   1   1567   1544   1641   1624
  6415   1   1568   1545   1566   1543
  6416   1   1568   1545   1566   1554
  6417   1   1568   1545   1566   1560
  6418   1   1566   1545   1568     91
  6419   1   1566   1545   1568   1550
  6420   1   1566   1545   1568   1608
  6421   1   1569   1546   1567   1544
  6422   1   1569   1546   1567   1555
  6423   1   1569   1546   1567   1561
  6424   1   1567   1546   1569   1116
  6425   1   1567   1546   1569   1551
  6426   1   1567   1546   1569   1559
  6427   1     61   1547   1570   1552
  6428   1     61   1547   1570   1560
  6429   1     61   1547   1570   1609
  6430   1   1571   1548   1563   1540
  6431   1   1571   1548   1563   1550
  6432   1   1571   1548   1563   1557
  6433   1   1563   1548   1571   1553
  6434   1   1563   1548   1571   1558
  6435   1   1563   1548   1571   1950
  6436   1   1573   1549   1564   1541
  6437   1   1573   1549   1564   1552
  6438   1   1573   1549   1564   1558
  6439   1   1564   1549   1573   1555
  6440   1   1564   1549   1573   1556
  6441   1   1564   1549   1573   1952
  6442   1   1568   1550   1563   1540
  6443   1   1568   1550   1563   1548
  6444   1   1568   1550   1563   1557
  6445   1   1563   1550   1568     91
  6446   1   1563   1550   1568   1545
  6447   1   1563   1550   1568   1608
  6448   1   1068   1551   1569   1116
  6449   1   1068   1551   1569   1546
  6450   1   1068   1551   1569   1559
  6451   1   1570   1552   1564   1541
  6452   1   1570   1552   1564   1549
  6453   1   1570   1552   1564   1558
  6454   1   1564   1552   1570   1547
  6455   1   1564   1552   1570   1560
  6456   1   1564   1552   1570   1609
  6457   1   1571   1553   1565   1052
  6458   1   1571   1553   1565   1542
  6459   1   1571   1553   1565   1559
  6460   1   1565   1553   1571   1548
  6461   1   1565   1553   1571   1558
  6462   1   1565   1553   1571   1950
  6463   1   1572   1554   1566   1543
  6464   1   1572   1554   1566   1545
  6465   1   1572   1554   1566   1560
  6466   1   1566   1554   1572     53
  6467   1   1566   1554   1572     76
  6468   1   1566   1554   1572   1951
  6469   1   1573   1555   1567   1544
  6470   1   1573   1555   1567   1546
  6471   1   1573   1555   1567   1561
  6472   1   1567   1555   1573   1549
  6473   1   1567   1555   1573   1556
  6474   1   1567   1555   1573   1952
  6475   1   1573   1556   1562   2004
  6476   1   1573   1556   1562   1983
  6477   1   1573   1556   1562   1984
  6478   1   1562   1556   1573   1549
  6479   1   1562   1556   1573   1555
  6480   1   1562   1556   1573   1952
  6481   1   1078   1557   1563   1540
  6482   1   1078   1557   1563   1548
  6483   1   1078   1557   1563   1550
  6484   1   1571   1558   1564   1541
  6485   1   1571   1558   1564   1549
  6486   1   1571   1558   1564   1552
  6487   1   1564   1558   1571   1548
  6488   1   1564   1558   1571   1553
  6489   1   1564   1558   1571   1950
  6490   1   1569   1559   1565   1052
  6491   1   1569   1559   1565   1542
  6492   1   1569   1559   1565   1553
  6493   1   1565   1559   1569   1116
  6494   1   1565   1559   1569   1546
  6495   1   1565   1559   1569   1551
  6496   1   1570   1560   1566   1543
  6497   1   1570   1560   1566   1545
  6498   1   1570   1560   1566   1554
  6499   1   1566   1560   1570   1547
  6500   1   1566   1560   1570   1552
  6501   1   1566   1560   1570   1609
  6502   1   1534   1561   1567   1544
  6503   1   1534   1561   1567   1546
  6504   1   1534   1561   1567   1555
  6505   1     65   2004   1562   1556
  6506   1     65   2004   1562   1983
  6507   1     65   2004   1562   1984
  6508   1    507   1983   1562   1556
  6509   1    507   1983   1562   2004
  6510   1    507   1983   1562   1984
  6511   1   1538   1984   1562   1556
  6512   1   1538   1984   1562   2004
  6513   1   1538   1984   1562   1983
  6514   1   1631   1608   1568     91
  6515   1   1631   1608   1568   1545
  6516   1   1631   1608   1568   1550
  6517   1   1632   1609   1570   1547
  6518   1   1632   1609   1570   1552
  6519   1   1632   1609   1570   1560
  6520   1   1973   1950   1571   1548
  6521   1   1973   1950   1571   1553
  6522   1   1973   1950   1571   1558
  6523   1   1974   1951   1572   1554
  6524   1   1974   1951   1572     53
  6525   1   1974   1951   1572     76
  6526   1   1975   1952   1573   1549
  6527   1   1975   1952   1573   1555
  6528   1   1975   1952   1573   1556
  6529   1   1534   1574   1597   1582
  6530   1   1534   1574   1597   1584
  6531   1   1534   1574   1597   1591
  6532   1   1536   1575   1598   1583
  6533   1   1536   1575   1598   1586
  6534   1   1536   1575   1598   1592
  6535   1   1673   1576   1599   1088
  6536   1   1673   1576   1599   1587
  6537   1   1673   1576   1599   1593
  6538   1   1599   1576   1673   1650
  6539   1   1599   1576   1673   1655
  6540   1   1599   1576   1673   1660
  6541   1   1674   1577   1600   1579
  6542   1   1674   1577   1600   1588
  6543   1   1674   1577   1600   1594
  6544   1   1600   1577   1674   1656
  6545   1   1600   1577   1674    184
  6546   1   1600   1577   1674   1990
  6547   1   1675   1578   1601   1580
  6548   1   1675   1578   1601   1589
  6549   1   1675   1578   1601   1595
  6550   1   1601   1578   1675   1651
  6551   1   1601   1578   1675   1657
  6552   1   1601   1578   1675   1658
  6553   1   1602   1579   1600   1577
  6554   1   1602   1579   1600   1588
  6555   1   1602   1579   1600   1594
  6556   1   1600   1579   1602   1584
  6557   1   1600   1579   1602   1642
  6558   1   1600   1579   1602   1629
  6559   1   1603   1580   1601   1578
  6560   1   1603   1580   1601   1589
  6561   1   1603   1580   1601   1595
  6562   1   1601   1580   1603   1152
  6563   1   1601   1580   1603   1585
  6564   1   1601   1580   1603   1593
  6565   1    123   1581   1604   1586
  6566   1    123   1581   1604   1594
  6567   1    123   1581   1604   1643
  6568   1   1605   1582   1597   1574
  6569   1   1605   1582   1597   1584
  6570   1   1605   1582   1597   1591
  6571   1   1597   1582   1605   1508
  6572   1   1597   1582   1605   1587
  6573   1   1597   1582   1605   1592
  6574   1   1607   1583   1598   1575
  6575   1   1607   1583   1598   1586
  6576   1   1607   1583   1598   1592
  6577   1   1598   1583   1607   1510
  6578   1   1598   1583   1607   1589
  6579   1   1598   1583   1607   1590
  6580   1   1602   1584   1597   1574
  6581   1   1602   1584   1597   1582
  6582   1   1602   1584   1597   1591
  6583   1   1597   1584   1602   1579
  6584   1   1597   1584   1602   1642
  6585   1   1597   1584   1602   1629
  6586   1   1103   1585   1603   1152
  6587   1   1103   1585   1603   1580
  6588   1   1103   1585   1603   1593
  6589   1   1604   1586   1598   1575
  6590   1   1604   1586   1598   1583
  6591   1   1604   1586   1598   1592
  6592   1   1598   1586   1604   1581
  6593   1   1598   1586   1604   1594
  6594   1   1598   1586   1604   1643
  6595   1   1605   1587   1599   1088
  6596   1   1605   1587   1599   1576
  6597   1   1605   1587   1599   1593
  6598   1   1599   1587   1605   1508
  6599   1   1599   1587   1605   1582
  6600   1   1599   1587   1605   1592
  6601   1   1606   1588   1600   1577
  6602   1   1606   1588   1600   1579
  6603   1   1606   1588   1600   1594
  6604   1   1600   1588   1606   1509
  6605   1   1600   1588   1606    115
  6606   1   1600   1588   1606   1987
  6607   1   1607   1589   1601   1578
  6608   1   1607   1589   1601   1580
  6609   1   1607   1589   1601   1595
  6610   1   1601   1589   1607   1510
  6611   1   1601   1589   1607   1583
  6612   1   1601   1589   1607   1590
  6613   1   1607   1590   1596   2005
  6614   1   1607   1590   1596    119
  6615   1   1607   1590   1596   1985
  6616   1   1596   1590   1607   1510
  6617   1   1596   1590   1607   1583
  6618   1   1596   1590   1607   1589
  6619   1   1113   1591   1597   1574
  6620   1   1113   1591   1597   1582
  6621   1   1113   1591   1597   1584
  6622   1   1605   1592   1598   1575
  6623   1   1605   1592   1598   1583
  6624   1   1605   1592   1598   1586
  6625   1   1598   1592   1605   1508
  6626   1   1598   1592   1605   1582
  6627   1   1598   1592   1605   1587
  6628   1   1603   1593   1599   1088
  6629   1   1603   1593   1599   1576
  6630   1   1603   1593   1599   1587
  6631   1   1599   1593   1603   1152
  6632   1   1599   1593   1603   1580
  6633   1   1599   1593   1603   1585
  6634   1   1604   1594   1600   1577
  6635   1   1604   1594   1600   1579
  6636   1   1604   1594   1600   1588
  6637   1   1600   1594   1604   1581
  6638   1   1600   1594   1604   1586
  6639   1   1600   1594   1604   1643
  6640   1   1103   1595   1601   1578
  6641   1   1103   1595   1601   1580
  6642   1   1103   1595   1601   1589
  6643   1    127   2005   1596   1590
  6644   1    127   2005   1596    119
  6645   1    127   2005   1596   1985
  6646   1     30   1985   1596   1590
  6647   1     30   1985   1596   2005
  6648   1     30   1985   1596    119
  6649   1   1665   1642   1602   1579
  6650   1   1665   1642   1602   1584
  6651   1   1665   1642   1602   1629
  6652   1   1635   1629   1602   1579
  6653   1   1635   1629   1602   1584
  6654   1   1635   1629   1602   1642
  6655   1   1666   1643   1604   1581
  6656   1   1666   1643   1604   1586
  6657   1   1666   1643   1604   1594
  6658   1   1630   1987   1606   1509
  6659   1   1630   1987   1606   1588
  6660   1   1630   1987   1606    115
  6661   1   1568   1608   1631   1616
  6662   1   1568   1608   1631   1618
  6663   1   1568   1608   1631   1625
  6664   1   1570   1609   1632   1617
  6665   1   1570   1609   1632   1620
  6666   1   1570   1609   1632   1626
  6667   1   1707   1610   1633   1123
  6668   1   1707   1610   1633   1621
  6669   1   1707   1610   1633   1627
  6670   1   1633   1610   1707   1684
  6671   1   1633   1610   1707   1689
  6672   1   1633   1610   1707   1694
  6673   1   1708   1611   1634   1613
  6674   1   1708   1611   1634   1622
  6675   1   1708   1611   1634   1628
  6676   1   1634   1611   1708   1690
  6677   1   1634   1611   1708     71
  6678   1   1634   1611   1708    219
  6679   1   1709   1612   1635   1614
  6680   1   1709   1612   1635   1623
  6681   1   1709   1612   1635   1629
  6682   1   1635   1612   1709   1685
  6683   1   1635   1612   1709   1691
  6684   1   1635   1612   1709   1692
  6685   1   1636   1613   1634   1611
  6686   1   1636   1613   1634   1622
  6687   1   1636   1613   1634   1628
  6688   1   1634   1613   1636     92
  6689   1   1634   1613   1636   1618
  6690   1   1634   1613   1636   1676
  6691   1   1637   1614   1635   1612
  6692   1   1637   1614   1635   1623
  6693   1   1637   1614   1635   1629
  6694   1   1635   1614   1637   1187
  6695   1   1635   1614   1637   1619
  6696   1   1635   1614   1637   1627
  6697   1    158   1615   1638   1620
  6698   1    158   1615   1638   1628
  6699   1    158   1615   1638   1677
  6700   1   1639   1616   1631   1608
  6701   1   1639   1616   1631   1618
  6702   1   1639   1616   1631   1625
  6703   1   1631   1616   1639   1542
  6704   1   1631   1616   1639   1621
  6705   1   1631   1616   1639   1626
  6706   1   1641   1617   1632   1609
  6707   1   1641   1617   1632   1620
  6708   1   1641   1617   1632   1626
  6709   1   1632   1617   1641   1544
  6710   1   1632   1617   1641   1623
  6711   1   1632   1617   1641   1624
  6712   1   1636   1618   1631   1608
  6713   1   1636   1618   1631   1616
  6714   1   1636   1618   1631   1625
  6715   1   1631   1618   1636     92
  6716   1   1631   1618   1636   1613
  6717   1   1631   1618   1636   1676
  6718   1   1139   1619   1637   1187
  6719   1   1139   1619   1637   1614
  6720   1   1139   1619   1637   1627
  6721   1   1638   1620   1632   1609
  6722   1   1638   1620   1632   1617
  6723   1   1638   1620   1632   1626
  6724   1   1632   1620   1638   1615
  6725   1   1632   1620   1638   1628
  6726   1   1632   1620   1638   1677
  6727   1   1639   1621   1633   1123
  6728   1   1639   1621   1633   1610
  6729   1   1639   1621   1633   1627
  6730   1   1633   1621   1639   1542
  6731   1   1633   1621   1639   1616
  6732   1   1633   1621   1639   1626
  6733   1   1640   1622   1634   1611
  6734   1   1640   1622   1634   1613
  6735   1   1640   1622   1634   1628
  6736   1   1634   1622   1640   1543
  6737   1   1634   1622   1640     70
  6738   1   1634   1622   1640    150
  6739   1   1641   1623   1635   1612
  6740   1   1641   1623   1635   1614
  6741   1   1641   1623   1635   1629
  6742   1   1635   1623   1641   1544
  6743   1   1635   1623   1641   1617
  6744   1   1635   1623   1641   1624
  6745   1   1641   1624   1630   2006
  6746   1   1641   1624   1630   1986
  6747   1   1641   1624   1630   1987
  6748   1   1630   1624   1641   1544
  6749   1   1630   1624   1641   1617
  6750   1   1630   1624   1641   1623
  6751   1   1149   1625   1631   1608
  6752   1   1149   1625   1631   1616
  6753   1   1149   1625   1631   1618
  6754   1   1639   1626   1632   1609
  6755   1   1639   1626   1632   1617
  6756   1   1639   1626   1632   1620
  6757   1   1632   1626   1639   1542
  6758   1   1632   1626   1639   1616
  6759   1   1632   1626   1639   1621
  6760   1   1637   1627   1633   1123
  6761   1   1637   1627   1633   1610
  6762   1   1637   1627   1633   1621
  6763   1   1633   1627   1637   1187
  6764   1   1633   1627   1637   1614
  6765   1   1633   1627   1637   1619
  6766   1   1638   1628   1634   1611
  6767   1   1638   1628   1634   1613
  6768   1   1638   1628   1634   1622
  6769   1   1634   1628   1638   1615
  6770   1   1634   1628   1638   1620
  6771   1   1634   1628   1638   1677
  6772   1   1602   1629   1635   1612
  6773   1   1602   1629   1635   1614
  6774   1   1602   1629   1635   1623
  6775   1    162   2006   1630   1624
  6776   1    162   2006   1630   1986
  6777   1    162   2006   1630   1987
  6778   1     65   1986   1630   1624
  6779   1     65   1986   1630   2006
  6780   1     65   1986   1630   1987
  6781   1   1606   1987   1630   1624
  6782   1   1606   1987   1630   2006
  6783   1   1606   1987   1630   1986
  6784   1   1699   1676   1636     92
  6785   1   1699   1676   1636   1613
  6786   1   1699   1676   1636   1618
  6787   1   1700   1677   1638   1615
  6788   1   1700   1677   1638   1620
  6789   1   1700   1677   1638   1628
  6790   1   1602   1642   1665   1650
  6791   1   1602   1642   1665   1652
  6792   1   1602   1642   1665   1659
  6793   1   1604   1643   1666   1651
  6794   1   1604   1643   1666   1654
  6795   1   1604   1643   1666   1660
  6796   1   1741   1644   1667   1159
  6797   1   1741   1644   1667   1655
  6798   1   1741   1644   1667   1661
  6799   1   1667   1644   1741   1718
  6800   1   1667   1644   1741   1723
  6801   1   1667   1644   1741   1728
  6802   1   1742   1645   1668   1647
  6803   1   1742   1645   1668   1656
  6804   1   1742   1645   1668   1662
  6805   1   1668   1645   1742   1724
  6806   1   1668   1645   1742    253
  6807   1   1668   1645   1742   1993
  6808   1   1743   1646   1669   1648
  6809   1   1743   1646   1669   1657
  6810   1   1743   1646   1669   1663
  6811   1   1669   1646   1743   1719
  6812   1   1669   1646   1743   1725
  6813   1   1669   1646   1743   1726
  6814   1   1670   1647   1668   1645
  6815   1   1670   1647   1668   1656
  6816   1   1670   1647   1668   1662
  6817   1   1668   1647   1670   1652
  6818   1   1668   1647   1670   1710
  6819   1   1668   1647   1670   1697
  6820   1   1671   1648   1669   1646
  6821   1   1671   1648   1669   1657
  6822   1   1671   1648   1669   1663
  6823   1   1669   1648   1671   1223
  6824   1   1669   1648   1671   1653
  6825   1   1669   1648   1671   1661
  6826   1    192   1649   1672   1654
  6827   1    192   1649   1672   1662
  6828   1    192   1649   1672   1711
  6829   1   1673   1650   1665   1642
  6830   1   1673   1650   1665   1652
  6831   1   1673   1650   1665   1659
  6832   1   1665   1650   1673   1576
  6833   1   1665   1650   1673   1655
  6834   1   1665   1650   1673   1660
  6835   1   1675   1651   1666   1643
  6836   1   1675   1651   1666   1654
  6837   1   1675   1651   1666   1660
  6838   1   1666   1651   1675   1578
  6839   1   1666   1651   1675   1657
  6840   1   1666   1651   1675   1658
  6841   1   1670   1652   1665   1642
  6842   1   1670   1652   1665   1650
  6843   1   1670   1652   1665   1659
  6844   1   1665   1652   1670   1647
  6845   1   1665   1652   1670   1710
  6846   1   1665   1652   1670   1697
  6847   1   1174   1653   1671   1223
  6848   1   1174   1653   1671   1648
  6849   1   1174   1653   1671   1661
  6850   1   1672   1654   1666   1643
  6851   1   1672   1654   1666   1651
  6852   1   1672   1654   1666   1660
  6853   1   1666   1654   1672   1649
  6854   1   1666   1654   1672   1662
  6855   1   1666   1654   1672   1711
  6856   1   1673   1655   1667   1159
  6857   1   1673   1655   1667   1644
  6858   1   1673   1655   1667   1661
  6859   1   1667   1655   1673   1576
  6860   1   1667   1655   1673   1650
  6861   1   1667   1655   1673   1660
  6862   1   1674   1656   1668   1645
  6863   1   1674   1656   1668   1647
  6864   1   1674   1656   1668   1662
  6865   1   1668   1656   1674   1577
  6866   1   1668   1656   1674    184
  6867   1   1668   1656   1674   1990
  6868   1   1675   1657   1669   1646
  6869   1   1675   1657   1669   1648
  6870   1   1675   1657   1669   1663
  6871   1   1669   1657   1675   1578
  6872   1   1669   1657   1675   1651
  6873   1   1669   1657   1675   1658
  6874   1   1675   1658   1664   2007
  6875   1   1675   1658   1664    188
  6876   1   1675   1658   1664   1988
  6877   1   1664   1658   1675   1578
  6878   1   1664   1658   1675   1651
  6879   1   1664   1658   1675   1657
  6880   1   1184   1659   1665   1642
  6881   1   1184   1659   1665   1650
  6882   1   1184   1659   1665   1652
  6883   1   1673   1660   1666   1643
  6884   1   1673   1660   1666   1651
  6885   1   1673   1660   1666   1654
  6886   1   1666   1660   1673   1576
  6887   1   1666   1660   1673   1650
  6888   1   1666   1660   1673   1655
  6889   1   1671   1661   1667   1159
  6890   1   1671   1661   1667   1644
  6891   1   1671   1661   1667   1655
  6892   1   1667   1661   1671   1223
  6893   1   1667   1661   1671   1648
  6894   1   1667   1661   1671   1653
  6895   1   1672   1662   1668   1645
  6896   1   1672   1662   1668   1647
  6897   1   1672   1662   1668   1656
  6898   1   1668   1662   1672   1649
  6899   1   1668   1662   1672   1654
  6900   1   1668   1662   1672   1711
  6901   1   1174   1663   1669   1646
  6902   1   1174   1663   1669   1648
  6903   1   1174   1663   1669   1657
  6904   1    196   2007   1664   1658
  6905   1    196   2007   1664    188
  6906   1    196   2007   1664   1988
  6907   1    127   1988   1664   1658
  6908   1    127   1988   1664   2007
  6909   1    127   1988   1664    188
  6910   1   1733   1710   1670   1647
  6911   1   1733   1710   1670   1652
  6912   1   1733   1710   1670   1697
  6913   1   1703   1697   1670   1647
  6914   1   1703   1697   1670   1652
  6915   1   1703   1697   1670   1710
  6916   1   1734   1711   1672   1649
  6917   1   1734   1711   1672   1654
  6918   1   1734   1711   1672   1662
  6919   1   1698   1990   1674   1577
  6920   1   1698   1990   1674   1656
  6921   1   1698   1990   1674    184
  6922   1   1636   1676   1699   1684
  6923   1   1636   1676   1699   1686
  6924   1   1636   1676   1699   1693
  6925   1   1638   1677   1700   1685
  6926   1   1638   1677   1700   1688
  6927   1   1638   1677   1700   1694
  6928   1   1775   1678   1701   1194
  6929   1   1775   1678   1701   1689
  6930   1   1775   1678   1701   1695
  6931   1   1701   1678   1775   1752
  6932   1   1701   1678   1775   1757
  6933   1   1701   1678   1775   1762
  6934   1   1776   1679   1702   1681
  6935   1   1776   1679   1702   1690
  6936   1   1776   1679   1702   1696
  6937   1   1702   1679   1776   1758
  6938   1   1702   1679   1776     72
  6939   1   1702   1679   1776    288
  6940   1   1777   1680   1703   1682
  6941   1   1777   1680   1703   1691
  6942   1   1777   1680   1703   1697
  6943   1   1703   1680   1777   1753
  6944   1   1703   1680   1777   1759
  6945   1   1703   1680   1777   1760
  6946   1   1704   1681   1702   1679
  6947   1   1704   1681   1702   1690
  6948   1   1704   1681   1702   1696
  6949   1   1702   1681   1704     93
  6950   1   1702   1681   1704   1686
  6951   1   1702   1681   1704   1744
  6952   1   1705   1682   1703   1680
  6953   1   1705   1682   1703   1691
  6954   1   1705   1682   1703   1697
  6955   1   1703   1682   1705   1258
  6956   1   1703   1682   1705   1687
  6957   1   1703   1682   1705   1695
  6958   1    227   1683   1706   1688
  6959   1    227   1683   1706   1696
  6960   1    227   1683   1706   1745
  6961   1   1707   1684   1699   1676
  6962   1   1707   1684   1699   1686
  6963   1   1707   1684   1699   1693
  6964   1   1699   1684   1707   1610
  6965   1   1699   1684   1707   1689
  6966   1   1699   1684   1707   1694
  6967   1   1709   1685   1700   1677
  6968   1   1709   1685   1700   1688
  6969   1   1709   1685   1700   1694
  6970   1   1700   1685   1709   1612
  6971   1   1700   1685   1709   1691
  6972   1   1700   1685   1709   1692
  6973   1   1704   1686   1699   1676
  6974   1   1704   1686   1699   1684
  6975   1   1704   1686   1699   1693
  6976   1   1699   1686   1704     93
  6977   1   1699   1686   1704   1681
  6978   1   1699   1686   1704   1744
  6979   1   1210   1687   1705   1258
  6980   1   1210   1687   1705   1682
  6981   1   1210   1687   1705   1695
  6982   1   1706   1688   1700   1677
  6983   1   1706   1688   1700   1685
  6984   1   1706   1688   1700   1694
  6985   1   1700   1688   1706   1683
  6986   1   1700   1688   1706   1696
  6987   1   1700   1688   1706   1745
  6988   1   1707   1689   1701   1194
  6989   1   1707   1689   1701   1678
  6990   1   1707   1689   1701   1695
  6991   1   1701   1689   1707   1610
  6992   1   1701   1689   1707   1684
  6993   1   1701   1689   1707   1694
  6994   1   1708   1690   1702   1679
  6995   1   1708   1690   1702   1681
  6996   1   1708   1690   1702   1696
  6997   1   1702   1690   1708   1611
  6998   1   1702   1690   1708     71
  6999   1   1702   1690   1708    219
  7000   1   1709   1691   1703   1680
  7001   1   1709   1691   1703   1682
  7002   1   1709   1691   1703   1697
  7003   1   1703   1691   1709   1612
  7004   1   1703   1691   1709   1685
  7005   1   1703   1691   1709   1692
  7006   1   1709   1692   1698   2008
  7007   1   1709   1692   1698   1989
  7008   1   1709   1692   1698   1990
  7009   1   1698   1692   1709   1612
  7010   1   1698   1692   1709   1685
  7011   1   1698   1692   1709   1691
  7012   1   1220   1693   1699   1676
  7013   1   1220   1693   1699   1684
  7014   1   1220   1693   1699   1686
  7015   1   1707   1694   1700   1677
  7016   1   1707   1694   1700   1685
  7017   1   1707   1694   1700   1688
  7018   1   1700   1694   1707   1610
  7019   1   1700   1694   1707   1684
  7020   1   1700   1694   1707   1689
  7021   1   1705   1695   1701   1194
  7022   1   1705   1695   1701   1678
  7023   1   1705   1695   1701   1689
  7024   1   1701   1695   1705   1258
  7025   1   1701   1695   1705   1682
  7026   1   1701   1695   1705   1687
  7027   1   1706   1696   1702   1679
  7028   1   1706   1696   1702   1681
  7029   1   1706   1696   1702   1690
  7030   1   1702   1696   1706   1683
  7031   1   1702   1696   1706   1688
  7032   1   1702   1696   1706   1745
  7033   1   1670   1697   1703   1680
  7034   1   1670   1697   1703   1682
  7035   1   1670   1697   1703   1691
  7036   1    231   2008   1698   1692
  7037   1    231   2008   1698   1989
  7038   1    231   2008   1698   1990
  7039   1    162   1989   1698   1692
  7040   1    162   1989   1698   2008
  7041   1    162   1989   1698   1990
  7042   1   1674   1990   1698   1692
  7043   1   1674   1990   1698   2008
  7044   1   1674   1990   1698   1989
  7045   1   1767   1744   1704     93
  7046   1   1767   1744   1704   1681
  7047   1   1767   1744   1704   1686
  7048   1   1768   1745   1706   1683
  7049   1   1768   1745   1706   1688
  7050   1   1768   1745   1706   1696
  7051   1   1670   1710   1733   1718
  7052   1   1670   1710   1733   1720
  7053   1   1670   1710   1733   1727
  7054   1   1672   1711   1734   1719
  7055   1   1672   1711   1734   1722
  7056   1   1672   1711   1734   1728
  7057   1   1809   1712   1735   1230
  7058   1   1809   1712   1735   1723
  7059   1   1809   1712   1735   1729
  7060   1   1735   1712   1809   1786
  7061   1   1735   1712   1809   1791
  7062   1   1735   1712   1809   1796
  7063   1   1810   1713   1736   1715
  7064   1   1810   1713   1736   1724
  7065   1   1810   1713   1736   1730
  7066   1   1736   1713   1810   1792
  7067   1   1736   1713   1810    322
  7068   1   1736   1713   1810   1996
  7069   1   1811   1714   1737   1716
  7070   1   1811   1714   1737   1725
  7071   1   1811   1714   1737   1731
  7072   1   1737   1714   1811   1787
  7073   1   1737   1714   1811   1793
  7074   1   1737   1714   1811   1794
  7075   1   1738   1715   1736   1713
  7076   1   1738   1715   1736   1724
  7077   1   1738   1715   1736   1730
  7078   1   1736   1715   1738   1720
  7079   1   1736   1715   1738   1778
  7080   1   1736   1715   1738   1765
  7081   1   1739   1716   1737   1714
  7082   1   1739   1716   1737   1725
  7083   1   1739   1716   1737   1731
  7084   1   1737   1716   1739   1294
  7085   1   1737   1716   1739   1721
  7086   1   1737   1716   1739   1729
  7087   1    261   1717   1740   1722
  7088   1    261   1717   1740   1730
  7089   1    261   1717   1740   1779
  7090   1   1741   1718   1733   1710
  7091   1   1741   1718   1733   1720
  7092   1   1741   1718   1733   1727
  7093   1   1733   1718   1741   1644
  7094   1   1733   1718   1741   1723
  7095   1   1733   1718   1741   1728
  7096   1   1743   1719   1734   1711
  7097   1   1743   1719   1734   1722
  7098   1   1743   1719   1734   1728
  7099   1   1734   1719   1743   1646
  7100   1   1734   1719   1743   1725
  7101   1   1734   1719   1743   1726
  7102   1   1738   1720   1733   1710
  7103   1   1738   1720   1733   1718
  7104   1   1738   1720   1733   1727
  7105   1   1733   1720   1738   1715
  7106   1   1733   1720   1738   1778
  7107   1   1733   1720   1738   1765
  7108   1   1245   1721   1739   1294
  7109   1   1245   1721   1739   1716
  7110   1   1245   1721   1739   1729
  7111   1   1740   1722   1734   1711
  7112   1   1740   1722   1734   1719
  7113   1   1740   1722   1734   1728
  7114   1   1734   1722   1740   1717
  7115   1   1734   1722   1740   1730
  7116   1   1734   1722   1740   1779
  7117   1   1741   1723   1735   1230
  7118   1   1741   1723   1735   1712
  7119   1   1741   1723   1735   1729
  7120   1   1735   1723   1741   1644
  7121   1   1735   1723   1741   1718
  7122   1   1735   1723   1741   1728
  7123   1   1742   1724   1736   1713
  7124   1   1742   1724   1736   1715
  7125   1   1742   1724   1736   1730
  7126   1   1736   1724   1742   1645
  7127   1   1736   1724   1742    253
  7128   1   1736   1724   1742   1993
  7129   1   1743   1725   1737   1714
  7130   1   1743   1725   1737   1716
  7131   1   1743   1725   1737   1731
  7132   1   1737   1725   1743   1646
  7133   1   1737   1725   1743   1719
  7134   1   1737   1725   1743   1726
  7135   1   1743   1726   1732   2009
  7136   1   1743   1726   1732    257
  7137   1   1743   1726   1732   1991
  7138   1   1732   1726   1743   1646
  7139   1   1732   1726   1743   1719
  7140   1   1732   1726   1743   1725
  7141   1   1255   1727   1733   1710
  7142   1   1255   1727   1733   1718
  7143   1   1255   1727   1733   1720
  7144   1   1741   1728   1734   1711
  7145   1   1741   1728   1734   1719
  7146   1   1741   1728   1734   1722
  7147   1   1734   1728   1741   1644
  7148   1   1734   1728   1741   1718
  7149   1   1734   1728   1741   1723
  7150   1   1739   1729   1735   1230
  7151   1   1739   1729   1735   1712
  7152   1   1739   1729   1735   1723
  7153   1   1735   1729   1739   1294
  7154   1   1735   1729   1739   1716
  7155   1   1735   1729   1739   1721
  7156   1   1740   1730   1736   1713
  7157   1   1740   1730   1736   1715
  7158   1   1740   1730   1736   1724
  7159   1   1736   1730   1740   1717
  7160   1   1736   1730   1740   1722
  7161   1   1736   1730   1740   1779
  7162   1   1245   1731   1737   1714
  7163   1   1245   1731   1737   1716
  7164   1   1245   1731   1737   1725
  7165   1    265   2009   1732   1726
  7166   1    265   2009   1732    257
  7167   1    265   2009   1732   1991
  7168   1    196   1991   1732   1726
  7169   1    196   1991   1732   2009
  7170   1    196   1991   1732    257
  7171   1   1801   1778   1738   1715
  7172   1   1801   1778   1738   1720
  7173   1   1801   1778   1738   1765
  7174   1   1771   1765   1738   1715
  7175   1   1771   1765   1738   1720
  7176   1   1771   1765   1738   1778
  7177   1   1802   1779   1740   1717
  7178   1   1802   1779   1740   1722
  7179   1   1802   1779   1740   1730
  7180   1   1766   1993   1742   1645
  7181   1   1766   1993   1742   1724
  7182   1   1766   1993   1742    253
  7183   1   1704   1744   1767   1752
  7184   1   1704   1744   1767   1754
  7185   1   1704   1744   1767   1761
  7186   1   1706   1745   1768   1753
  7187   1   1706   1745   1768   1756
  7188   1   1706   1745   1768   1762
  7189   1   1843   1746   1769   1265
  7190   1   1843   1746   1769   1757
  7191   1   1843   1746   1769   1763
  7192   1   1769   1746   1843   1820
  7193   1   1769   1746   1843   1825
  7194   1   1769   1746   1843   1830
  7195   1   1844   1747   1770   1749
  7196   1   1844   1747   1770   1758
  7197   1   1844   1747   1770   1764
  7198   1   1770   1747   1844   1826
  7199   1   1770   1747   1844     73
  7200   1   1770   1747   1844    357
  7201   1   1845   1748   1771   1750
  7202   1   1845   1748   1771   1759
  7203   1   1845   1748   1771   1765
  7204   1   1771   1748   1845   1821
  7205   1   1771   1748   1845   1827
  7206   1   1771   1748   1845   1828
  7207   1   1772   1749   1770   1747
  7208   1   1772   1749   1770   1758
  7209   1   1772   1749   1770   1764
  7210   1   1770   1749   1772     94
  7211   1   1770   1749   1772   1754
  7212   1   1770   1749   1772   1812
  7213   1   1773   1750   1771   1748
  7214   1   1773   1750   1771   1759
  7215   1   1773   1750   1771   1765
  7216   1   1771   1750   1773   1329
  7217   1   1771   1750   1773   1755
  7218   1   1771   1750   1773   1763
  7219   1    296   1751   1774   1756
  7220   1    296   1751   1774   1764
  7221   1    296   1751   1774   1813
  7222   1   1775   1752   1767   1744
  7223   1   1775   1752   1767   1754
  7224   1   1775   1752   1767   1761
  7225   1   1767   1752   1775   1678
  7226   1   1767   1752   1775   1757
  7227   1   1767   1752   1775   1762
  7228   1   1777   1753   1768   1745
  7229   1   1777   1753   1768   1756
  7230   1   1777   1753   1768   1762
  7231   1   1768   1753   1777   1680
  7232   1   1768   1753   1777   1759
  7233   1   1768   1753   1777   1760
  7234   1   1772   1754   1767   1744
  7235   1   1772   1754   1767   1752
  7236   1   1772   1754   1767   1761
  7237   1   1767   1754   1772     94
  7238   1   1767   1754   1772   1749
  7239   1   1767   1754   1772   1812
  7240   1   1281   1755   1773   1329
  7241   1   1281   1755   1773   1750
  7242   1   1281   1755   1773   1763
  7243   1   1774   1756   1768   1745
  7244   1   1774   1756   1768   1753
  7245   1   1774   1756   1768   1762
  7246   1   1768   1756   1774   1751
  7247   1   1768   1756   1774   1764
  7248   1   1768   1756   1774   1813
  7249   1   1775   1757   1769   1265
  7250   1   1775   1757   1769   1746
  7251   1   1775   1757   1769   1763
  7252   1   1769   1757   1775   1678
  7253   1   1769   1757   1775   1752
  7254   1   1769   1757   1775   1762
  7255   1   1776   1758   1770   1747
  7256   1   1776   1758   1770   1749
  7257   1   1776   1758   1770   1764
  7258   1   1770   1758   1776   1679
  7259   1   1770   1758   1776     72
  7260   1   1770   1758   1776    288
  7261   1   1777   1759   1771   1748
  7262   1   1777   1759   1771   1750
  7263   1   1777   1759   1771   1765
  7264   1   1771   1759   1777   1680
  7265   1   1771   1759   1777   1753
  7266   1   1771   1759   1777   1760
  7267   1   1777   1760   1766   2010
  7268   1   1777   1760   1766   1992
  7269   1   1777   1760   1766   1993
  7270   1   1766   1760   1777   1680
  7271   1   1766   1760   1777   1753
  7272   1   1766   1760   1777   1759
  7273   1   1291   1761   1767   1744
  7274   1   1291   1761   1767   1752
  7275   1   1291   1761   1767   1754
  7276   1   1775   1762   1768   1745
  7277   1   1775   1762   1768   1753
  7278   1   1775   1762   1768   1756
  7279   1   1768   1762   1775   1678
  7280   1   1768   1762   1775   1752
  7281   1   1768   1762   1775   1757
  7282   1   1773   1763   1769   1265
  7283   1   1773   1763   1769   1746
  7284   1   1773   1763   1769   1757
  7285   1   1769   1763   1773   1329
  7286   1   1769   1763   1773   1750
  7287   1   1769   1763   1773   1755
  7288   1   1774   1764   1770   1747
  7289   1   1774   1764   1770   1749
  7290   1   1774   1764   1770   1758
  7291   1   1770   1764   1774   1751
  7292   1   1770   1764   1774   1756
  7293   1   1770   1764   1774   1813
  7294   1   1738   1765   1771   1748
  7295   1   1738   1765   1771   1750
  7296   1   1738   1765   1771   1759
  7297   1    300   2010   1766   1760
  7298   1    300   2010   1766   1992
  7299   1    300   2010   1766   1993
  7300   1    231   1992   1766   1760
  7301   1    231   1992   1766   2010
  7302   1    231   1992   1766   1993
  7303   1   1742   1993   1766   1760
  7304   1   1742   1993   1766   2010
  7305   1   1742   1993   1766   1992
  7306   1   1835   1812   1772     94
  7307   1   1835   1812   1772   1749
  7308   1   1835   1812   1772   1754
  7309   1   1836   1813   1774   1751
  7310   1   1836   1813   1774   1756
  7311   1   1836   1813   1774   1764
  7312   1   1738   1778   1801   1786
  7313   1   1738   1778   1801   1788
  7314   1   1738   1778   1801   1795
  7315   1   1740   1779   1802   1787
  7316   1   1740   1779   1802   1790
  7317   1   1740   1779   1802   1796
  7318   1   1877   1780   1803   1301
  7319   1   1877   1780   1803   1791
  7320   1   1877   1780   1803   1797
  7321   1   1803   1780   1877   1854
  7322   1   1803   1780   1877   1859
  7323   1   1803   1780   1877   1864
  7324   1   1878   1781   1804   1783
  7325   1   1878   1781   1804   1792
  7326   1   1878   1781   1804   1798
  7327   1   1804   1781   1878   1860
  7328   1   1804   1781   1878    391
  7329   1   1804   1781   1878   1999
  7330   1   1879   1782   1805   1784
  7331   1   1879   1782   1805   1793
  7332   1   1879   1782   1805   1799
  7333   1   1805   1782   1879   1855
  7334   1   1805   1782   1879   1861
  7335   1   1805   1782   1879   1862
  7336   1   1806   1783   1804   1781
  7337   1   1806   1783   1804   1792
  7338   1   1806   1783   1804   1798
  7339   1   1804   1783   1806   1788
  7340   1   1804   1783   1806   1846
  7341   1   1804   1783   1806   1833
  7342   1   1807   1784   1805   1782
  7343   1   1807   1784   1805   1793
  7344   1   1807   1784   1805   1799
  7345   1   1805   1784   1807   1365
  7346   1   1805   1784   1807   1789
  7347   1   1805   1784   1807   1797
  7348   1    330   1785   1808   1790
  7349   1    330   1785   1808   1798
  7350   1    330   1785   1808   1847
  7351   1   1809   1786   1801   1778
  7352   1   1809   1786   1801   1788
  7353   1   1809   1786   1801   1795
  7354   1   1801   1786   1809   1712
  7355   1   1801   1786   1809   1791
  7356   1   1801   1786   1809   1796
  7357   1   1811   1787   1802   1779
  7358   1   1811   1787   1802   1790
  7359   1   1811   1787   1802   1796
  7360   1   1802   1787   1811   1714
  7361   1   1802   1787   1811   1793
  7362   1   1802   1787   1811   1794
  7363   1   1806   1788   1801   1778
  7364   1   1806   1788   1801   1786
  7365   1   1806   1788   1801   1795
  7366   1   1801   1788   1806   1783
  7367   1   1801   1788   1806   1846
  7368   1   1801   1788   1806   1833
  7369   1   1316   1789   1807   1365
  7370   1   1316   1789   1807   1784
  7371   1   1316   1789   1807   1797
  7372   1   1808   1790   1802   1779
  7373   1   1808   1790   1802   1787
  7374   1   1808   1790   1802   1796
  7375   1   1802   1790   1808   1785
  7376   1   1802   1790   1808   1798
  7377   1   1802   1790   1808   1847
  7378   1   1809   1791   1803   1301
  7379   1   1809   1791   1803   1780
  7380   1   1809   1791   1803   1797
  7381   1   1803   1791   1809   1712
  7382   1   1803   1791   1809   1786
  7383   1   1803   1791   1809   1796
  7384   1   1810   1792   1804   1781
  7385   1   1810   1792   1804   1783
  7386   1   1810   1792   1804   1798
  7387   1   1804   1792   1810   1713
  7388   1   1804   1792   1810    322
  7389   1   1804   1792   1810   1996
  7390   1   1811   1793   1805   1782
  7391   1   1811   1793   1805   1784
  7392   1   1811   1793   1805   1799
  7393   1   1805   1793   1811   1714
  7394   1   1805   1793   1811   1787
  7395   1   1805   1793   1811   1794
  7396   1   1811   1794   1800   2011
  7397   1   1811   1794   1800    326
  7398   1   1811   1794   1800   1994
  7399   1   1800   1794   1811   1714
  7400   1   1800   1794   1811   1787
  7401   1   1800   1794   1811   1793
  7402   1   1326   1795   1801   1778
  7403   1   1326   1795   1801   1786
  7404   1   1326   1795   1801   1788
  7405   1   1809   1796   1802   1779
  7406   1   1809   1796   1802   1787
  7407   1   1809   1796   1802   1790
  7408   1   1802   1796   1809   1712
  7409   1   1802   1796   1809   1786
  7410   1   1802   1796   1809   1791
  7411   1   1807   1797   1803   1301
  7412   1   1807   1797   1803   1780
  7413   1   1807   1797   1803   1791
  7414   1   1803   1797   1807   1365
  7415   1   1803   1797   1807   1784
  7416   1   1803   1797   1807   1789
  7417   1   1808   1798   1804   1781
  7418   1   1808   1798   1804   1783
  7419   1   1808   1798   1804   1792
  7420   1   1804   1798   1808   1785
  7421   1   1804   1798   1808   1790
  7422   1   1804   1798   1808   1847
  7423   1   1316   1799   1805   1782
  7424   1   1316   1799   1805   1784
  7425   1   1316   1799   1805   1793
  7426   1    334   2011   1800   1794
  7427   1    334   2011   1800    326
  7428   1    334   2011   1800   1994
  7429   1    265   1994   1800   1794
  7430   1    265   1994   1800   2011
  7431   1    265   1994   1800    326
  7432   1   1869   1846   1806   1783
  7433   1   1869   1846   1806   1788
  7434   1   1869   1846   1806   1833
  7435   1   1839   1833   1806   1783
  7436   1   1839   1833   1806   1788
  7437   1   1839   1833   1806   1846
  7438   1   1870   1847   1808   1785
  7439   1   1870   1847   1808   1790
  7440   1   1870   1847   1808   1798
  7441   1   1834   1996   1810   1713
  7442   1   1834   1996   1810   1792
  7443   1   1834   1996   1810    322
  7444   1   1772   1812   1835   1820
  7445   1   1772   1812   1835   1822
  7446   1   1772   1812   1835   1829
  7447   1   1774   1813   1836   1821
  7448   1   1774   1813   1836   1824
  7449   1   1774   1813   1836   1830
  7450   1   1911   1814   1837   1336
  7451   1   1911   1814   1837   1825
  7452   1   1911   1814   1837   1831
  7453   1   1837   1814   1911   1888
  7454   1   1837   1814   1911   1893
  7455   1   1837   1814   1911   1898
  7456   1   1912   1815   1838   1817
  7457   1   1912   1815   1838   1826
  7458   1   1912   1815   1838   1832
  7459   1   1838   1815   1912   1894
  7460   1   1838   1815   1912     74
  7461   1   1838   1815   1912    426
  7462   1   1913   1816   1839   1818
  7463   1   1913   1816   1839   1827
  7464   1   1913   1816   1839   1833
  7465   1   1839   1816   1913   1889
  7466   1   1839   1816   1913   1895
  7467   1   1839   1816   1913   1896
  7468   1   1840   1817   1838   1815
  7469   1   1840   1817   1838   1826
  7470   1   1840   1817   1838   1832
  7471   1   1838   1817   1840     95
  7472   1   1838   1817   1840   1822
  7473   1   1838   1817   1840   1880
  7474   1   1841   1818   1839   1816
  7475   1   1841   1818   1839   1827
  7476   1   1841   1818   1839   1833
  7477   1   1839   1818   1841   1400
  7478   1   1839   1818   1841   1823
  7479   1   1839   1818   1841   1831
  7480   1    365   1819   1842   1824
  7481   1    365   1819   1842   1832
  7482   1    365   1819   1842   1881
  7483   1   1843   1820   1835   1812
  7484   1   1843   1820   1835   1822
  7485   1   1843   1820   1835   1829
  7486   1   1835   1820   1843   1746
  7487   1   1835   1820   1843   1825
  7488   1   1835   1820   1843   1830
  7489   1   1845   1821   1836   1813
  7490   1   1845   1821   1836   1824
  7491   1   1845   1821   1836   1830
  7492   1   1836   1821   1845   1748
  7493   1   1836   1821   1845   1827
  7494   1   1836   1821   1845   1828
  7495   1   1840   1822   1835   1812
  7496   1   1840   1822   1835   1820
  7497   1   1840   1822   1835   1829
  7498   1   1835   1822   1840     95
  7499   1   1835   1822   1840   1817
  7500   1   1835   1822   1840   1880
  7501   1   1352   1823   1841   1400
  7502   1   1352   1823   1841   1818
  7503   1   1352   1823   1841   1831
  7504   1   1842   1824   1836   1813
  7505   1   1842   1824   1836   1821
  7506   1   1842   1824   1836   1830
  7507   1   1836   1824   1842   1819
  7508   1   1836   1824   1842   1832
  7509   1   1836   1824   1842   1881
  7510   1   1843   1825   1837   1336
  7511   1   1843   1825   1837   1814
  7512   1   1843   1825   1837   1831
  7513   1   1837   1825   1843   1746
  7514   1   1837   1825   1843   1820
  7515   1   1837   1825   1843   1830
  7516   1   1844   1826   1838   1815
  7517   1   1844   1826   1838   1817
  7518   1   1844   1826   1838   1832
  7519   1   1838   1826   1844   1747
  7520   1   1838   1826   1844     73
  7521   1   1838   1826   1844    357
  7522   1   1845   1827   1839   1816
  7523   1   1845   1827   1839   1818
  7524   1   1845   1827   1839   1833
  7525   1   1839   1827   1845   1748
  7526   1   1839   1827   1845   1821
  7527   1   1839   1827   1845   1828
  7528   1   1845   1828   1834   2012
  7529   1   1845   1828   1834   1995
  7530   1   1845   1828   1834   1996
  7531   1   1834   1828   1845   1748
  7532   1   1834   1828   1845   1821
  7533   1   1834   1828   1845   1827
  7534   1   1362   1829   1835   1812
  7535   1   1362   1829   1835   1820
  7536   1   1362   1829   1835   1822
  7537   1   1843   1830   1836   1813
  7538   1   1843   1830   1836   1821
  7539   1   1843   1830   1836   1824
  7540   1   1836   1830   1843   1746
  7541   1   1836   1830   1843   1820
  7542   1   1836   1830   1843   1825
  7543   1   1841   1831   1837   1336
  7544   1   1841   1831   1837   1814
  7545   1   1841   1831   1837   1825
  7546   1   1837   1831   1841   1400
  7547   1   1837   1831   1841   1818
  7548   1   1837   1831   1841   1823
  7549   1   1842   1832   1838   1815
  7550   1   1842   1832   1838   1817
  7551   1   1842   1832   1838   1826
  7552   1   1838   1832   1842   1819
  7553   1   1838   1832   1842   1824
  7554   1   1838   1832   1842   1881
  7555   1   1806   1833   1839   1816
  7556   1   1806   1833   1839   1818
  7557   1   1806   1833   1839   1827
  7558   1    369   2012   1834   1828
  7559   1    369   2012   1834   1995
  7560   1    369   2012   1834   1996
  7561   1    300   1995   1834   1828
  7562   1    300   1995   1834   2012
  7563   1    300   1995   1834   1996
  7564   1   1810   1996   1834   1828
  7565   1   1810   1996   1834   2012
  7566   1   1810   1996   1834   1995
  7567   1   1903   1880   1840     95
  7568   1   1903   1880   1840   1817
  7569   1   1903   1880   1840   1822
  7570   1   1904   1881   1842   1819
  7571   1   1904   1881   1842   1824
  7572   1   1904   1881   1842   1832
  7573   1   1806   1846   1869   1854
  7574   1   1806   1846   1869   1856
  7575   1   1806   1846   1869   1863
  7576   1   1808   1847   1870   1855
  7577   1   1808   1847   1870   1858
  7578   1   1808   1847   1870   1864
  7579   1   1945   1848   1871   1372
  7580   1   1945   1848   1871   1859
  7581   1   1945   1848   1871   1865
  7582   1   1871   1848   1945   1922
  7583   1   1871   1848   1945   1927
  7584   1   1871   1848   1945   1932
  7585   1   1946   1849   1872   1851
  7586   1   1946   1849   1872   1860
  7587   1   1946   1849   1872   1866
  7588   1   1872   1849   1946   1928
  7589   1   1872   1849   1946    460
  7590   1   1872   1849   1946   2002
  7591   1   1947   1850   1873   1852
  7592   1   1947   1850   1873   1861
  7593   1   1947   1850   1873   1867
  7594   1   1873   1850   1947   1923
  7595   1   1873   1850   1947   1929
  7596   1   1873   1850   1947   1930
  7597   1   1874   1851   1872   1849
  7598   1   1874   1851   1872   1860
  7599   1   1874   1851   1872   1866
  7600   1   1872   1851   1874   1856
  7601   1   1872   1851   1874   1914
  7602   1   1872   1851   1874   1901
  7603   1   1875   1852   1873   1850
  7604   1   1875   1852   1873   1861
  7605   1   1875   1852   1873   1867
  7606   1   1873   1852   1875   1436
  7607   1   1873   1852   1875   1857
  7608   1   1873   1852   1875   1865
  7609   1    399   1853   1876   1858
  7610   1    399   1853   1876   1866
  7611   1    399   1853   1876   1915
  7612   1   1877   1854   1869   1846
  7613   1   1877   1854   1869   1856
  7614   1   1877   1854   1869   1863
  7615   1   1869   1854   1877   1780
  7616   1   1869   1854   1877   1859
  7617   1   1869   1854   1877   1864
  7618   1   1879   1855   1870   1847
  7619   1   1879   1855   1870   1858
  7620   1   1879   1855   1870   1864
  7621   1   1870   1855   1879   1782
  7622   1   1870   1855   1879   1861
  7623   1   1870   1855   1879   1862
  7624   1   1874   1856   1869   1846
  7625   1   1874   1856   1869   1854
  7626   1   1874   1856   1869   1863
  7627   1   1869   1856   1874   1851
  7628   1   1869   1856   1874   1914
  7629   1   1869   1856   1874   1901
  7630   1   1387   1857   1875   1436
  7631   1   1387   1857   1875   1852
  7632   1   1387   1857   1875   1865
  7633   1   1876   1858   1870   1847
  7634   1   1876   1858   1870   1855
  7635   1   1876   1858   1870   1864
  7636   1   1870   1858   1876   1853
  7637   1   1870   1858   1876   1866
  7638   1   1870   1858   1876   1915
  7639   1   1877   1859   1871   1372
  7640   1   1877   1859   1871   1848
  7641   1   1877   1859   1871   1865
  7642   1   1871   1859   1877   1780
  7643   1   1871   1859   1877   1854
  7644   1   1871   1859   1877   1864
  7645   1   1878   1860   1872   1849
  7646   1   1878   1860   1872   1851
  7647   1   1878   1860   1872   1866
  7648   1   1872   1860   1878   1781
  7649   1   1872   1860   1878    391
  7650   1   1872   1860   1878   1999
  7651   1   1879   1861   1873   1850
  7652   1   1879   1861   1873   1852
  7653   1   1879   1861   1873   1867
  7654   1   1873   1861   1879   1782
  7655   1   1873   1861   1879   1855
  7656   1   1873   1861   1879   1862
  7657   1   1879   1862   1868    395
  7658   1   1879   1862   1868   2013
  7659   1   1879   1862   1868   1997
  7660   1   1868   1862   1879   1782
  7661   1   1868   1862   1879   1855
  7662   1   1868   1862   1879   1861
  7663   1   1397   1863   1869   1846
  7664   1   1397   1863   1869   1854
  7665   1   1397   1863   1869   1856
  7666   1   1877   1864   1870   1847
  7667   1   1877   1864   1870   1855
  7668   1   1877   1864   1870   1858
  7669   1   1870   1864   1877   1780
  7670   1   1870   1864   1877   1854
  7671   1   1870   1864   1877   1859
  7672   1   1875   1865   1871   1372
  7673   1   1875   1865   1871   1848
  7674   1   1875   1865   1871   1859
  7675   1   1871   1865   1875   1436
  7676   1   1871   1865   1875   1852
  7677   1   1871   1865   1875   1857
  7678   1   1876   1866   1872   1849
  7679   1   1876   1866   1872   1851
  7680   1   1876   1866   1872   1860
  7681   1   1872   1866   1876   1853
  7682   1   1872   1866   1876   1858
  7683   1   1872   1866   1876   1915
  7684   1   1387   1867   1873   1850
  7685   1   1387   1867   1873   1852
  7686   1   1387   1867   1873   1861
  7687   1    403   2013   1868   1862
  7688   1    403   2013   1868    395
  7689   1    403   2013   1868   1997
  7690   1    334   1997   1868   1862
  7691   1    334   1997   1868    395
  7692   1    334   1997   1868   2013
  7693   1   1937   1914   1874   1851
  7694   1   1937   1914   1874   1856
  7695   1   1937   1914   1874   1901
  7696   1   1907   1901   1874   1851
  7697   1   1907   1901   1874   1856
  7698   1   1907   1901   1874   1914
  7699   1   1938   1915   1876   1853
  7700   1   1938   1915   1876   1858
  7701   1   1938   1915   1876   1866
  7702   1   1902   1999   1878   1781
  7703   1   1902   1999   1878   1860
  7704   1   1902   1999   1878    391
  7705   1   1840   1880   1903   1888
  7706   1   1840   1880   1903   1890
  7707   1   1840   1880   1903   1897
  7708   1   1842   1881   1904   1889
  7709   1   1842   1881   1904   1892
  7710   1   1842   1881   1904   1898
  7711   1   1979   1882   1905   1407
  7712   1   1979   1882   1905   1893
  7713   1   1979   1882   1905   1899
  7714   1   1905   1882   1979   1956
  7715   1   1905   1882   1979   1961
  7716   1   1905   1882   1979   1966
  7717   1   1980   1883   1906   1885
  7718   1   1980   1883   1906   1894
  7719   1   1980   1883   1906   1900
  7720   1   1906   1883   1980   1962
  7721   1   1906   1883   1980     75
  7722   1   1906   1883   1980    495
  7723   1   1981   1884   1907   1886
  7724   1   1981   1884   1907   1895
  7725   1   1981   1884   1907   1901
  7726   1   1907   1884   1981   1957
  7727   1   1907   1884   1981   1963
  7728   1   1907   1884   1981   1964
  7729   1   1908   1885   1906   1883
  7730   1   1908   1885   1906   1894
  7731   1   1908   1885   1906   1900
  7732   1   1906   1885   1908     96
  7733   1   1906   1885   1908   1890
  7734   1   1906   1885   1908   1948
  7735   1   1909   1886   1907   1884
  7736   1   1909   1886   1907   1895
  7737   1   1909   1886   1907   1901
  7738   1   1907   1886   1909   1471
  7739   1   1907   1886   1909   1891
  7740   1   1907   1886   1909   1899
  7741   1    434   1887   1910   1892
  7742   1    434   1887   1910   1900
  7743   1    434   1887   1910   1949
  7744   1   1911   1888   1903   1880
  7745   1   1911   1888   1903   1890
  7746   1   1911   1888   1903   1897
  7747   1   1903   1888   1911   1814
  7748   1   1903   1888   1911   1893
  7749   1   1903   1888   1911   1898
  7750   1   1913   1889   1904   1881
  7751   1   1913   1889   1904   1892
  7752   1   1913   1889   1904   1898
  7753   1   1904   1889   1913   1816
  7754   1   1904   1889   1913   1895
  7755   1   1904   1889   1913   1896
  7756   1   1908   1890   1903   1880
  7757   1   1908   1890   1903   1888
  7758   1   1908   1890   1903   1897
  7759   1   1903   1890   1908     96
  7760   1   1903   1890   1908   1885
  7761   1   1903   1890   1908   1948
  7762   1   1423   1891   1909   1471
  7763   1   1423   1891   1909   1886
  7764   1   1423   1891   1909   1899
  7765   1   1910   1892   1904   1881
  7766   1   1910   1892   1904   1889
  7767   1   1910   1892   1904   1898
  7768   1   1904   1892   1910   1887
  7769   1   1904   1892   1910   1900
  7770   1   1904   1892   1910   1949
  7771   1   1911   1893   1905   1407
  7772   1   1911   1893   1905   1882
  7773   1   1911   1893   1905   1899
  7774   1   1905   1893   1911   1814
  7775   1   1905   1893   1911   1888
  7776   1   1905   1893   1911   1898
  7777   1   1912   1894   1906   1883
  7778   1   1912   1894   1906   1885
  7779   1   1912   1894   1906   1900
  7780   1   1906   1894   1912   1815
  7781   1   1906   1894   1912     74
  7782   1   1906   1894   1912    426
  7783   1   1913   1895   1907   1884
  7784   1   1913   1895   1907   1886
  7785   1   1913   1895   1907   1901
  7786   1   1907   1895   1913   1816
  7787   1   1907   1895   1913   1889
  7788   1   1907   1895   1913   1896
  7789   1   1913   1896   1902   2014
  7790   1   1913   1896   1902   1998
  7791   1   1913   1896   1902   1999
  7792   1   1902   1896   1913   1816
  7793   1   1902   1896   1913   1889
  7794   1   1902   1896   1913   1895
  7795   1   1433   1897   1903   1880
  7796   1   1433   1897   1903   1888
  7797   1   1433   1897   1903   1890
  7798   1   1911   1898   1904   1881
  7799   1   1911   1898   1904   1889
  7800   1   1911   1898   1904   1892
  7801   1   1904   1898   1911   1814
  7802   1   1904   1898   1911   1888
  7803   1   1904   1898   1911   1893
  7804   1   1909   1899   1905   1407
  7805   1   1909   1899   1905   1882
  7806   1   1909   1899   1905   1893
  7807   1   1905   1899   1909   1471
  7808   1   1905   1899   1909   1886
  7809   1   1905   1899   1909   1891
  7810   1   1910   1900   1906   1883
  7811   1   1910   1900   1906   1885
  7812   1   1910   1900   1906   1894
  7813   1   1906   1900   1910   1887
  7814   1   1906   1900   1910   1892
  7815   1   1906   1900   1910   1949
  7816   1   1874   1901   1907   1884
  7817   1   1874   1901   1907   1886
  7818   1   1874   1901   1907   1895
  7819   1    438   2014   1902   1896
  7820   1    438   2014   1902   1998
  7821   1    438   2014   1902   1999
  7822   1    369   1998   1902   1896
  7823   1    369   1998   1902   2014
  7824   1    369   1998   1902   1999
  7825   1   1878   1999   1902   1896
  7826   1   1878   1999   1902   2014
  7827   1   1878   1999   1902   1998
  7828   1   1971   1948   1908     96
  7829   1   1971   1948   1908   1885
  7830   1   1971   1948   1908   1890
  7831   1   1972   1949   1910   1887
  7832   1   1972   1949   1910   1892
  7833   1   1972   1949   1910   1900
  7834   1   1874   1914   1937   1922
  7835   1   1874   1914   1937   1924
  7836   1   1874   1914   1937   1931
  7837   1   1876   1915   1938   1923
  7838   1   1876   1915   1938   1926
  7839   1   1876   1915   1938   1932
  7840   1   1537   1916   1939   1443
  7841   1   1537   1916   1939   1927
  7842   1   1537   1916   1939   1933
  7843   1   1538   1917   1940   1919
  7844   1   1538   1917   1940   1928
  7845   1   1538   1917   1940   1934
  7846   1   1539   1918   1941   1920
  7847   1   1539   1918   1941   1929
  7848   1   1539   1918   1941   1935
  7849   1   1942   1919   1940   1917
  7850   1   1942   1919   1940   1928
  7851   1   1942   1919   1940   1934
  7852   1   1940   1919   1942   1924
  7853   1   1940   1919   1942   1969
  7854   1   1940   1919   1942   1506
  7855   1   1943   1920   1941   1918
  7856   1   1943   1920   1941   1929
  7857   1   1943   1920   1941   1935
  7858   1   1941   1920   1943   1925
  7859   1   1941   1920   1943   1933
  7860   1   1941   1920   1943   1010
  7861   1    468   1921   1944   1926
  7862   1    468   1921   1944   1934
  7863   1    468   1921   1944   1507
  7864   1   1945   1922   1937   1914
  7865   1   1945   1922   1937   1924
  7866   1   1945   1922   1937   1931
  7867   1   1937   1922   1945   1848
  7868   1   1937   1922   1945   1927
  7869   1   1937   1922   1945   1932
  7870   1   1947   1923   1938   1915
  7871   1   1947   1923   1938   1926
  7872   1   1947   1923   1938   1932
  7873   1   1938   1923   1947   1850
  7874   1   1938   1923   1947   1929
  7875   1   1938   1923   1947   1930
  7876   1   1942   1924   1937   1914
  7877   1   1942   1924   1937   1922
  7878   1   1942   1924   1937   1931
  7879   1   1937   1924   1942   1919
  7880   1   1937   1924   1942   1969
  7881   1   1937   1924   1942   1506
  7882   1   1458   1925   1943   1920
  7883   1   1458   1925   1943   1933
  7884   1   1458   1925   1943   1010
  7885   1   1944   1926   1938   1915
  7886   1   1944   1926   1938   1923
  7887   1   1944   1926   1938   1932
  7888   1   1938   1926   1944   1921
  7889   1   1938   1926   1944   1934
  7890   1   1938   1926   1944   1507
  7891   1   1945   1927   1939   1443
  7892   1   1945   1927   1939   1916
  7893   1   1945   1927   1939   1933
  7894   1   1939   1927   1945   1848
  7895   1   1939   1927   1945   1922
  7896   1   1939   1927   1945   1932
  7897   1   1946   1928   1940   1917
  7898   1   1946   1928   1940   1919
  7899   1   1946   1928   1940   1934
  7900   1   1940   1928   1946   1849
  7901   1   1940   1928   1946    460
  7902   1   1940   1928   1946   2002
  7903   1   1947   1929   1941   1918
  7904   1   1947   1929   1941   1920
  7905   1   1947   1929   1941   1935
  7906   1   1941   1929   1947   1850
  7907   1   1941   1929   1947   1923
  7908   1   1941   1929   1947   1930
  7909   1   1947   1930   1936   2015
  7910   1   1947   1930   1936    464
  7911   1   1947   1930   1936   2000
  7912   1   1936   1930   1947   1850
  7913   1   1936   1930   1947   1923
  7914   1   1936   1930   1947   1929
  7915   1   1468   1931   1937   1914
  7916   1   1468   1931   1937   1922
  7917   1   1468   1931   1937   1924
  7918   1   1945   1932   1938   1915
  7919   1   1945   1932   1938   1923
  7920   1   1945   1932   1938   1926
  7921   1   1938   1932   1945   1848
  7922   1   1938   1932   1945   1922
  7923   1   1938   1932   1945   1927
  7924   1   1943   1933   1939   1443
  7925   1   1943   1933   1939   1916
  7926   1   1943   1933   1939   1927
  7927   1   1939   1933   1943   1920
  7928   1   1939   1933   1943   1925
  7929   1   1939   1933   1943   1010
  7930   1   1944   1934   1940   1917
  7931   1   1944   1934   1940   1919
  7932   1   1944   1934   1940   1928
  7933   1   1940   1934   1944   1921
  7934   1   1940   1934   1944   1926
  7935   1   1940   1934   1944   1507
  7936   1   1458   1935   1941   1918
  7937   1   1458   1935   1941   1920
  7938   1   1458   1935   1941   1929
  7939   1    472   2015   1936   1930
  7940   1    472   2015   1936    464
  7941   1    472   2015   1936   2000
  7942   1    403   2000   1936   1930
  7943   1    403   2000   1936   2015
  7944   1    403   2000   1936    464
  7945   1   1975   1969   1942   1919
  7946   1   1975   1969   1942   1924
  7947   1   1975   1969   1942   1506
  7948   1   1970   2002   1946   1849
  7949   1   1970   2002   1946   1928
  7950   1   1970   2002   1946    460
  7951   1   1908   1948   1971   1956
  7952   1   1908   1948   1971   1958
  7953   1   1908   1948   1971   1965
  7954   1   1910   1949   1972   1957
  7955   1   1910   1949   1972   1960
  7956   1   1910   1949   1972   1966
  7957   1   1571   1950   1973   1478
  7958   1   1571   1950   1973   1961
  7959   1   1571   1950   1973   1967
  7960   1   1572   1951   1974   1953
  7961   1   1572   1951   1974   1962
  7962   1   1572   1951   1974   1968
  7963   1   1573   1952   1975   1954
  7964   1   1573   1952   1975   1963
  7965   1   1573   1952   1975   1969
  7966   1   1976   1953   1974   1951
  7967   1   1976   1953   1974   1962
  7968   1   1976   1953   1974   1968
  7969   1   1974   1953   1976     97
  7970   1   1974   1953   1976   1958
  7971   1   1974   1953   1976   1540
  7972   1   1977   1954   1975   1952
  7973   1   1977   1954   1975   1963
  7974   1   1977   1954   1975   1969
  7975   1   1975   1954   1977   1959
  7976   1   1975   1954   1977   1967
  7977   1   1975   1954   1977   1045
  7978   1    503   1955   1978   1960
  7979   1    503   1955   1978   1968
  7980   1    503   1955   1978   1541
  7981   1   1979   1956   1971   1948
  7982   1   1979   1956   1971   1958
  7983   1   1979   1956   1971   1965
  7984   1   1971   1956   1979   1882
  7985   1   1971   1956   1979   1961
  7986   1   1971   1956   1979   1966
  7987   1   1981   1957   1972   1949
  7988   1   1981   1957   1972   1960
  7989   1   1981   1957   1972   1966
  7990   1   1972   1957   1981   1884
  7991   1   1972   1957   1981   1963
  7992   1   1972   1957   1981   1964
  7993   1   1976   1958   1971   1948
  7994   1   1976   1958   1971   1956
  7995   1   1976   1958   1971   1965
  7996   1   1971   1958   1976     97
  7997   1   1971   1958   1976   1953
  7998   1   1971   1958   1976   1540
  7999   1   1494   1959   1977   1954
  8000   1   1494   1959   1977   1967
  8001   1   1494   1959   1977   1045
  8002   1   1978   1960   1972   1949
  8003   1   1978   1960   1972   1957
  8004   1   1978   1960   1972   1966
  8005   1   1972   1960   1978   1955
  8006   1   1972   1960   1978   1968
  8007   1   1972   1960   1978   1541
  8008   1   1979   1961   1973   1478
  8009   1   1979   1961   1973   1950
  8010   1   1979   1961   1973   1967
  8011   1   1973   1961   1979   1882
  8012   1   1973   1961   1979   1956
  8013   1   1973   1961   1979   1966
  8014   1   1980   1962   1974   1951
  8015   1   1980   1962   1974   1953
  8016   1   1980   1962   1974   1968
  8017   1   1974   1962   1980   1883
  8018   1   1974   1962   1980     75
  8019   1   1974   1962   1980    495
  8020   1   1981   1963   1975   1952
  8021   1   1981   1963   1975   1954
  8022   1   1981   1963   1975   1969
  8023   1   1975   1963   1981   1884
  8024   1   1975   1963   1981   1957
  8025   1   1975   1963   1981   1964
  8026   1   1981   1964   1970   2016
  8027   1   1981   1964   1970   2001
  8028   1   1981   1964   1970   2002
  8029   1   1970   1964   1981   1884
  8030   1   1970   1964   1981   1957
  8031   1   1970   1964   1981   1963
  8032   1   1504   1965   1971   1948
  8033   1   1504   1965   1971   1956
  8034   1   1504   1965   1971   1958
  8035   1   1979   1966   1972   1949
  8036   1   1979   1966   1972   1957
  8037   1   1979   1966   1972   1960
  8038   1   1972   1966   1979   1882
  8039   1   1972   1966   1979   1956
  8040   1   1972   1966   1979   1961
  8041   1   1977   1967   1973   1478
  8042   1   1977   1967   1973   1950
  8043   1   1977   1967   1973   1961
  8044   1   1973   1967   1977   1954
  8045   1   1973   1967   1977   1959
  8046   1   1973   1967   1977   1045
  8047   1   1978   1968   1974   1951
  8048   1   1978   1968   1974   1953
  8049   1   1978   1968   1974   1962
  8050   1   1974   1968   1978   1955
  8051   1   1974   1968   1978   1960
  8052   1   1974   1968   1978   1541
  8053   1   1942   1969   1975   1952
  8054   1   1942   1969   1975   1954
  8055   1   1942   1969   1975   1963
  8056   1    507   2016   1970   1964
  8057   1    507   2016   1970   2001
  8058   1    507   2016   1970   2002
  8059   1    438   2001   1970   1964
  8060   1    438   2001   1970   2016
  8061   1    438   2001   1970   2002
  8062   1   1946   2002   1970   1964
  8063   1   1946   2002   1970   2016
  8064   1   1946   2002   1970   2001

