LAMMPS data file. msi2lmp v3.9.9 / 05 Nov 2018 / CGCMM for qtz100a-surf-0

   6000 atoms
   400 bonds
   400 angles
      0 dihedrals
      0 impropers

   4 atom types
   1 bond types
   1 angle types
   0 dihedral types

     0.165938072    49.265938072 xlo xhi
    -0.357154263    53.662845737 ylo yhi
   -76.999421436   105.955378564 zlo zhi

Masses

   1  15.999400 # ohy
   2  15.999400 # oby
   3  28.085500 # sty
   4   1.007940 # hoy

Pair Coeffs # lj/cut/coul/long

   1   0.1554000000   3.1655413253 # ohy
   2   0.1554000000   3.1655413253 # oby
   3   0.0000018405   3.3020269922 # sty
   4   0.0000000000   0.0000000000 # hoy

Bond Coeffs # harmonic

   1   554.1348     1.0000 
   
Angle Coeffs # harmonic

   1    30.0000   109.4700 


Atoms # full

      1      1   1 -0.950000    16.396927704     0.629330000     1.636797398   0   0   0 # ohy
      2      1   2 -1.050000    16.904550818     4.230663333     3.487481195   0   0   0 # oby
      3      1   1 -0.950000    18.253478443     2.429996667     2.122524785   0   0   0 # ohy
      4      1   2 -1.050000    14.449552867     4.772670000     2.761114785   0   0   0 # oby
      5      1   2 -1.050000    15.798480493     1.171336667     4.126071195   0   0   0 # oby
      6      1   2 -1.050000    13.941929754     2.972003333     4.611798581   0   0   0 # oby
      7      1   3  2.100000    15.910303382     0.000000000     3.042574120   0   0   0 # sty
      8      1   3  2.100000    13.455305431     3.601333333     3.206021859   0   0   0 # sty
      9      1   3  2.100000     2.549364547     1.800666667    26.511294497   0   0   0 # sty
     10      1   2 -1.050000    13.941929754     0.629330000     5.888978581   0   0   0 # oby
     11      1   2 -1.050000    14.449552867     4.230663333     7.739662378   0   0   0 # oby
     12      1   2 -1.050000    15.798480493     2.429996667     6.374705968   0   0   0 # oby
     13      1   2 -1.050000    11.994554916     4.772670000     7.013295968   0   0   0 # oby
     14      1   2 -1.050000    13.343482542     1.171336667     8.378252378   0   0   0 # oby
     15      1   2 -1.050000    11.486931803     2.972003333     8.863979764   0   0   0 # oby
     16      1   3  2.100000    13.455305431     0.000000000     7.294755303   0   0   0 # sty
     17      1   3  2.100000    11.000307480     3.601333333     7.458203042   0   0   0 # sty
     18      1   3  2.100000    14.824354300     1.800666667     5.250388581   0   0   0 # sty
     19      1   2 -1.050000    11.486931803     0.629330000    10.141159764   0   0   0 # oby
     20      1   2 -1.050000    11.994554916     4.230663333    11.991843561   0   0   0 # oby
     21      1   2 -1.050000    13.343482542     2.429996667    10.626887151   0   0   0 # oby
     22      1   2 -1.050000     9.539556966     4.772670000    11.265477151   0   0   0 # oby
     23      1   2 -1.050000    10.888484591     1.171336667    12.630433561   0   0   0 # oby
     24      1   2 -1.050000     9.031933852     2.972003333    13.116160948   0   0   0 # oby
     25      1   3  2.100000    11.000307480     0.000000000    11.546936487   0   0   0 # sty
     26      1   3  2.100000     8.545309530     3.601333333    11.710384225   0   0   0 # sty
     27      1   3  2.100000    12.369356350     1.800666667     9.502569764   0   0   0 # sty
     28      1   2 -1.050000     9.031933852     0.629330000    14.393340948   0   0   0 # oby
     29      1   2 -1.050000     9.539556966     4.230663333    16.244024744   0   0   0 # oby
     30      1   2 -1.050000    10.888484591     2.429996667    14.879068334   0   0   0 # oby
     31      1   2 -1.050000     7.084559015     4.772670000    15.517658334   0   0   0 # oby
     32      1   2 -1.050000     8.433486640     1.171336667    16.882614744   0   0   0 # oby
     33      1   2 -1.050000     6.576935901     2.972003333    17.368342131   0   0   0 # oby
     34      1   3  2.100000     8.545309530     0.000000000    15.799117670   0   0   0 # sty
     35      1   3  2.100000     6.090311579     3.601333333    15.962565409   0   0   0 # sty
     36      1   3  2.100000     9.914358399     1.800666667    13.754750948   0   0   0 # sty
     37      1   2 -1.050000     6.576935901     0.629330000    18.645522131   0   0   0 # oby
     38      1   2 -1.050000     7.084559015     4.230663333    20.496205927   0   0   0 # oby
     39      1   2 -1.050000     8.433486640     2.429996667    19.131249517   0   0   0 # oby
     40      1   2 -1.050000     4.629561064     4.772670000    19.769839517   0   0   0 # oby
     41      1   2 -1.050000     5.978488690     1.171336667    21.134795927   0   0   0 # oby
     42      1   2 -1.050000     4.121937951     2.972003333    21.620523314   0   0   0 # oby
     43      1   3  2.100000     6.090311579     0.000000000    20.051298853   0   0   0 # sty
     44      1   3  2.100000     3.635313628     3.601333333    20.214746592   0   0   0 # sty
     45      1   3  2.100000     7.459360448     1.800666667    18.006932131   0   0   0 # sty
     46      1   2 -1.050000     4.121937951     0.629330000    22.897703314   0   0   0 # oby
     47      1   2 -1.050000     4.629561064     4.230663333    24.748387110   0   0   0 # oby
     48      1   2 -1.050000     5.978488690     2.429996667    23.383430700   0   0   0 # oby
     49      1   2 -1.050000     2.174563113     4.772670000    24.022020700   0   0   0 # oby
     50      1   2 -1.050000     3.523490739     1.171336667    25.386977110   0   0   0 # oby
     51      1   2 -1.050000     1.666940000     2.972003333    25.872704497   0   0   0 # oby
     52      1   3  2.100000     3.635313628     0.000000000    24.303480036   0   0   0 # sty
     53      1   3  2.100000     1.180315677     3.601333333    24.466927775   0   0   0 # sty
     54      1   3  2.100000     5.004362497     1.800666667    22.259113314   0   0   0 # sty
     55      1   1 -0.950000    21.306923606     0.629330000     1.636797398   0   0   0 # ohy
     56      1   2 -1.050000    21.814546719     4.230663333     3.487481195   0   0   0 # oby
     57      1   1 -0.950000    23.163474345     2.429996667     2.122524785   0   0   0 # ohy
     58      1   2 -1.050000    19.359548768     4.772670000     2.761114785   0   0   0 # oby
     59      1   2 -1.050000    20.708476394     1.171336667     4.126071195   0   0   0 # oby
     60      1   2 -1.050000    18.851925655     2.972003333     4.611798581   0   0   0 # oby
     61      1   3  2.100000    20.820299283     0.000000000     3.042574120   0   0   0 # sty
     62      1   3  2.100000    18.365301332     3.601333333     3.206021859   0   0   0 # sty
     63      1   3  2.100000     7.459360448     1.800666667    26.511294497   0   0   0 # sty
     64      1   2 -1.050000    18.851925655     0.629330000     5.888978581   0   0   0 # oby
     65      1   2 -1.050000    19.359548768     4.230663333     7.739662378   0   0   0 # oby
     66      1   2 -1.050000    20.708476394     2.429996667     6.374705968   0   0   0 # oby
     67      1   2 -1.050000    16.904550818     4.772670000     7.013295968   0   0   0 # oby
     68      1   2 -1.050000    18.253478443     1.171336667     8.378252378   0   0   0 # oby
     69      1   2 -1.050000    16.396927704     2.972003333     8.863979764   0   0   0 # oby
     70      1   3  2.100000    18.365301332     0.000000000     7.294755303   0   0   0 # sty
     71      1   3  2.100000    15.910303382     3.601333333     7.458203042   0   0   0 # sty
     72      1   3  2.100000    19.734350202     1.800666667     5.250388581   0   0   0 # sty
     73      1   2 -1.050000    16.396927704     0.629330000    10.141159764   0   0   0 # oby
     74      1   2 -1.050000    16.904550818     4.230663333    11.991843561   0   0   0 # oby
     75      1   2 -1.050000    18.253478443     2.429996667    10.626887151   0   0   0 # oby
     76      1   2 -1.050000    14.449552867     4.772670000    11.265477151   0   0   0 # oby
     77      1   2 -1.050000    15.798480493     1.171336667    12.630433561   0   0   0 # oby
     78      1   2 -1.050000    13.941929754     2.972003333    13.116160948   0   0   0 # oby
     79      1   3  2.100000    15.910303382     0.000000000    11.546936487   0   0   0 # sty
     80      1   3  2.100000    13.455305431     3.601333333    11.710384225   0   0   0 # sty
     81      1   3  2.100000    17.279352251     1.800666667     9.502569764   0   0   0 # sty
     82      1   2 -1.050000    13.941929754     0.629330000    14.393340948   0   0   0 # oby
     83      1   2 -1.050000    14.449552867     4.230663333    16.244024744   0   0   0 # oby
     84      1   2 -1.050000    15.798480493     2.429996667    14.879068334   0   0   0 # oby
     85      1   2 -1.050000    11.994554916     4.772670000    15.517658334   0   0   0 # oby
     86      1   2 -1.050000    13.343482542     1.171336667    16.882614744   0   0   0 # oby
     87      1   2 -1.050000    11.486931803     2.972003333    17.368342131   0   0   0 # oby
     88      1   3  2.100000    13.455305431     0.000000000    15.799117670   0   0   0 # sty
     89      1   3  2.100000    11.000307480     3.601333333    15.962565409   0   0   0 # sty
     90      1   3  2.100000    14.824354300     1.800666667    13.754750948   0   0   0 # sty
     91      1   2 -1.050000    11.486931803     0.629330000    18.645522131   0   0   0 # oby
     92      1   2 -1.050000    11.994554916     4.230663333    20.496205927   0   0   0 # oby
     93      1   2 -1.050000    13.343482542     2.429996667    19.131249517   0   0   0 # oby
     94      1   2 -1.050000     9.539556966     4.772670000    19.769839517   0   0   0 # oby
     95      1   2 -1.050000    10.888484591     1.171336667    21.134795927   0   0   0 # oby
     96      1   2 -1.050000     9.031933852     2.972003333    21.620523314   0   0   0 # oby
     97      1   3  2.100000    11.000307480     0.000000000    20.051298853   0   0   0 # sty
     98      1   3  2.100000     8.545309530     3.601333333    20.214746592   0   0   0 # sty
     99      1   3  2.100000    12.369356350     1.800666667    18.006932131   0   0   0 # sty
    100      1   2 -1.050000     9.031933852     0.629330000    22.897703314   0   0   0 # oby
    101      1   2 -1.050000     9.539556966     4.230663333    24.748387110   0   0   0 # oby
    102      1   2 -1.050000    10.888484591     2.429996667    23.383430700   0   0   0 # oby
    103      1   2 -1.050000     7.084559015     4.772670000    24.022020700   0   0   0 # oby
    104      1   2 -1.050000     8.433486640     1.171336667    25.386977110   0   0   0 # oby
    105      1   2 -1.050000     6.576935901     2.972003333    25.872704497   0   0   0 # oby
    106      1   3  2.100000     8.545309530     0.000000000    24.303480036   0   0   0 # sty
    107      1   3  2.100000     6.090311579     3.601333333    24.466927775   0   0   0 # sty
    108      1   3  2.100000     9.914358399     1.800666667    22.259113314   0   0   0 # sty
    109      1   1 -0.950000     1.666940000     0.629330000     1.636797398   0   0   0 # ohy
    110      1   2 -1.050000     2.174563113     4.230663333     3.487481195   0   0   0 # oby
    111      1   1 -0.950000     3.523490739     2.429996667     2.122524785   0   0   0 # ohy
    112      1   2 -1.050000    24.269544670     4.772670000     2.761114785   0   0   0 # oby
    113      1   2 -1.050000     1.068492788     1.171336667     4.126071195   0   0   0 # oby
    114      1   2 -1.050000    23.761921557     2.972003333     4.611798581   0   0   0 # oby
    115      1   3  2.100000     1.180315677     0.000000000     3.042574120   0   0   0 # sty
    116      1   3  2.100000    23.275297234     3.601333333     3.206021859   0   0   0 # sty
    117      1   3  2.100000    12.369356350     1.800666667    26.511294497   0   0   0 # sty
    118      1   2 -1.050000    23.761921557     0.629330000     5.888978581   0   0   0 # oby
    119      1   2 -1.050000    24.269544670     4.230663333     7.739662378   0   0   0 # oby
    120      1   2 -1.050000     1.068492788     2.429996667     6.374705968   0   0   0 # oby
    121      1   2 -1.050000    21.814546719     4.772670000     7.013295968   0   0   0 # oby
    122      1   2 -1.050000    23.163474345     1.171336667     8.378252378   0   0   0 # oby
    123      1   2 -1.050000    21.306923606     2.972003333     8.863979764   0   0   0 # oby
    124      1   3  2.100000    23.275297234     0.000000000     7.294755303   0   0   0 # sty
    125      1   3  2.100000    20.820299283     3.601333333     7.458203042   0   0   0 # sty
    126      1   3  2.100000    49.194366596     1.800666667     5.250388581  -1   0   0 # sty
    127      1   2 -1.050000    21.306923606     0.629330000    10.141159764   0   0   0 # oby
    128      1   2 -1.050000    21.814546719     4.230663333    11.991843561   0   0   0 # oby
    129      1   2 -1.050000    23.163474345     2.429996667    10.626887151   0   0   0 # oby
    130      1   2 -1.050000    19.359548768     4.772670000    11.265477151   0   0   0 # oby
    131      1   2 -1.050000    20.708476394     1.171336667    12.630433561   0   0   0 # oby
    132      1   2 -1.050000    18.851925655     2.972003333    13.116160948   0   0   0 # oby
    133      1   3  2.100000    20.820299283     0.000000000    11.546936487   0   0   0 # sty
    134      1   3  2.100000    18.365301332     3.601333333    11.710384225   0   0   0 # sty
    135      1   3  2.100000    22.189348153     1.800666667     9.502569764   0   0   0 # sty
    136      1   2 -1.050000    18.851925655     0.629330000    14.393340948   0   0   0 # oby
    137      1   2 -1.050000    19.359548768     4.230663333    16.244024744   0   0   0 # oby
    138      1   2 -1.050000    20.708476394     2.429996667    14.879068334   0   0   0 # oby
    139      1   2 -1.050000    16.904550818     4.772670000    15.517658334   0   0   0 # oby
    140      1   2 -1.050000    18.253478443     1.171336667    16.882614744   0   0   0 # oby
    141      1   2 -1.050000    16.396927704     2.972003333    17.368342131   0   0   0 # oby
    142      1   3  2.100000    18.365301332     0.000000000    15.799117670   0   0   0 # sty
    143      1   3  2.100000    15.910303382     3.601333333    15.962565409   0   0   0 # sty
    144      1   3  2.100000    19.734350202     1.800666667    13.754750948   0   0   0 # sty
    145      1   2 -1.050000    16.396927704     0.629330000    18.645522131   0   0   0 # oby
    146      1   2 -1.050000    16.904550818     4.230663333    20.496205927   0   0   0 # oby
    147      1   2 -1.050000    18.253478443     2.429996667    19.131249517   0   0   0 # oby
    148      1   2 -1.050000    14.449552867     4.772670000    19.769839517   0   0   0 # oby
    149      1   2 -1.050000    15.798480493     1.171336667    21.134795927   0   0   0 # oby
    150      1   2 -1.050000    13.941929754     2.972003333    21.620523314   0   0   0 # oby
    151      1   3  2.100000    15.910303382     0.000000000    20.051298853   0   0   0 # sty
    152      1   3  2.100000    13.455305431     3.601333333    20.214746592   0   0   0 # sty
    153      1   3  2.100000    17.279352251     1.800666667    18.006932131   0   0   0 # sty
    154      1   2 -1.050000    13.941929754     0.629330000    22.897703314   0   0   0 # oby
    155      1   2 -1.050000    14.449552867     4.230663333    24.748387110   0   0   0 # oby
    156      1   2 -1.050000    15.798480493     2.429996667    23.383430700   0   0   0 # oby
    157      1   2 -1.050000    11.994554916     4.772670000    24.022020700   0   0   0 # oby
    158      1   2 -1.050000    13.343482542     1.171336667    25.386977110   0   0   0 # oby
    159      1   2 -1.050000    11.486931803     2.972003333    25.872704497   0   0   0 # oby
    160      1   3  2.100000    13.455305431     0.000000000    24.303480036   0   0   0 # sty
    161      1   3  2.100000    11.000307480     3.601333333    24.466927775   0   0   0 # sty
    162      1   3  2.100000    14.824354300     1.800666667    22.259113314   0   0   0 # sty
    163      1   1 -0.950000     6.576935901     0.629330000     1.636797398   0   0   0 # ohy
    164      1   2 -1.050000     7.084559015     4.230663333     3.487481195   0   0   0 # oby
    165      1   1 -0.950000     8.433486640     2.429996667     2.122524785   0   0   0 # ohy
    166      1   2 -1.050000     4.629561064     4.772670000     2.761114785   0   0   0 # oby
    167      1   2 -1.050000     5.978488690     1.171336667     4.126071195   0   0   0 # oby
    168      1   2 -1.050000     4.121937951     2.972003333     4.611798581   0   0   0 # oby
    169      1   3  2.100000     6.090311579     0.000000000     3.042574120   0   0   0 # sty
    170      1   3  2.100000     3.635313628     3.601333333     3.206021859   0   0   0 # sty
    171      1   3  2.100000    17.279352251     1.800666667    26.511294497   0   0   0 # sty
    172      1   2 -1.050000     4.121937951     0.629330000     5.888978581   0   0   0 # oby
    173      1   2 -1.050000     4.629561064     4.230663333     7.739662378   0   0   0 # oby
    174      1   2 -1.050000     5.978488690     2.429996667     6.374705968   0   0   0 # oby
    175      1   2 -1.050000     2.174563113     4.772670000     7.013295968   0   0   0 # oby
    176      1   2 -1.050000     3.523490739     1.171336667     8.378252378   0   0   0 # oby
    177      1   2 -1.050000     1.666940000     2.972003333     8.863979764   0   0   0 # oby
    178      1   3  2.100000     3.635313628     0.000000000     7.294755303   0   0   0 # sty
    179      1   3  2.100000     1.180315677     3.601333333     7.458203042   0   0   0 # sty
    180      1   3  2.100000     5.004362497     1.800666667     5.250388581   0   0   0 # sty
    181      1   2 -1.050000     1.666940000     0.629330000    10.141159764   0   0   0 # oby
    182      1   2 -1.050000     2.174563113     4.230663333    11.991843561   0   0   0 # oby
    183      1   2 -1.050000     3.523490739     2.429996667    10.626887151   0   0   0 # oby
    184      1   2 -1.050000    24.269544670     4.772670000    11.265477151   0   0   0 # oby
    185      1   2 -1.050000     1.068492788     1.171336667    12.630433561   0   0   0 # oby
    186      1   2 -1.050000    23.761921557     2.972003333    13.116160948   0   0   0 # oby
    187      1   3  2.100000     1.180315677     0.000000000    11.546936487   0   0   0 # sty
    188      1   3  2.100000    23.275297234     3.601333333    11.710384225   0   0   0 # sty
    189      1   3  2.100000     2.549364547     1.800666667     9.502569764   0   0   0 # sty
    190      1   2 -1.050000    23.761921557     0.629330000    14.393340948   0   0   0 # oby
    191      1   2 -1.050000    24.269544670     4.230663333    16.244024744   0   0   0 # oby
    192      1   2 -1.050000     1.068492788     2.429996667    14.879068334   0   0   0 # oby
    193      1   2 -1.050000    21.814546719     4.772670000    15.517658334   0   0   0 # oby
    194      1   2 -1.050000    23.163474345     1.171336667    16.882614744   0   0   0 # oby
    195      1   2 -1.050000    21.306923606     2.972003333    17.368342131   0   0   0 # oby
    196      1   3  2.100000    23.275297234     0.000000000    15.799117670   0   0   0 # sty
    197      1   3  2.100000    20.820299283     3.601333333    15.962565409   0   0   0 # sty
    198      1   3  2.100000    49.194366596     1.800666667    13.754750948  -1   0   0 # sty
    199      1   2 -1.050000    21.306923606     0.629330000    18.645522131   0   0   0 # oby
    200      1   2 -1.050000    21.814546719     4.230663333    20.496205927   0   0   0 # oby
    201      1   2 -1.050000    23.163474345     2.429996667    19.131249517   0   0   0 # oby
    202      1   2 -1.050000    19.359548768     4.772670000    19.769839517   0   0   0 # oby
    203      1   2 -1.050000    20.708476394     1.171336667    21.134795927   0   0   0 # oby
    204      1   2 -1.050000    18.851925655     2.972003333    21.620523314   0   0   0 # oby
    205      1   3  2.100000    20.820299283     0.000000000    20.051298853   0   0   0 # sty
    206      1   3  2.100000    18.365301332     3.601333333    20.214746592   0   0   0 # sty
    207      1   3  2.100000    22.189348153     1.800666667    18.006932131   0   0   0 # sty
    208      1   2 -1.050000    18.851925655     0.629330000    22.897703314   0   0   0 # oby
    209      1   2 -1.050000    19.359548768     4.230663333    24.748387110   0   0   0 # oby
    210      1   2 -1.050000    20.708476394     2.429996667    23.383430700   0   0   0 # oby
    211      1   2 -1.050000    16.904550818     4.772670000    24.022020700   0   0   0 # oby
    212      1   2 -1.050000    18.253478443     1.171336667    25.386977110   0   0   0 # oby
    213      1   2 -1.050000    16.396927704     2.972003333    25.872704497   0   0   0 # oby
    214      1   3  2.100000    18.365301332     0.000000000    24.303480036   0   0   0 # sty
    215      1   3  2.100000    15.910303382     3.601333333    24.466927775   0   0   0 # sty
    216      1   3  2.100000    19.734350202     1.800666667    22.259113314   0   0   0 # sty
    217      1   1 -0.950000    11.486931803     0.629330000     1.636797398   0   0   0 # ohy
    218      1   2 -1.050000    11.994554916     4.230663333     3.487481195   0   0   0 # oby
    219      1   1 -0.950000    13.343482542     2.429996667     2.122524785   0   0   0 # ohy
    220      1   2 -1.050000     9.539556966     4.772670000     2.761114785   0   0   0 # oby
    221      1   2 -1.050000    10.888484591     1.171336667     4.126071195   0   0   0 # oby
    222      1   2 -1.050000     9.031933852     2.972003333     4.611798581   0   0   0 # oby
    223      1   3  2.100000    11.000307480     0.000000000     3.042574120   0   0   0 # sty
    224      1   3  2.100000     8.545309530     3.601333333     3.206021859   0   0   0 # sty
    225      1   3  2.100000    22.189348153     1.800666667    26.511294497   0   0   0 # sty
    226      1   2 -1.050000     9.031933852     0.629330000     5.888978581   0   0   0 # oby
    227      1   2 -1.050000     9.539556966     4.230663333     7.739662378   0   0   0 # oby
    228      1   2 -1.050000    10.888484591     2.429996667     6.374705968   0   0   0 # oby
    229      1   2 -1.050000     7.084559015     4.772670000     7.013295968   0   0   0 # oby
    230      1   2 -1.050000     8.433486640     1.171336667     8.378252378   0   0   0 # oby
    231      1   2 -1.050000     6.576935901     2.972003333     8.863979764   0   0   0 # oby
    232      1   3  2.100000     8.545309530     0.000000000     7.294755303   0   0   0 # sty
    233      1   3  2.100000     6.090311579     3.601333333     7.458203042   0   0   0 # sty
    234      1   3  2.100000     9.914358399     1.800666667     5.250388581   0   0   0 # sty
    235      1   2 -1.050000     6.576935901     0.629330000    10.141159764   0   0   0 # oby
    236      1   2 -1.050000     7.084559015     4.230663333    11.991843561   0   0   0 # oby
    237      1   2 -1.050000     8.433486640     2.429996667    10.626887151   0   0   0 # oby
    238      1   2 -1.050000     4.629561064     4.772670000    11.265477151   0   0   0 # oby
    239      1   2 -1.050000     5.978488690     1.171336667    12.630433561   0   0   0 # oby
    240      1   2 -1.050000     4.121937951     2.972003333    13.116160948   0   0   0 # oby
    241      1   3  2.100000     6.090311579     0.000000000    11.546936487   0   0   0 # sty
    242      1   3  2.100000     3.635313628     3.601333333    11.710384225   0   0   0 # sty
    243      1   3  2.100000     7.459360448     1.800666667     9.502569764   0   0   0 # sty
    244      1   2 -1.050000     4.121937951     0.629330000    14.393340948   0   0   0 # oby
    245      1   2 -1.050000     4.629561064     4.230663333    16.244024744   0   0   0 # oby
    246      1   2 -1.050000     5.978488690     2.429996667    14.879068334   0   0   0 # oby
    247      1   2 -1.050000     2.174563113     4.772670000    15.517658334   0   0   0 # oby
    248      1   2 -1.050000     3.523490739     1.171336667    16.882614744   0   0   0 # oby
    249      1   2 -1.050000     1.666940000     2.972003333    17.368342131   0   0   0 # oby
    250      1   3  2.100000     3.635313628     0.000000000    15.799117670   0   0   0 # sty
    251      1   3  2.100000     1.180315677     3.601333333    15.962565409   0   0   0 # sty
    252      1   3  2.100000     5.004362497     1.800666667    13.754750948   0   0   0 # sty
    253      1   2 -1.050000     1.666940000     0.629330000    18.645522131   0   0   0 # oby
    254      1   2 -1.050000     2.174563113     4.230663333    20.496205927   0   0   0 # oby
    255      1   2 -1.050000     3.523490739     2.429996667    19.131249517   0   0   0 # oby
    256      1   2 -1.050000    24.269544670     4.772670000    19.769839517   0   0   0 # oby
    257      1   2 -1.050000     1.068492788     1.171336667    21.134795927   0   0   0 # oby
    258      1   2 -1.050000    23.761921557     2.972003333    21.620523314   0   0   0 # oby
    259      1   3  2.100000     1.180315677     0.000000000    20.051298853   0   0   0 # sty
    260      1   3  2.100000    23.275297234     3.601333333    20.214746592   0   0   0 # sty
    261      1   3  2.100000     2.549364547     1.800666667    18.006932131   0   0   0 # sty
    262      1   2 -1.050000    23.761921557     0.629330000    22.897703314   0   0   0 # oby
    263      1   2 -1.050000    24.269544670     4.230663333    24.748387110   0   0   0 # oby
    264      1   2 -1.050000     1.068492788     2.429996667    23.383430700   0   0   0 # oby
    265      1   2 -1.050000    21.814546719     4.772670000    24.022020700   0   0   0 # oby
    266      1   2 -1.050000    23.163474345     1.171336667    25.386977110   0   0   0 # oby
    267      1   2 -1.050000    21.306923606     2.972003333    25.872704497   0   0   0 # oby
    268      1   3  2.100000    23.275297234     0.000000000    24.303480036   0   0   0 # sty
    269      1   3  2.100000    20.820299283     3.601333333    24.466927775   0   0   0 # sty
    270      1   3  2.100000    49.194366596     1.800666667    22.259113314  -1   0   0 # sty
    271      1   1 -0.950000    16.396927704     6.031330000     1.636797398   0   0   0 # ohy
    272      1   2 -1.050000    16.904550818     9.632663333     3.487481195   0   0   0 # oby
    273      1   1 -0.950000    18.253478443     7.831996667     2.122524785   0   0   0 # ohy
    274      1   2 -1.050000    14.449552867    10.174670000     2.761114785   0   0   0 # oby
    275      1   2 -1.050000    15.798480493     6.573336667     4.126071195   0   0   0 # oby
    276      1   2 -1.050000    13.941929754     8.374003333     4.611798581   0   0   0 # oby
    277      1   3  2.100000    15.910303382     5.402000000     3.042574120   0   0   0 # sty
    278      1   3  2.100000    13.455305431     9.003333333     3.206021859   0   0   0 # sty
    279      1   3  2.100000     2.549364547     7.202666667    26.511294497   0   0   0 # sty
    280      1   2 -1.050000    13.941929754     6.031330000     5.888978581   0   0   0 # oby
    281      1   2 -1.050000    14.449552867     9.632663333     7.739662378   0   0   0 # oby
    282      1   2 -1.050000    15.798480493     7.831996667     6.374705968   0   0   0 # oby
    283      1   2 -1.050000    11.994554916    10.174670000     7.013295968   0   0   0 # oby
    284      1   2 -1.050000    13.343482542     6.573336667     8.378252378   0   0   0 # oby
    285      1   2 -1.050000    11.486931803     8.374003333     8.863979764   0   0   0 # oby
    286      1   3  2.100000    13.455305431     5.402000000     7.294755303   0   0   0 # sty
    287      1   3  2.100000    11.000307480     9.003333333     7.458203042   0   0   0 # sty
    288      1   3  2.100000    14.824354300     7.202666667     5.250388581   0   0   0 # sty
    289      1   2 -1.050000    11.486931803     6.031330000    10.141159764   0   0   0 # oby
    290      1   2 -1.050000    11.994554916     9.632663333    11.991843561   0   0   0 # oby
    291      1   2 -1.050000    13.343482542     7.831996667    10.626887151   0   0   0 # oby
    292      1   2 -1.050000     9.539556966    10.174670000    11.265477151   0   0   0 # oby
    293      1   2 -1.050000    10.888484591     6.573336667    12.630433561   0   0   0 # oby
    294      1   2 -1.050000     9.031933852     8.374003333    13.116160948   0   0   0 # oby
    295      1   3  2.100000    11.000307480     5.402000000    11.546936487   0   0   0 # sty
    296      1   3  2.100000     8.545309530     9.003333333    11.710384225   0   0   0 # sty
    297      1   3  2.100000    12.369356350     7.202666667     9.502569764   0   0   0 # sty
    298      1   2 -1.050000     9.031933852     6.031330000    14.393340948   0   0   0 # oby
    299      1   2 -1.050000     9.539556966     9.632663333    16.244024744   0   0   0 # oby
    300      1   2 -1.050000    10.888484591     7.831996667    14.879068334   0   0   0 # oby
    301      1   2 -1.050000     7.084559015    10.174670000    15.517658334   0   0   0 # oby
    302      1   2 -1.050000     8.433486640     6.573336667    16.882614744   0   0   0 # oby
    303      1   2 -1.050000     6.576935901     8.374003333    17.368342131   0   0   0 # oby
    304      1   3  2.100000     8.545309530     5.402000000    15.799117670   0   0   0 # sty
    305      1   3  2.100000     6.090311579     9.003333333    15.962565409   0   0   0 # sty
    306      1   3  2.100000     9.914358399     7.202666667    13.754750948   0   0   0 # sty
    307      1   2 -1.050000     6.576935901     6.031330000    18.645522131   0   0   0 # oby
    308      1   2 -1.050000     7.084559015     9.632663333    20.496205927   0   0   0 # oby
    309      1   2 -1.050000     8.433486640     7.831996667    19.131249517   0   0   0 # oby
    310      1   2 -1.050000     4.629561064    10.174670000    19.769839517   0   0   0 # oby
    311      1   2 -1.050000     5.978488690     6.573336667    21.134795927   0   0   0 # oby
    312      1   2 -1.050000     4.121937951     8.374003333    21.620523314   0   0   0 # oby
    313      1   3  2.100000     6.090311579     5.402000000    20.051298853   0   0   0 # sty
    314      1   3  2.100000     3.635313628     9.003333333    20.214746592   0   0   0 # sty
    315      1   3  2.100000     7.459360448     7.202666667    18.006932131   0   0   0 # sty
    316      1   2 -1.050000     4.121937951     6.031330000    22.897703314   0   0   0 # oby
    317      1   2 -1.050000     4.629561064     9.632663333    24.748387110   0   0   0 # oby
    318      1   2 -1.050000     5.978488690     7.831996667    23.383430700   0   0   0 # oby
    319      1   2 -1.050000     2.174563113    10.174670000    24.022020700   0   0   0 # oby
    320      1   2 -1.050000     3.523490739     6.573336667    25.386977110   0   0   0 # oby
    321      1   2 -1.050000     1.666940000     8.374003333    25.872704497   0   0   0 # oby
    322      1   3  2.100000     3.635313628     5.402000000    24.303480036   0   0   0 # sty
    323      1   3  2.100000     1.180315677     9.003333333    24.466927775   0   0   0 # sty
    324      1   3  2.100000     5.004362497     7.202666667    22.259113314   0   0   0 # sty
    325      1   1 -0.950000    21.306923606     6.031330000     1.636797398   0   0   0 # ohy
    326      1   2 -1.050000    21.814546719     9.632663333     3.487481195   0   0   0 # oby
    327      1   1 -0.950000    23.163474345     7.831996667     2.122524785   0   0   0 # ohy
    328      1   2 -1.050000    19.359548768    10.174670000     2.761114785   0   0   0 # oby
    329      1   2 -1.050000    20.708476394     6.573336667     4.126071195   0   0   0 # oby
    330      1   2 -1.050000    18.851925655     8.374003333     4.611798581   0   0   0 # oby
    331      1   3  2.100000    20.820299283     5.402000000     3.042574120   0   0   0 # sty
    332      1   3  2.100000    18.365301332     9.003333333     3.206021859   0   0   0 # sty
    333      1   3  2.100000     7.459360448     7.202666667    26.511294497   0   0   0 # sty
    334      1   2 -1.050000    18.851925655     6.031330000     5.888978581   0   0   0 # oby
    335      1   2 -1.050000    19.359548768     9.632663333     7.739662378   0   0   0 # oby
    336      1   2 -1.050000    20.708476394     7.831996667     6.374705968   0   0   0 # oby
    337      1   2 -1.050000    16.904550818    10.174670000     7.013295968   0   0   0 # oby
    338      1   2 -1.050000    18.253478443     6.573336667     8.378252378   0   0   0 # oby
    339      1   2 -1.050000    16.396927704     8.374003333     8.863979764   0   0   0 # oby
    340      1   3  2.100000    18.365301332     5.402000000     7.294755303   0   0   0 # sty
    341      1   3  2.100000    15.910303382     9.003333333     7.458203042   0   0   0 # sty
    342      1   3  2.100000    19.734350202     7.202666667     5.250388581   0   0   0 # sty
    343      1   2 -1.050000    16.396927704     6.031330000    10.141159764   0   0   0 # oby
    344      1   2 -1.050000    16.904550818     9.632663333    11.991843561   0   0   0 # oby
    345      1   2 -1.050000    18.253478443     7.831996667    10.626887151   0   0   0 # oby
    346      1   2 -1.050000    14.449552867    10.174670000    11.265477151   0   0   0 # oby
    347      1   2 -1.050000    15.798480493     6.573336667    12.630433561   0   0   0 # oby
    348      1   2 -1.050000    13.941929754     8.374003333    13.116160948   0   0   0 # oby
    349      1   3  2.100000    15.910303382     5.402000000    11.546936487   0   0   0 # sty
    350      1   3  2.100000    13.455305431     9.003333333    11.710384225   0   0   0 # sty
    351      1   3  2.100000    17.279352251     7.202666667     9.502569764   0   0   0 # sty
    352      1   2 -1.050000    13.941929754     6.031330000    14.393340948   0   0   0 # oby
    353      1   2 -1.050000    14.449552867     9.632663333    16.244024744   0   0   0 # oby
    354      1   2 -1.050000    15.798480493     7.831996667    14.879068334   0   0   0 # oby
    355      1   2 -1.050000    11.994554916    10.174670000    15.517658334   0   0   0 # oby
    356      1   2 -1.050000    13.343482542     6.573336667    16.882614744   0   0   0 # oby
    357      1   2 -1.050000    11.486931803     8.374003333    17.368342131   0   0   0 # oby
    358      1   3  2.100000    13.455305431     5.402000000    15.799117670   0   0   0 # sty
    359      1   3  2.100000    11.000307480     9.003333333    15.962565409   0   0   0 # sty
    360      1   3  2.100000    14.824354300     7.202666667    13.754750948   0   0   0 # sty
    361      1   2 -1.050000    11.486931803     6.031330000    18.645522131   0   0   0 # oby
    362      1   2 -1.050000    11.994554916     9.632663333    20.496205927   0   0   0 # oby
    363      1   2 -1.050000    13.343482542     7.831996667    19.131249517   0   0   0 # oby
    364      1   2 -1.050000     9.539556966    10.174670000    19.769839517   0   0   0 # oby
    365      1   2 -1.050000    10.888484591     6.573336667    21.134795927   0   0   0 # oby
    366      1   2 -1.050000     9.031933852     8.374003333    21.620523314   0   0   0 # oby
    367      1   3  2.100000    11.000307480     5.402000000    20.051298853   0   0   0 # sty
    368      1   3  2.100000     8.545309530     9.003333333    20.214746592   0   0   0 # sty
    369      1   3  2.100000    12.369356350     7.202666667    18.006932131   0   0   0 # sty
    370      1   2 -1.050000     9.031933852     6.031330000    22.897703314   0   0   0 # oby
    371      1   2 -1.050000     9.539556966     9.632663333    24.748387110   0   0   0 # oby
    372      1   2 -1.050000    10.888484591     7.831996667    23.383430700   0   0   0 # oby
    373      1   2 -1.050000     7.084559015    10.174670000    24.022020700   0   0   0 # oby
    374      1   2 -1.050000     8.433486640     6.573336667    25.386977110   0   0   0 # oby
    375      1   2 -1.050000     6.576935901     8.374003333    25.872704497   0   0   0 # oby
    376      1   3  2.100000     8.545309530     5.402000000    24.303480036   0   0   0 # sty
    377      1   3  2.100000     6.090311579     9.003333333    24.466927775   0   0   0 # sty
    378      1   3  2.100000     9.914358399     7.202666667    22.259113314   0   0   0 # sty
    379      1   1 -0.950000     1.666940000     6.031330000     1.636797398   0   0   0 # ohy
    380      1   2 -1.050000     2.174563113     9.632663333     3.487481195   0   0   0 # oby
    381      1   1 -0.950000     3.523490739     7.831996667     2.122524785   0   0   0 # ohy
    382      1   2 -1.050000    24.269544670    10.174670000     2.761114785   0   0   0 # oby
    383      1   2 -1.050000     1.068492788     6.573336667     4.126071195   0   0   0 # oby
    384      1   2 -1.050000    23.761921557     8.374003333     4.611798581   0   0   0 # oby
    385      1   3  2.100000     1.180315677     5.402000000     3.042574120   0   0   0 # sty
    386      1   3  2.100000    23.275297234     9.003333333     3.206021859   0   0   0 # sty
    387      1   3  2.100000    12.369356350     7.202666667    26.511294497   0   0   0 # sty
    388      1   2 -1.050000    23.761921557     6.031330000     5.888978581   0   0   0 # oby
    389      1   2 -1.050000    24.269544670     9.632663333     7.739662378   0   0   0 # oby
    390      1   2 -1.050000     1.068492788     7.831996667     6.374705968   0   0   0 # oby
    391      1   2 -1.050000    21.814546719    10.174670000     7.013295968   0   0   0 # oby
    392      1   2 -1.050000    23.163474345     6.573336667     8.378252378   0   0   0 # oby
    393      1   2 -1.050000    21.306923606     8.374003333     8.863979764   0   0   0 # oby
    394      1   3  2.100000    23.275297234     5.402000000     7.294755303   0   0   0 # sty
    395      1   3  2.100000    20.820299283     9.003333333     7.458203042   0   0   0 # sty
    396      1   3  2.100000    49.194366596     7.202666667     5.250388581  -1   0   0 # sty
    397      1   2 -1.050000    21.306923606     6.031330000    10.141159764   0   0   0 # oby
    398      1   2 -1.050000    21.814546719     9.632663333    11.991843561   0   0   0 # oby
    399      1   2 -1.050000    23.163474345     7.831996667    10.626887151   0   0   0 # oby
    400      1   2 -1.050000    19.359548768    10.174670000    11.265477151   0   0   0 # oby
    401      1   2 -1.050000    20.708476394     6.573336667    12.630433561   0   0   0 # oby
    402      1   2 -1.050000    18.851925655     8.374003333    13.116160948   0   0   0 # oby
    403      1   3  2.100000    20.820299283     5.402000000    11.546936487   0   0   0 # sty
    404      1   3  2.100000    18.365301332     9.003333333    11.710384225   0   0   0 # sty
    405      1   3  2.100000    22.189348153     7.202666667     9.502569764   0   0   0 # sty
    406      1   2 -1.050000    18.851925655     6.031330000    14.393340948   0   0   0 # oby
    407      1   2 -1.050000    19.359548768     9.632663333    16.244024744   0   0   0 # oby
    408      1   2 -1.050000    20.708476394     7.831996667    14.879068334   0   0   0 # oby
    409      1   2 -1.050000    16.904550818    10.174670000    15.517658334   0   0   0 # oby
    410      1   2 -1.050000    18.253478443     6.573336667    16.882614744   0   0   0 # oby
    411      1   2 -1.050000    16.396927704     8.374003333    17.368342131   0   0   0 # oby
    412      1   3  2.100000    18.365301332     5.402000000    15.799117670   0   0   0 # sty
    413      1   3  2.100000    15.910303382     9.003333333    15.962565409   0   0   0 # sty
    414      1   3  2.100000    19.734350202     7.202666667    13.754750948   0   0   0 # sty
    415      1   2 -1.050000    16.396927704     6.031330000    18.645522131   0   0   0 # oby
    416      1   2 -1.050000    16.904550818     9.632663333    20.496205927   0   0   0 # oby
    417      1   2 -1.050000    18.253478443     7.831996667    19.131249517   0   0   0 # oby
    418      1   2 -1.050000    14.449552867    10.174670000    19.769839517   0   0   0 # oby
    419      1   2 -1.050000    15.798480493     6.573336667    21.134795927   0   0   0 # oby
    420      1   2 -1.050000    13.941929754     8.374003333    21.620523314   0   0   0 # oby
    421      1   3  2.100000    15.910303382     5.402000000    20.051298853   0   0   0 # sty
    422      1   3  2.100000    13.455305431     9.003333333    20.214746592   0   0   0 # sty
    423      1   3  2.100000    17.279352251     7.202666667    18.006932131   0   0   0 # sty
    424      1   2 -1.050000    13.941929754     6.031330000    22.897703314   0   0   0 # oby
    425      1   2 -1.050000    14.449552867     9.632663333    24.748387110   0   0   0 # oby
    426      1   2 -1.050000    15.798480493     7.831996667    23.383430700   0   0   0 # oby
    427      1   2 -1.050000    11.994554916    10.174670000    24.022020700   0   0   0 # oby
    428      1   2 -1.050000    13.343482542     6.573336667    25.386977110   0   0   0 # oby
    429      1   2 -1.050000    11.486931803     8.374003333    25.872704497   0   0   0 # oby
    430      1   3  2.100000    13.455305431     5.402000000    24.303480036   0   0   0 # sty
    431      1   3  2.100000    11.000307480     9.003333333    24.466927775   0   0   0 # sty
    432      1   3  2.100000    14.824354300     7.202666667    22.259113314   0   0   0 # sty
    433      1   1 -0.950000     6.576935901     6.031330000     1.636797398   0   0   0 # ohy
    434      1   2 -1.050000     7.084559015     9.632663333     3.487481195   0   0   0 # oby
    435      1   1 -0.950000     8.433486640     7.831996667     2.122524785   0   0   0 # ohy
    436      1   2 -1.050000     4.629561064    10.174670000     2.761114785   0   0   0 # oby
    437      1   2 -1.050000     5.978488690     6.573336667     4.126071195   0   0   0 # oby
    438      1   2 -1.050000     4.121937951     8.374003333     4.611798581   0   0   0 # oby
    439      1   3  2.100000     6.090311579     5.402000000     3.042574120   0   0   0 # sty
    440      1   3  2.100000     3.635313628     9.003333333     3.206021859   0   0   0 # sty
    441      1   3  2.100000    17.279352251     7.202666667    26.511294497   0   0   0 # sty
    442      1   2 -1.050000     4.121937951     6.031330000     5.888978581   0   0   0 # oby
    443      1   2 -1.050000     4.629561064     9.632663333     7.739662378   0   0   0 # oby
    444      1   2 -1.050000     5.978488690     7.831996667     6.374705968   0   0   0 # oby
    445      1   2 -1.050000     2.174563113    10.174670000     7.013295968   0   0   0 # oby
    446      1   2 -1.050000     3.523490739     6.573336667     8.378252378   0   0   0 # oby
    447      1   2 -1.050000     1.666940000     8.374003333     8.863979764   0   0   0 # oby
    448      1   3  2.100000     3.635313628     5.402000000     7.294755303   0   0   0 # sty
    449      1   3  2.100000     1.180315677     9.003333333     7.458203042   0   0   0 # sty
    450      1   3  2.100000     5.004362497     7.202666667     5.250388581   0   0   0 # sty
    451      1   2 -1.050000     1.666940000     6.031330000    10.141159764   0   0   0 # oby
    452      1   2 -1.050000     2.174563113     9.632663333    11.991843561   0   0   0 # oby
    453      1   2 -1.050000     3.523490739     7.831996667    10.626887151   0   0   0 # oby
    454      1   2 -1.050000    24.269544670    10.174670000    11.265477151   0   0   0 # oby
    455      1   2 -1.050000     1.068492788     6.573336667    12.630433561   0   0   0 # oby
    456      1   2 -1.050000    23.761921557     8.374003333    13.116160948   0   0   0 # oby
    457      1   3  2.100000     1.180315677     5.402000000    11.546936487   0   0   0 # sty
    458      1   3  2.100000    23.275297234     9.003333333    11.710384225   0   0   0 # sty
    459      1   3  2.100000     2.549364547     7.202666667     9.502569764   0   0   0 # sty
    460      1   2 -1.050000    23.761921557     6.031330000    14.393340948   0   0   0 # oby
    461      1   2 -1.050000    24.269544670     9.632663333    16.244024744   0   0   0 # oby
    462      1   2 -1.050000     1.068492788     7.831996667    14.879068334   0   0   0 # oby
    463      1   2 -1.050000    21.814546719    10.174670000    15.517658334   0   0   0 # oby
    464      1   2 -1.050000    23.163474345     6.573336667    16.882614744   0   0   0 # oby
    465      1   2 -1.050000    21.306923606     8.374003333    17.368342131   0   0   0 # oby
    466      1   3  2.100000    23.275297234     5.402000000    15.799117670   0   0   0 # sty
    467      1   3  2.100000    20.820299283     9.003333333    15.962565409   0   0   0 # sty
    468      1   3  2.100000    49.194366596     7.202666667    13.754750948  -1   0   0 # sty
    469      1   2 -1.050000    21.306923606     6.031330000    18.645522131   0   0   0 # oby
    470      1   2 -1.050000    21.814546719     9.632663333    20.496205927   0   0   0 # oby
    471      1   2 -1.050000    23.163474345     7.831996667    19.131249517   0   0   0 # oby
    472      1   2 -1.050000    19.359548768    10.174670000    19.769839517   0   0   0 # oby
    473      1   2 -1.050000    20.708476394     6.573336667    21.134795927   0   0   0 # oby
    474      1   2 -1.050000    18.851925655     8.374003333    21.620523314   0   0   0 # oby
    475      1   3  2.100000    20.820299283     5.402000000    20.051298853   0   0   0 # sty
    476      1   3  2.100000    18.365301332     9.003333333    20.214746592   0   0   0 # sty
    477      1   3  2.100000    22.189348153     7.202666667    18.006932131   0   0   0 # sty
    478      1   2 -1.050000    18.851925655     6.031330000    22.897703314   0   0   0 # oby
    479      1   2 -1.050000    19.359548768     9.632663333    24.748387110   0   0   0 # oby
    480      1   2 -1.050000    20.708476394     7.831996667    23.383430700   0   0   0 # oby
    481      1   2 -1.050000    16.904550818    10.174670000    24.022020700   0   0   0 # oby
    482      1   2 -1.050000    18.253478443     6.573336667    25.386977110   0   0   0 # oby
    483      1   2 -1.050000    16.396927704     8.374003333    25.872704497   0   0   0 # oby
    484      1   3  2.100000    18.365301332     5.402000000    24.303480036   0   0   0 # sty
    485      1   3  2.100000    15.910303382     9.003333333    24.466927775   0   0   0 # sty
    486      1   3  2.100000    19.734350202     7.202666667    22.259113314   0   0   0 # sty
    487      1   1 -0.950000    11.486931803     6.031330000     1.636797398   0   0   0 # ohy
    488      1   2 -1.050000    11.994554916     9.632663333     3.487481195   0   0   0 # oby
    489      1   1 -0.950000    13.343482542     7.831996667     2.122524785   0   0   0 # ohy
    490      1   2 -1.050000     9.539556966    10.174670000     2.761114785   0   0   0 # oby
    491      1   2 -1.050000    10.888484591     6.573336667     4.126071195   0   0   0 # oby
    492      1   2 -1.050000     9.031933852     8.374003333     4.611798581   0   0   0 # oby
    493      1   3  2.100000    11.000307480     5.402000000     3.042574120   0   0   0 # sty
    494      1   3  2.100000     8.545309530     9.003333333     3.206021859   0   0   0 # sty
    495      1   3  2.100000    22.189348153     7.202666667    26.511294497   0   0   0 # sty
    496      1   2 -1.050000     9.031933852     6.031330000     5.888978581   0   0   0 # oby
    497      1   2 -1.050000     9.539556966     9.632663333     7.739662378   0   0   0 # oby
    498      1   2 -1.050000    10.888484591     7.831996667     6.374705968   0   0   0 # oby
    499      1   2 -1.050000     7.084559015    10.174670000     7.013295968   0   0   0 # oby
    500      1   2 -1.050000     8.433486640     6.573336667     8.378252378   0   0   0 # oby
    501      1   2 -1.050000     6.576935901     8.374003333     8.863979764   0   0   0 # oby
    502      1   3  2.100000     8.545309530     5.402000000     7.294755303   0   0   0 # sty
    503      1   3  2.100000     6.090311579     9.003333333     7.458203042   0   0   0 # sty
    504      1   3  2.100000     9.914358399     7.202666667     5.250388581   0   0   0 # sty
    505      1   2 -1.050000     6.576935901     6.031330000    10.141159764   0   0   0 # oby
    506      1   2 -1.050000     7.084559015     9.632663333    11.991843561   0   0   0 # oby
    507      1   2 -1.050000     8.433486640     7.831996667    10.626887151   0   0   0 # oby
    508      1   2 -1.050000     4.629561064    10.174670000    11.265477151   0   0   0 # oby
    509      1   2 -1.050000     5.978488690     6.573336667    12.630433561   0   0   0 # oby
    510      1   2 -1.050000     4.121937951     8.374003333    13.116160948   0   0   0 # oby
    511      1   3  2.100000     6.090311579     5.402000000    11.546936487   0   0   0 # sty
    512      1   3  2.100000     3.635313628     9.003333333    11.710384225   0   0   0 # sty
    513      1   3  2.100000     7.459360448     7.202666667     9.502569764   0   0   0 # sty
    514      1   2 -1.050000     4.121937951     6.031330000    14.393340948   0   0   0 # oby
    515      1   2 -1.050000     4.629561064     9.632663333    16.244024744   0   0   0 # oby
    516      1   2 -1.050000     5.978488690     7.831996667    14.879068334   0   0   0 # oby
    517      1   2 -1.050000     2.174563113    10.174670000    15.517658334   0   0   0 # oby
    518      1   2 -1.050000     3.523490739     6.573336667    16.882614744   0   0   0 # oby
    519      1   2 -1.050000     1.666940000     8.374003333    17.368342131   0   0   0 # oby
    520      1   3  2.100000     3.635313628     5.402000000    15.799117670   0   0   0 # sty
    521      1   3  2.100000     1.180315677     9.003333333    15.962565409   0   0   0 # sty
    522      1   3  2.100000     5.004362497     7.202666667    13.754750948   0   0   0 # sty
    523      1   2 -1.050000     1.666940000     6.031330000    18.645522131   0   0   0 # oby
    524      1   2 -1.050000     2.174563113     9.632663333    20.496205927   0   0   0 # oby
    525      1   2 -1.050000     3.523490739     7.831996667    19.131249517   0   0   0 # oby
    526      1   2 -1.050000    24.269544670    10.174670000    19.769839517   0   0   0 # oby
    527      1   2 -1.050000     1.068492788     6.573336667    21.134795927   0   0   0 # oby
    528      1   2 -1.050000    23.761921557     8.374003333    21.620523314   0   0   0 # oby
    529      1   3  2.100000     1.180315677     5.402000000    20.051298853   0   0   0 # sty
    530      1   3  2.100000    23.275297234     9.003333333    20.214746592   0   0   0 # sty
    531      1   3  2.100000     2.549364547     7.202666667    18.006932131   0   0   0 # sty
    532      1   2 -1.050000    23.761921557     6.031330000    22.897703314   0   0   0 # oby
    533      1   2 -1.050000    24.269544670     9.632663333    24.748387110   0   0   0 # oby
    534      1   2 -1.050000     1.068492788     7.831996667    23.383430700   0   0   0 # oby
    535      1   2 -1.050000    21.814546719    10.174670000    24.022020700   0   0   0 # oby
    536      1   2 -1.050000    23.163474345     6.573336667    25.386977110   0   0   0 # oby
    537      1   2 -1.050000    21.306923606     8.374003333    25.872704497   0   0   0 # oby
    538      1   3  2.100000    23.275297234     5.402000000    24.303480036   0   0   0 # sty
    539      1   3  2.100000    20.820299283     9.003333333    24.466927775   0   0   0 # sty
    540      1   3  2.100000    49.194366596     7.202666667    22.259113314  -1   0   0 # sty
    541      1   1 -0.950000    16.396927704    11.433330000     1.636797398   0   0   0 # ohy
    542      1   2 -1.050000    16.904550818    15.034663333     3.487481195   0   0   0 # oby
    543      1   1 -0.950000    18.253478443    13.233996667     2.122524785   0   0   0 # ohy
    544      1   2 -1.050000    14.449552867    15.576670000     2.761114785   0   0   0 # oby
    545      1   2 -1.050000    15.798480493    11.975336667     4.126071195   0   0   0 # oby
    546      1   2 -1.050000    13.941929754    13.776003333     4.611798581   0   0   0 # oby
    547      1   3  2.100000    15.910303382    10.804000000     3.042574120   0   0   0 # sty
    548      1   3  2.100000    13.455305431    14.405333333     3.206021859   0   0   0 # sty
    549      1   3  2.100000     2.549364547    12.604666667    26.511294497   0   0   0 # sty
    550      1   2 -1.050000    13.941929754    11.433330000     5.888978581   0   0   0 # oby
    551      1   2 -1.050000    14.449552867    15.034663333     7.739662378   0   0   0 # oby
    552      1   2 -1.050000    15.798480493    13.233996667     6.374705968   0   0   0 # oby
    553      1   2 -1.050000    11.994554916    15.576670000     7.013295968   0   0   0 # oby
    554      1   2 -1.050000    13.343482542    11.975336667     8.378252378   0   0   0 # oby
    555      1   2 -1.050000    11.486931803    13.776003333     8.863979764   0   0   0 # oby
    556      1   3  2.100000    13.455305431    10.804000000     7.294755303   0   0   0 # sty
    557      1   3  2.100000    11.000307480    14.405333333     7.458203042   0   0   0 # sty
    558      1   3  2.100000    14.824354300    12.604666667     5.250388581   0   0   0 # sty
    559      1   2 -1.050000    11.486931803    11.433330000    10.141159764   0   0   0 # oby
    560      1   2 -1.050000    11.994554916    15.034663333    11.991843561   0   0   0 # oby
    561      1   2 -1.050000    13.343482542    13.233996667    10.626887151   0   0   0 # oby
    562      1   2 -1.050000     9.539556966    15.576670000    11.265477151   0   0   0 # oby
    563      1   2 -1.050000    10.888484591    11.975336667    12.630433561   0   0   0 # oby
    564      1   2 -1.050000     9.031933852    13.776003333    13.116160948   0   0   0 # oby
    565      1   3  2.100000    11.000307480    10.804000000    11.546936487   0   0   0 # sty
    566      1   3  2.100000     8.545309530    14.405333333    11.710384225   0   0   0 # sty
    567      1   3  2.100000    12.369356350    12.604666667     9.502569764   0   0   0 # sty
    568      1   2 -1.050000     9.031933852    11.433330000    14.393340948   0   0   0 # oby
    569      1   2 -1.050000     9.539556966    15.034663333    16.244024744   0   0   0 # oby
    570      1   2 -1.050000    10.888484591    13.233996667    14.879068334   0   0   0 # oby
    571      1   2 -1.050000     7.084559015    15.576670000    15.517658334   0   0   0 # oby
    572      1   2 -1.050000     8.433486640    11.975336667    16.882614744   0   0   0 # oby
    573      1   2 -1.050000     6.576935901    13.776003333    17.368342131   0   0   0 # oby
    574      1   3  2.100000     8.545309530    10.804000000    15.799117670   0   0   0 # sty
    575      1   3  2.100000     6.090311579    14.405333333    15.962565409   0   0   0 # sty
    576      1   3  2.100000     9.914358399    12.604666667    13.754750948   0   0   0 # sty
    577      1   2 -1.050000     6.576935901    11.433330000    18.645522131   0   0   0 # oby
    578      1   2 -1.050000     7.084559015    15.034663333    20.496205927   0   0   0 # oby
    579      1   2 -1.050000     8.433486640    13.233996667    19.131249517   0   0   0 # oby
    580      1   2 -1.050000     4.629561064    15.576670000    19.769839517   0   0   0 # oby
    581      1   2 -1.050000     5.978488690    11.975336667    21.134795927   0   0   0 # oby
    582      1   2 -1.050000     4.121937951    13.776003333    21.620523314   0   0   0 # oby
    583      1   3  2.100000     6.090311579    10.804000000    20.051298853   0   0   0 # sty
    584      1   3  2.100000     3.635313628    14.405333333    20.214746592   0   0   0 # sty
    585      1   3  2.100000     7.459360448    12.604666667    18.006932131   0   0   0 # sty
    586      1   2 -1.050000     4.121937951    11.433330000    22.897703314   0   0   0 # oby
    587      1   2 -1.050000     4.629561064    15.034663333    24.748387110   0   0   0 # oby
    588      1   2 -1.050000     5.978488690    13.233996667    23.383430700   0   0   0 # oby
    589      1   2 -1.050000     2.174563113    15.576670000    24.022020700   0   0   0 # oby
    590      1   2 -1.050000     3.523490739    11.975336667    25.386977110   0   0   0 # oby
    591      1   2 -1.050000     1.666940000    13.776003333    25.872704497   0   0   0 # oby
    592      1   3  2.100000     3.635313628    10.804000000    24.303480036   0   0   0 # sty
    593      1   3  2.100000     1.180315677    14.405333333    24.466927775   0   0   0 # sty
    594      1   3  2.100000     5.004362497    12.604666667    22.259113314   0   0   0 # sty
    595      1   1 -0.950000    21.306923606    11.433330000     1.636797398   0   0   0 # ohy
    596      1   2 -1.050000    21.814546719    15.034663333     3.487481195   0   0   0 # oby
    597      1   1 -0.950000    23.163474345    13.233996667     2.122524785   0   0   0 # ohy
    598      1   2 -1.050000    19.359548768    15.576670000     2.761114785   0   0   0 # oby
    599      1   2 -1.050000    20.708476394    11.975336667     4.126071195   0   0   0 # oby
    600      1   2 -1.050000    18.851925655    13.776003333     4.611798581   0   0   0 # oby
    601      1   3  2.100000    20.820299283    10.804000000     3.042574120   0   0   0 # sty
    602      1   3  2.100000    18.365301332    14.405333333     3.206021859   0   0   0 # sty
    603      1   3  2.100000     7.459360448    12.604666667    26.511294497   0   0   0 # sty
    604      1   2 -1.050000    18.851925655    11.433330000     5.888978581   0   0   0 # oby
    605      1   2 -1.050000    19.359548768    15.034663333     7.739662378   0   0   0 # oby
    606      1   2 -1.050000    20.708476394    13.233996667     6.374705968   0   0   0 # oby
    607      1   2 -1.050000    16.904550818    15.576670000     7.013295968   0   0   0 # oby
    608      1   2 -1.050000    18.253478443    11.975336667     8.378252378   0   0   0 # oby
    609      1   2 -1.050000    16.396927704    13.776003333     8.863979764   0   0   0 # oby
    610      1   3  2.100000    18.365301332    10.804000000     7.294755303   0   0   0 # sty
    611      1   3  2.100000    15.910303382    14.405333333     7.458203042   0   0   0 # sty
    612      1   3  2.100000    19.734350202    12.604666667     5.250388581   0   0   0 # sty
    613      1   2 -1.050000    16.396927704    11.433330000    10.141159764   0   0   0 # oby
    614      1   2 -1.050000    16.904550818    15.034663333    11.991843561   0   0   0 # oby
    615      1   2 -1.050000    18.253478443    13.233996667    10.626887151   0   0   0 # oby
    616      1   2 -1.050000    14.449552867    15.576670000    11.265477151   0   0   0 # oby
    617      1   2 -1.050000    15.798480493    11.975336667    12.630433561   0   0   0 # oby
    618      1   2 -1.050000    13.941929754    13.776003333    13.116160948   0   0   0 # oby
    619      1   3  2.100000    15.910303382    10.804000000    11.546936487   0   0   0 # sty
    620      1   3  2.100000    13.455305431    14.405333333    11.710384225   0   0   0 # sty
    621      1   3  2.100000    17.279352251    12.604666667     9.502569764   0   0   0 # sty
    622      1   2 -1.050000    13.941929754    11.433330000    14.393340948   0   0   0 # oby
    623      1   2 -1.050000    14.449552867    15.034663333    16.244024744   0   0   0 # oby
    624      1   2 -1.050000    15.798480493    13.233996667    14.879068334   0   0   0 # oby
    625      1   2 -1.050000    11.994554916    15.576670000    15.517658334   0   0   0 # oby
    626      1   2 -1.050000    13.343482542    11.975336667    16.882614744   0   0   0 # oby
    627      1   2 -1.050000    11.486931803    13.776003333    17.368342131   0   0   0 # oby
    628      1   3  2.100000    13.455305431    10.804000000    15.799117670   0   0   0 # sty
    629      1   3  2.100000    11.000307480    14.405333333    15.962565409   0   0   0 # sty
    630      1   3  2.100000    14.824354300    12.604666667    13.754750948   0   0   0 # sty
    631      1   2 -1.050000    11.486931803    11.433330000    18.645522131   0   0   0 # oby
    632      1   2 -1.050000    11.994554916    15.034663333    20.496205927   0   0   0 # oby
    633      1   2 -1.050000    13.343482542    13.233996667    19.131249517   0   0   0 # oby
    634      1   2 -1.050000     9.539556966    15.576670000    19.769839517   0   0   0 # oby
    635      1   2 -1.050000    10.888484591    11.975336667    21.134795927   0   0   0 # oby
    636      1   2 -1.050000     9.031933852    13.776003333    21.620523314   0   0   0 # oby
    637      1   3  2.100000    11.000307480    10.804000000    20.051298853   0   0   0 # sty
    638      1   3  2.100000     8.545309530    14.405333333    20.214746592   0   0   0 # sty
    639      1   3  2.100000    12.369356350    12.604666667    18.006932131   0   0   0 # sty
    640      1   2 -1.050000     9.031933852    11.433330000    22.897703314   0   0   0 # oby
    641      1   2 -1.050000     9.539556966    15.034663333    24.748387110   0   0   0 # oby
    642      1   2 -1.050000    10.888484591    13.233996667    23.383430700   0   0   0 # oby
    643      1   2 -1.050000     7.084559015    15.576670000    24.022020700   0   0   0 # oby
    644      1   2 -1.050000     8.433486640    11.975336667    25.386977110   0   0   0 # oby
    645      1   2 -1.050000     6.576935901    13.776003333    25.872704497   0   0   0 # oby
    646      1   3  2.100000     8.545309530    10.804000000    24.303480036   0   0   0 # sty
    647      1   3  2.100000     6.090311579    14.405333333    24.466927775   0   0   0 # sty
    648      1   3  2.100000     9.914358399    12.604666667    22.259113314   0   0   0 # sty
    649      1   1 -0.950000     1.666940000    11.433330000     1.636797398   0   0   0 # ohy
    650      1   2 -1.050000     2.174563113    15.034663333     3.487481195   0   0   0 # oby
    651      1   1 -0.950000     3.523490739    13.233996667     2.122524785   0   0   0 # ohy
    652      1   2 -1.050000    24.269544670    15.576670000     2.761114785   0   0   0 # oby
    653      1   2 -1.050000     1.068492788    11.975336667     4.126071195   0   0   0 # oby
    654      1   2 -1.050000    23.761921557    13.776003333     4.611798581   0   0   0 # oby
    655      1   3  2.100000     1.180315677    10.804000000     3.042574120   0   0   0 # sty
    656      1   3  2.100000    23.275297234    14.405333333     3.206021859   0   0   0 # sty
    657      1   3  2.100000    12.369356350    12.604666667    26.511294497   0   0   0 # sty
    658      1   2 -1.050000    23.761921557    11.433330000     5.888978581   0   0   0 # oby
    659      1   2 -1.050000    24.269544670    15.034663333     7.739662378   0   0   0 # oby
    660      1   2 -1.050000     1.068492788    13.233996667     6.374705968   0   0   0 # oby
    661      1   2 -1.050000    21.814546719    15.576670000     7.013295968   0   0   0 # oby
    662      1   2 -1.050000    23.163474345    11.975336667     8.378252378   0   0   0 # oby
    663      1   2 -1.050000    21.306923606    13.776003333     8.863979764   0   0   0 # oby
    664      1   3  2.100000    23.275297234    10.804000000     7.294755303   0   0   0 # sty
    665      1   3  2.100000    20.820299283    14.405333333     7.458203042   0   0   0 # sty
    666      1   3  2.100000    49.194366596    12.604666667     5.250388581  -1   0   0 # sty
    667      1   2 -1.050000    21.306923606    11.433330000    10.141159764   0   0   0 # oby
    668      1   2 -1.050000    21.814546719    15.034663333    11.991843561   0   0   0 # oby
    669      1   2 -1.050000    23.163474345    13.233996667    10.626887151   0   0   0 # oby
    670      1   2 -1.050000    19.359548768    15.576670000    11.265477151   0   0   0 # oby
    671      1   2 -1.050000    20.708476394    11.975336667    12.630433561   0   0   0 # oby
    672      1   2 -1.050000    18.851925655    13.776003333    13.116160948   0   0   0 # oby
    673      1   3  2.100000    20.820299283    10.804000000    11.546936487   0   0   0 # sty
    674      1   3  2.100000    18.365301332    14.405333333    11.710384225   0   0   0 # sty
    675      1   3  2.100000    22.189348153    12.604666667     9.502569764   0   0   0 # sty
    676      1   2 -1.050000    18.851925655    11.433330000    14.393340948   0   0   0 # oby
    677      1   2 -1.050000    19.359548768    15.034663333    16.244024744   0   0   0 # oby
    678      1   2 -1.050000    20.708476394    13.233996667    14.879068334   0   0   0 # oby
    679      1   2 -1.050000    16.904550818    15.576670000    15.517658334   0   0   0 # oby
    680      1   2 -1.050000    18.253478443    11.975336667    16.882614744   0   0   0 # oby
    681      1   2 -1.050000    16.396927704    13.776003333    17.368342131   0   0   0 # oby
    682      1   3  2.100000    18.365301332    10.804000000    15.799117670   0   0   0 # sty
    683      1   3  2.100000    15.910303382    14.405333333    15.962565409   0   0   0 # sty
    684      1   3  2.100000    19.734350202    12.604666667    13.754750948   0   0   0 # sty
    685      1   2 -1.050000    16.396927704    11.433330000    18.645522131   0   0   0 # oby
    686      1   2 -1.050000    16.904550818    15.034663333    20.496205927   0   0   0 # oby
    687      1   2 -1.050000    18.253478443    13.233996667    19.131249517   0   0   0 # oby
    688      1   2 -1.050000    14.449552867    15.576670000    19.769839517   0   0   0 # oby
    689      1   2 -1.050000    15.798480493    11.975336667    21.134795927   0   0   0 # oby
    690      1   2 -1.050000    13.941929754    13.776003333    21.620523314   0   0   0 # oby
    691      1   3  2.100000    15.910303382    10.804000000    20.051298853   0   0   0 # sty
    692      1   3  2.100000    13.455305431    14.405333333    20.214746592   0   0   0 # sty
    693      1   3  2.100000    17.279352251    12.604666667    18.006932131   0   0   0 # sty
    694      1   2 -1.050000    13.941929754    11.433330000    22.897703314   0   0   0 # oby
    695      1   2 -1.050000    14.449552867    15.034663333    24.748387110   0   0   0 # oby
    696      1   2 -1.050000    15.798480493    13.233996667    23.383430700   0   0   0 # oby
    697      1   2 -1.050000    11.994554916    15.576670000    24.022020700   0   0   0 # oby
    698      1   2 -1.050000    13.343482542    11.975336667    25.386977110   0   0   0 # oby
    699      1   2 -1.050000    11.486931803    13.776003333    25.872704497   0   0   0 # oby
    700      1   3  2.100000    13.455305431    10.804000000    24.303480036   0   0   0 # sty
    701      1   3  2.100000    11.000307480    14.405333333    24.466927775   0   0   0 # sty
    702      1   3  2.100000    14.824354300    12.604666667    22.259113314   0   0   0 # sty
    703      1   1 -0.950000     6.576935901    11.433330000     1.636797398   0   0   0 # ohy
    704      1   2 -1.050000     7.084559015    15.034663333     3.487481195   0   0   0 # oby
    705      1   1 -0.950000     8.433486640    13.233996667     2.122524785   0   0   0 # ohy
    706      1   2 -1.050000     4.629561064    15.576670000     2.761114785   0   0   0 # oby
    707      1   2 -1.050000     5.978488690    11.975336667     4.126071195   0   0   0 # oby
    708      1   2 -1.050000     4.121937951    13.776003333     4.611798581   0   0   0 # oby
    709      1   3  2.100000     6.090311579    10.804000000     3.042574120   0   0   0 # sty
    710      1   3  2.100000     3.635313628    14.405333333     3.206021859   0   0   0 # sty
    711      1   3  2.100000    17.279352251    12.604666667    26.511294497   0   0   0 # sty
    712      1   2 -1.050000     4.121937951    11.433330000     5.888978581   0   0   0 # oby
    713      1   2 -1.050000     4.629561064    15.034663333     7.739662378   0   0   0 # oby
    714      1   2 -1.050000     5.978488690    13.233996667     6.374705968   0   0   0 # oby
    715      1   2 -1.050000     2.174563113    15.576670000     7.013295968   0   0   0 # oby
    716      1   2 -1.050000     3.523490739    11.975336667     8.378252378   0   0   0 # oby
    717      1   2 -1.050000     1.666940000    13.776003333     8.863979764   0   0   0 # oby
    718      1   3  2.100000     3.635313628    10.804000000     7.294755303   0   0   0 # sty
    719      1   3  2.100000     1.180315677    14.405333333     7.458203042   0   0   0 # sty
    720      1   3  2.100000     5.004362497    12.604666667     5.250388581   0   0   0 # sty
    721      1   2 -1.050000     1.666940000    11.433330000    10.141159764   0   0   0 # oby
    722      1   2 -1.050000     2.174563113    15.034663333    11.991843561   0   0   0 # oby
    723      1   2 -1.050000     3.523490739    13.233996667    10.626887151   0   0   0 # oby
    724      1   2 -1.050000    24.269544670    15.576670000    11.265477151   0   0   0 # oby
    725      1   2 -1.050000     1.068492788    11.975336667    12.630433561   0   0   0 # oby
    726      1   2 -1.050000    23.761921557    13.776003333    13.116160948   0   0   0 # oby
    727      1   3  2.100000     1.180315677    10.804000000    11.546936487   0   0   0 # sty
    728      1   3  2.100000    23.275297234    14.405333333    11.710384225   0   0   0 # sty
    729      1   3  2.100000     2.549364547    12.604666667     9.502569764   0   0   0 # sty
    730      1   2 -1.050000    23.761921557    11.433330000    14.393340948   0   0   0 # oby
    731      1   2 -1.050000    24.269544670    15.034663333    16.244024744   0   0   0 # oby
    732      1   2 -1.050000     1.068492788    13.233996667    14.879068334   0   0   0 # oby
    733      1   2 -1.050000    21.814546719    15.576670000    15.517658334   0   0   0 # oby
    734      1   2 -1.050000    23.163474345    11.975336667    16.882614744   0   0   0 # oby
    735      1   2 -1.050000    21.306923606    13.776003333    17.368342131   0   0   0 # oby
    736      1   3  2.100000    23.275297234    10.804000000    15.799117670   0   0   0 # sty
    737      1   3  2.100000    20.820299283    14.405333333    15.962565409   0   0   0 # sty
    738      1   3  2.100000    49.194366596    12.604666667    13.754750948  -1   0   0 # sty
    739      1   2 -1.050000    21.306923606    11.433330000    18.645522131   0   0   0 # oby
    740      1   2 -1.050000    21.814546719    15.034663333    20.496205927   0   0   0 # oby
    741      1   2 -1.050000    23.163474345    13.233996667    19.131249517   0   0   0 # oby
    742      1   2 -1.050000    19.359548768    15.576670000    19.769839517   0   0   0 # oby
    743      1   2 -1.050000    20.708476394    11.975336667    21.134795927   0   0   0 # oby
    744      1   2 -1.050000    18.851925655    13.776003333    21.620523314   0   0   0 # oby
    745      1   3  2.100000    20.820299283    10.804000000    20.051298853   0   0   0 # sty
    746      1   3  2.100000    18.365301332    14.405333333    20.214746592   0   0   0 # sty
    747      1   3  2.100000    22.189348153    12.604666667    18.006932131   0   0   0 # sty
    748      1   2 -1.050000    18.851925655    11.433330000    22.897703314   0   0   0 # oby
    749      1   2 -1.050000    19.359548768    15.034663333    24.748387110   0   0   0 # oby
    750      1   2 -1.050000    20.708476394    13.233996667    23.383430700   0   0   0 # oby
    751      1   2 -1.050000    16.904550818    15.576670000    24.022020700   0   0   0 # oby
    752      1   2 -1.050000    18.253478443    11.975336667    25.386977110   0   0   0 # oby
    753      1   2 -1.050000    16.396927704    13.776003333    25.872704497   0   0   0 # oby
    754      1   3  2.100000    18.365301332    10.804000000    24.303480036   0   0   0 # sty
    755      1   3  2.100000    15.910303382    14.405333333    24.466927775   0   0   0 # sty
    756      1   3  2.100000    19.734350202    12.604666667    22.259113314   0   0   0 # sty
    757      1   1 -0.950000    11.486931803    11.433330000     1.636797398   0   0   0 # ohy
    758      1   2 -1.050000    11.994554916    15.034663333     3.487481195   0   0   0 # oby
    759      1   1 -0.950000    13.343482542    13.233996667     2.122524785   0   0   0 # ohy
    760      1   2 -1.050000     9.539556966    15.576670000     2.761114785   0   0   0 # oby
    761      1   2 -1.050000    10.888484591    11.975336667     4.126071195   0   0   0 # oby
    762      1   2 -1.050000     9.031933852    13.776003333     4.611798581   0   0   0 # oby
    763      1   3  2.100000    11.000307480    10.804000000     3.042574120   0   0   0 # sty
    764      1   3  2.100000     8.545309530    14.405333333     3.206021859   0   0   0 # sty
    765      1   3  2.100000    22.189348153    12.604666667    26.511294497   0   0   0 # sty
    766      1   2 -1.050000     9.031933852    11.433330000     5.888978581   0   0   0 # oby
    767      1   2 -1.050000     9.539556966    15.034663333     7.739662378   0   0   0 # oby
    768      1   2 -1.050000    10.888484591    13.233996667     6.374705968   0   0   0 # oby
    769      1   2 -1.050000     7.084559015    15.576670000     7.013295968   0   0   0 # oby
    770      1   2 -1.050000     8.433486640    11.975336667     8.378252378   0   0   0 # oby
    771      1   2 -1.050000     6.576935901    13.776003333     8.863979764   0   0   0 # oby
    772      1   3  2.100000     8.545309530    10.804000000     7.294755303   0   0   0 # sty
    773      1   3  2.100000     6.090311579    14.405333333     7.458203042   0   0   0 # sty
    774      1   3  2.100000     9.914358399    12.604666667     5.250388581   0   0   0 # sty
    775      1   2 -1.050000     6.576935901    11.433330000    10.141159764   0   0   0 # oby
    776      1   2 -1.050000     7.084559015    15.034663333    11.991843561   0   0   0 # oby
    777      1   2 -1.050000     8.433486640    13.233996667    10.626887151   0   0   0 # oby
    778      1   2 -1.050000     4.629561064    15.576670000    11.265477151   0   0   0 # oby
    779      1   2 -1.050000     5.978488690    11.975336667    12.630433561   0   0   0 # oby
    780      1   2 -1.050000     4.121937951    13.776003333    13.116160948   0   0   0 # oby
    781      1   3  2.100000     6.090311579    10.804000000    11.546936487   0   0   0 # sty
    782      1   3  2.100000     3.635313628    14.405333333    11.710384225   0   0   0 # sty
    783      1   3  2.100000     7.459360448    12.604666667     9.502569764   0   0   0 # sty
    784      1   2 -1.050000     4.121937951    11.433330000    14.393340948   0   0   0 # oby
    785      1   2 -1.050000     4.629561064    15.034663333    16.244024744   0   0   0 # oby
    786      1   2 -1.050000     5.978488690    13.233996667    14.879068334   0   0   0 # oby
    787      1   2 -1.050000     2.174563113    15.576670000    15.517658334   0   0   0 # oby
    788      1   2 -1.050000     3.523490739    11.975336667    16.882614744   0   0   0 # oby
    789      1   2 -1.050000     1.666940000    13.776003333    17.368342131   0   0   0 # oby
    790      1   3  2.100000     3.635313628    10.804000000    15.799117670   0   0   0 # sty
    791      1   3  2.100000     1.180315677    14.405333333    15.962565409   0   0   0 # sty
    792      1   3  2.100000     5.004362497    12.604666667    13.754750948   0   0   0 # sty
    793      1   2 -1.050000     1.666940000    11.433330000    18.645522131   0   0   0 # oby
    794      1   2 -1.050000     2.174563113    15.034663333    20.496205927   0   0   0 # oby
    795      1   2 -1.050000     3.523490739    13.233996667    19.131249517   0   0   0 # oby
    796      1   2 -1.050000    24.269544670    15.576670000    19.769839517   0   0   0 # oby
    797      1   2 -1.050000     1.068492788    11.975336667    21.134795927   0   0   0 # oby
    798      1   2 -1.050000    23.761921557    13.776003333    21.620523314   0   0   0 # oby
    799      1   3  2.100000     1.180315677    10.804000000    20.051298853   0   0   0 # sty
    800      1   3  2.100000    23.275297234    14.405333333    20.214746592   0   0   0 # sty
    801      1   3  2.100000     2.549364547    12.604666667    18.006932131   0   0   0 # sty
    802      1   2 -1.050000    23.761921557    11.433330000    22.897703314   0   0   0 # oby
    803      1   2 -1.050000    24.269544670    15.034663333    24.748387110   0   0   0 # oby
    804      1   2 -1.050000     1.068492788    13.233996667    23.383430700   0   0   0 # oby
    805      1   2 -1.050000    21.814546719    15.576670000    24.022020700   0   0   0 # oby
    806      1   2 -1.050000    23.163474345    11.975336667    25.386977110   0   0   0 # oby
    807      1   2 -1.050000    21.306923606    13.776003333    25.872704497   0   0   0 # oby
    808      1   3  2.100000    23.275297234    10.804000000    24.303480036   0   0   0 # sty
    809      1   3  2.100000    20.820299283    14.405333333    24.466927775   0   0   0 # sty
    810      1   3  2.100000    49.194366596    12.604666667    22.259113314  -1   0   0 # sty
    811      1   1 -0.950000    16.396927704    16.835330000     1.636797398   0   0   0 # ohy
    812      1   2 -1.050000    16.904550818    20.436663333     3.487481195   0   0   0 # oby
    813      1   1 -0.950000    18.253478443    18.635996667     2.122524785   0   0   0 # ohy
    814      1   2 -1.050000    14.449552867    20.978670000     2.761114785   0   0   0 # oby
    815      1   2 -1.050000    15.798480493    17.377336667     4.126071195   0   0   0 # oby
    816      1   2 -1.050000    13.941929754    19.178003333     4.611798581   0   0   0 # oby
    817      1   3  2.100000    15.910303382    16.206000000     3.042574120   0   0   0 # sty
    818      1   3  2.100000    13.455305431    19.807333333     3.206021859   0   0   0 # sty
    819      1   3  2.100000     2.549364547    18.006666667    26.511294497   0   0   0 # sty
    820      1   2 -1.050000    13.941929754    16.835330000     5.888978581   0   0   0 # oby
    821      1   2 -1.050000    14.449552867    20.436663333     7.739662378   0   0   0 # oby
    822      1   2 -1.050000    15.798480493    18.635996667     6.374705968   0   0   0 # oby
    823      1   2 -1.050000    11.994554916    20.978670000     7.013295968   0   0   0 # oby
    824      1   2 -1.050000    13.343482542    17.377336667     8.378252378   0   0   0 # oby
    825      1   2 -1.050000    11.486931803    19.178003333     8.863979764   0   0   0 # oby
    826      1   3  2.100000    13.455305431    16.206000000     7.294755303   0   0   0 # sty
    827      1   3  2.100000    11.000307480    19.807333333     7.458203042   0   0   0 # sty
    828      1   3  2.100000    14.824354300    18.006666667     5.250388581   0   0   0 # sty
    829      1   2 -1.050000    11.486931803    16.835330000    10.141159764   0   0   0 # oby
    830      1   2 -1.050000    11.994554916    20.436663333    11.991843561   0   0   0 # oby
    831      1   2 -1.050000    13.343482542    18.635996667    10.626887151   0   0   0 # oby
    832      1   2 -1.050000     9.539556966    20.978670000    11.265477151   0   0   0 # oby
    833      1   2 -1.050000    10.888484591    17.377336667    12.630433561   0   0   0 # oby
    834      1   2 -1.050000     9.031933852    19.178003333    13.116160948   0   0   0 # oby
    835      1   3  2.100000    11.000307480    16.206000000    11.546936487   0   0   0 # sty
    836      1   3  2.100000     8.545309530    19.807333333    11.710384225   0   0   0 # sty
    837      1   3  2.100000    12.369356350    18.006666667     9.502569764   0   0   0 # sty
    838      1   2 -1.050000     9.031933852    16.835330000    14.393340948   0   0   0 # oby
    839      1   2 -1.050000     9.539556966    20.436663333    16.244024744   0   0   0 # oby
    840      1   2 -1.050000    10.888484591    18.635996667    14.879068334   0   0   0 # oby
    841      1   2 -1.050000     7.084559015    20.978670000    15.517658334   0   0   0 # oby
    842      1   2 -1.050000     8.433486640    17.377336667    16.882614744   0   0   0 # oby
    843      1   2 -1.050000     6.576935901    19.178003333    17.368342131   0   0   0 # oby
    844      1   3  2.100000     8.545309530    16.206000000    15.799117670   0   0   0 # sty
    845      1   3  2.100000     6.090311579    19.807333333    15.962565409   0   0   0 # sty
    846      1   3  2.100000     9.914358399    18.006666667    13.754750948   0   0   0 # sty
    847      1   2 -1.050000     6.576935901    16.835330000    18.645522131   0   0   0 # oby
    848      1   2 -1.050000     7.084559015    20.436663333    20.496205927   0   0   0 # oby
    849      1   2 -1.050000     8.433486640    18.635996667    19.131249517   0   0   0 # oby
    850      1   2 -1.050000     4.629561064    20.978670000    19.769839517   0   0   0 # oby
    851      1   2 -1.050000     5.978488690    17.377336667    21.134795927   0   0   0 # oby
    852      1   2 -1.050000     4.121937951    19.178003333    21.620523314   0   0   0 # oby
    853      1   3  2.100000     6.090311579    16.206000000    20.051298853   0   0   0 # sty
    854      1   3  2.100000     3.635313628    19.807333333    20.214746592   0   0   0 # sty
    855      1   3  2.100000     7.459360448    18.006666667    18.006932131   0   0   0 # sty
    856      1   2 -1.050000     4.121937951    16.835330000    22.897703314   0   0   0 # oby
    857      1   2 -1.050000     4.629561064    20.436663333    24.748387110   0   0   0 # oby
    858      1   2 -1.050000     5.978488690    18.635996667    23.383430700   0   0   0 # oby
    859      1   2 -1.050000     2.174563113    20.978670000    24.022020700   0   0   0 # oby
    860      1   2 -1.050000     3.523490739    17.377336667    25.386977110   0   0   0 # oby
    861      1   2 -1.050000     1.666940000    19.178003333    25.872704497   0   0   0 # oby
    862      1   3  2.100000     3.635313628    16.206000000    24.303480036   0   0   0 # sty
    863      1   3  2.100000     1.180315677    19.807333333    24.466927775   0   0   0 # sty
    864      1   3  2.100000     5.004362497    18.006666667    22.259113314   0   0   0 # sty
    865      1   1 -0.950000    21.306923606    16.835330000     1.636797398   0   0   0 # ohy
    866      1   2 -1.050000    21.814546719    20.436663333     3.487481195   0   0   0 # oby
    867      1   1 -0.950000    23.163474345    18.635996667     2.122524785   0   0   0 # ohy
    868      1   2 -1.050000    19.359548768    20.978670000     2.761114785   0   0   0 # oby
    869      1   2 -1.050000    20.708476394    17.377336667     4.126071195   0   0   0 # oby
    870      1   2 -1.050000    18.851925655    19.178003333     4.611798581   0   0   0 # oby
    871      1   3  2.100000    20.820299283    16.206000000     3.042574120   0   0   0 # sty
    872      1   3  2.100000    18.365301332    19.807333333     3.206021859   0   0   0 # sty
    873      1   3  2.100000     7.459360448    18.006666667    26.511294497   0   0   0 # sty
    874      1   2 -1.050000    18.851925655    16.835330000     5.888978581   0   0   0 # oby
    875      1   2 -1.050000    19.359548768    20.436663333     7.739662378   0   0   0 # oby
    876      1   2 -1.050000    20.708476394    18.635996667     6.374705968   0   0   0 # oby
    877      1   2 -1.050000    16.904550818    20.978670000     7.013295968   0   0   0 # oby
    878      1   2 -1.050000    18.253478443    17.377336667     8.378252378   0   0   0 # oby
    879      1   2 -1.050000    16.396927704    19.178003333     8.863979764   0   0   0 # oby
    880      1   3  2.100000    18.365301332    16.206000000     7.294755303   0   0   0 # sty
    881      1   3  2.100000    15.910303382    19.807333333     7.458203042   0   0   0 # sty
    882      1   3  2.100000    19.734350202    18.006666667     5.250388581   0   0   0 # sty
    883      1   2 -1.050000    16.396927704    16.835330000    10.141159764   0   0   0 # oby
    884      1   2 -1.050000    16.904550818    20.436663333    11.991843561   0   0   0 # oby
    885      1   2 -1.050000    18.253478443    18.635996667    10.626887151   0   0   0 # oby
    886      1   2 -1.050000    14.449552867    20.978670000    11.265477151   0   0   0 # oby
    887      1   2 -1.050000    15.798480493    17.377336667    12.630433561   0   0   0 # oby
    888      1   2 -1.050000    13.941929754    19.178003333    13.116160948   0   0   0 # oby
    889      1   3  2.100000    15.910303382    16.206000000    11.546936487   0   0   0 # sty
    890      1   3  2.100000    13.455305431    19.807333333    11.710384225   0   0   0 # sty
    891      1   3  2.100000    17.279352251    18.006666667     9.502569764   0   0   0 # sty
    892      1   2 -1.050000    13.941929754    16.835330000    14.393340948   0   0   0 # oby
    893      1   2 -1.050000    14.449552867    20.436663333    16.244024744   0   0   0 # oby
    894      1   2 -1.050000    15.798480493    18.635996667    14.879068334   0   0   0 # oby
    895      1   2 -1.050000    11.994554916    20.978670000    15.517658334   0   0   0 # oby
    896      1   2 -1.050000    13.343482542    17.377336667    16.882614744   0   0   0 # oby
    897      1   2 -1.050000    11.486931803    19.178003333    17.368342131   0   0   0 # oby
    898      1   3  2.100000    13.455305431    16.206000000    15.799117670   0   0   0 # sty
    899      1   3  2.100000    11.000307480    19.807333333    15.962565409   0   0   0 # sty
    900      1   3  2.100000    14.824354300    18.006666667    13.754750948   0   0   0 # sty
    901      1   2 -1.050000    11.486931803    16.835330000    18.645522131   0   0   0 # oby
    902      1   2 -1.050000    11.994554916    20.436663333    20.496205927   0   0   0 # oby
    903      1   2 -1.050000    13.343482542    18.635996667    19.131249517   0   0   0 # oby
    904      1   2 -1.050000     9.539556966    20.978670000    19.769839517   0   0   0 # oby
    905      1   2 -1.050000    10.888484591    17.377336667    21.134795927   0   0   0 # oby
    906      1   2 -1.050000     9.031933852    19.178003333    21.620523314   0   0   0 # oby
    907      1   3  2.100000    11.000307480    16.206000000    20.051298853   0   0   0 # sty
    908      1   3  2.100000     8.545309530    19.807333333    20.214746592   0   0   0 # sty
    909      1   3  2.100000    12.369356350    18.006666667    18.006932131   0   0   0 # sty
    910      1   2 -1.050000     9.031933852    16.835330000    22.897703314   0   0   0 # oby
    911      1   2 -1.050000     9.539556966    20.436663333    24.748387110   0   0   0 # oby
    912      1   2 -1.050000    10.888484591    18.635996667    23.383430700   0   0   0 # oby
    913      1   2 -1.050000     7.084559015    20.978670000    24.022020700   0   0   0 # oby
    914      1   2 -1.050000     8.433486640    17.377336667    25.386977110   0   0   0 # oby
    915      1   2 -1.050000     6.576935901    19.178003333    25.872704497   0   0   0 # oby
    916      1   3  2.100000     8.545309530    16.206000000    24.303480036   0   0   0 # sty
    917      1   3  2.100000     6.090311579    19.807333333    24.466927775   0   0   0 # sty
    918      1   3  2.100000     9.914358399    18.006666667    22.259113314   0   0   0 # sty
    919      1   1 -0.950000     1.666940000    16.835330000     1.636797398   0   0   0 # ohy
    920      1   2 -1.050000     2.174563113    20.436663333     3.487481195   0   0   0 # oby
    921      1   1 -0.950000     3.523490739    18.635996667     2.122524785   0   0   0 # ohy
    922      1   2 -1.050000    24.269544670    20.978670000     2.761114785   0   0   0 # oby
    923      1   2 -1.050000     1.068492788    17.377336667     4.126071195   0   0   0 # oby
    924      1   2 -1.050000    23.761921557    19.178003333     4.611798581   0   0   0 # oby
    925      1   3  2.100000     1.180315677    16.206000000     3.042574120   0   0   0 # sty
    926      1   3  2.100000    23.275297234    19.807333333     3.206021859   0   0   0 # sty
    927      1   3  2.100000    12.369356350    18.006666667    26.511294497   0   0   0 # sty
    928      1   2 -1.050000    23.761921557    16.835330000     5.888978581   0   0   0 # oby
    929      1   2 -1.050000    24.269544670    20.436663333     7.739662378   0   0   0 # oby
    930      1   2 -1.050000     1.068492788    18.635996667     6.374705968   0   0   0 # oby
    931      1   2 -1.050000    21.814546719    20.978670000     7.013295968   0   0   0 # oby
    932      1   2 -1.050000    23.163474345    17.377336667     8.378252378   0   0   0 # oby
    933      1   2 -1.050000    21.306923606    19.178003333     8.863979764   0   0   0 # oby
    934      1   3  2.100000    23.275297234    16.206000000     7.294755303   0   0   0 # sty
    935      1   3  2.100000    20.820299283    19.807333333     7.458203042   0   0   0 # sty
    936      1   3  2.100000    49.194366596    18.006666667     5.250388581  -1   0   0 # sty
    937      1   2 -1.050000    21.306923606    16.835330000    10.141159764   0   0   0 # oby
    938      1   2 -1.050000    21.814546719    20.436663333    11.991843561   0   0   0 # oby
    939      1   2 -1.050000    23.163474345    18.635996667    10.626887151   0   0   0 # oby
    940      1   2 -1.050000    19.359548768    20.978670000    11.265477151   0   0   0 # oby
    941      1   2 -1.050000    20.708476394    17.377336667    12.630433561   0   0   0 # oby
    942      1   2 -1.050000    18.851925655    19.178003333    13.116160948   0   0   0 # oby
    943      1   3  2.100000    20.820299283    16.206000000    11.546936487   0   0   0 # sty
    944      1   3  2.100000    18.365301332    19.807333333    11.710384225   0   0   0 # sty
    945      1   3  2.100000    22.189348153    18.006666667     9.502569764   0   0   0 # sty
    946      1   2 -1.050000    18.851925655    16.835330000    14.393340948   0   0   0 # oby
    947      1   2 -1.050000    19.359548768    20.436663333    16.244024744   0   0   0 # oby
    948      1   2 -1.050000    20.708476394    18.635996667    14.879068334   0   0   0 # oby
    949      1   2 -1.050000    16.904550818    20.978670000    15.517658334   0   0   0 # oby
    950      1   2 -1.050000    18.253478443    17.377336667    16.882614744   0   0   0 # oby
    951      1   2 -1.050000    16.396927704    19.178003333    17.368342131   0   0   0 # oby
    952      1   3  2.100000    18.365301332    16.206000000    15.799117670   0   0   0 # sty
    953      1   3  2.100000    15.910303382    19.807333333    15.962565409   0   0   0 # sty
    954      1   3  2.100000    19.734350202    18.006666667    13.754750948   0   0   0 # sty
    955      1   2 -1.050000    16.396927704    16.835330000    18.645522131   0   0   0 # oby
    956      1   2 -1.050000    16.904550818    20.436663333    20.496205927   0   0   0 # oby
    957      1   2 -1.050000    18.253478443    18.635996667    19.131249517   0   0   0 # oby
    958      1   2 -1.050000    14.449552867    20.978670000    19.769839517   0   0   0 # oby
    959      1   2 -1.050000    15.798480493    17.377336667    21.134795927   0   0   0 # oby
    960      1   2 -1.050000    13.941929754    19.178003333    21.620523314   0   0   0 # oby
    961      1   3  2.100000    15.910303382    16.206000000    20.051298853   0   0   0 # sty
    962      1   3  2.100000    13.455305431    19.807333333    20.214746592   0   0   0 # sty
    963      1   3  2.100000    17.279352251    18.006666667    18.006932131   0   0   0 # sty
    964      1   2 -1.050000    13.941929754    16.835330000    22.897703314   0   0   0 # oby
    965      1   2 -1.050000    14.449552867    20.436663333    24.748387110   0   0   0 # oby
    966      1   2 -1.050000    15.798480493    18.635996667    23.383430700   0   0   0 # oby
    967      1   2 -1.050000    11.994554916    20.978670000    24.022020700   0   0   0 # oby
    968      1   2 -1.050000    13.343482542    17.377336667    25.386977110   0   0   0 # oby
    969      1   2 -1.050000    11.486931803    19.178003333    25.872704497   0   0   0 # oby
    970      1   3  2.100000    13.455305431    16.206000000    24.303480036   0   0   0 # sty
    971      1   3  2.100000    11.000307480    19.807333333    24.466927775   0   0   0 # sty
    972      1   3  2.100000    14.824354300    18.006666667    22.259113314   0   0   0 # sty
    973      1   1 -0.950000     6.576935901    16.835330000     1.636797398   0   0   0 # ohy
    974      1   2 -1.050000     7.084559015    20.436663333     3.487481195   0   0   0 # oby
    975      1   1 -0.950000     8.433486640    18.635996667     2.122524785   0   0   0 # ohy
    976      1   2 -1.050000     4.629561064    20.978670000     2.761114785   0   0   0 # oby
    977      1   2 -1.050000     5.978488690    17.377336667     4.126071195   0   0   0 # oby
    978      1   2 -1.050000     4.121937951    19.178003333     4.611798581   0   0   0 # oby
    979      1   3  2.100000     6.090311579    16.206000000     3.042574120   0   0   0 # sty
    980      1   3  2.100000     3.635313628    19.807333333     3.206021859   0   0   0 # sty
    981      1   3  2.100000    17.279352251    18.006666667    26.511294497   0   0   0 # sty
    982      1   2 -1.050000     4.121937951    16.835330000     5.888978581   0   0   0 # oby
    983      1   2 -1.050000     4.629561064    20.436663333     7.739662378   0   0   0 # oby
    984      1   2 -1.050000     5.978488690    18.635996667     6.374705968   0   0   0 # oby
    985      1   2 -1.050000     2.174563113    20.978670000     7.013295968   0   0   0 # oby
    986      1   2 -1.050000     3.523490739    17.377336667     8.378252378   0   0   0 # oby
    987      1   2 -1.050000     1.666940000    19.178003333     8.863979764   0   0   0 # oby
    988      1   3  2.100000     3.635313628    16.206000000     7.294755303   0   0   0 # sty
    989      1   3  2.100000     1.180315677    19.807333333     7.458203042   0   0   0 # sty
    990      1   3  2.100000     5.004362497    18.006666667     5.250388581   0   0   0 # sty
    991      1   2 -1.050000     1.666940000    16.835330000    10.141159764   0   0   0 # oby
    992      1   2 -1.050000     2.174563113    20.436663333    11.991843561   0   0   0 # oby
    993      1   2 -1.050000     3.523490739    18.635996667    10.626887151   0   0   0 # oby
    994      1   2 -1.050000    24.269544670    20.978670000    11.265477151   0   0   0 # oby
    995      1   2 -1.050000     1.068492788    17.377336667    12.630433561   0   0   0 # oby
    996      1   2 -1.050000    23.761921557    19.178003333    13.116160948   0   0   0 # oby
    997      1   3  2.100000     1.180315677    16.206000000    11.546936487   0   0   0 # sty
    998      1   3  2.100000    23.275297234    19.807333333    11.710384225   0   0   0 # sty
    999      1   3  2.100000     2.549364547    18.006666667     9.502569764   0   0   0 # sty
   1000      1   2 -1.050000    23.761921557    16.835330000    14.393340948   0   0   0 # oby
   1001      1   2 -1.050000    24.269544670    20.436663333    16.244024744   0   0   0 # oby
   1002      1   2 -1.050000     1.068492788    18.635996667    14.879068334   0   0   0 # oby
   1003      1   2 -1.050000    21.814546719    20.978670000    15.517658334   0   0   0 # oby
   1004      1   2 -1.050000    23.163474345    17.377336667    16.882614744   0   0   0 # oby
   1005      1   2 -1.050000    21.306923606    19.178003333    17.368342131   0   0   0 # oby
   1006      1   3  2.100000    23.275297234    16.206000000    15.799117670   0   0   0 # sty
   1007      1   3  2.100000    20.820299283    19.807333333    15.962565409   0   0   0 # sty
   1008      1   3  2.100000    49.194366596    18.006666667    13.754750948  -1   0   0 # sty
   1009      1   2 -1.050000    21.306923606    16.835330000    18.645522131   0   0   0 # oby
   1010      1   2 -1.050000    21.814546719    20.436663333    20.496205927   0   0   0 # oby
   1011      1   2 -1.050000    23.163474345    18.635996667    19.131249517   0   0   0 # oby
   1012      1   2 -1.050000    19.359548768    20.978670000    19.769839517   0   0   0 # oby
   1013      1   2 -1.050000    20.708476394    17.377336667    21.134795927   0   0   0 # oby
   1014      1   2 -1.050000    18.851925655    19.178003333    21.620523314   0   0   0 # oby
   1015      1   3  2.100000    20.820299283    16.206000000    20.051298853   0   0   0 # sty
   1016      1   3  2.100000    18.365301332    19.807333333    20.214746592   0   0   0 # sty
   1017      1   3  2.100000    22.189348153    18.006666667    18.006932131   0   0   0 # sty
   1018      1   2 -1.050000    18.851925655    16.835330000    22.897703314   0   0   0 # oby
   1019      1   2 -1.050000    19.359548768    20.436663333    24.748387110   0   0   0 # oby
   1020      1   2 -1.050000    20.708476394    18.635996667    23.383430700   0   0   0 # oby
   1021      1   2 -1.050000    16.904550818    20.978670000    24.022020700   0   0   0 # oby
   1022      1   2 -1.050000    18.253478443    17.377336667    25.386977110   0   0   0 # oby
   1023      1   2 -1.050000    16.396927704    19.178003333    25.872704497   0   0   0 # oby
   1024      1   3  2.100000    18.365301332    16.206000000    24.303480036   0   0   0 # sty
   1025      1   3  2.100000    15.910303382    19.807333333    24.466927775   0   0   0 # sty
   1026      1   3  2.100000    19.734350202    18.006666667    22.259113314   0   0   0 # sty
   1027      1   1 -0.950000    11.486931803    16.835330000     1.636797398   0   0   0 # ohy
   1028      1   2 -1.050000    11.994554916    20.436663333     3.487481195   0   0   0 # oby
   1029      1   1 -0.950000    13.343482542    18.635996667     2.122524785   0   0   0 # ohy
   1030      1   2 -1.050000     9.539556966    20.978670000     2.761114785   0   0   0 # oby
   1031      1   2 -1.050000    10.888484591    17.377336667     4.126071195   0   0   0 # oby
   1032      1   2 -1.050000     9.031933852    19.178003333     4.611798581   0   0   0 # oby
   1033      1   3  2.100000    11.000307480    16.206000000     3.042574120   0   0   0 # sty
   1034      1   3  2.100000     8.545309530    19.807333333     3.206021859   0   0   0 # sty
   1035      1   3  2.100000    22.189348153    18.006666667    26.511294497   0   0   0 # sty
   1036      1   2 -1.050000     9.031933852    16.835330000     5.888978581   0   0   0 # oby
   1037      1   2 -1.050000     9.539556966    20.436663333     7.739662378   0   0   0 # oby
   1038      1   2 -1.050000    10.888484591    18.635996667     6.374705968   0   0   0 # oby
   1039      1   2 -1.050000     7.084559015    20.978670000     7.013295968   0   0   0 # oby
   1040      1   2 -1.050000     8.433486640    17.377336667     8.378252378   0   0   0 # oby
   1041      1   2 -1.050000     6.576935901    19.178003333     8.863979764   0   0   0 # oby
   1042      1   3  2.100000     8.545309530    16.206000000     7.294755303   0   0   0 # sty
   1043      1   3  2.100000     6.090311579    19.807333333     7.458203042   0   0   0 # sty
   1044      1   3  2.100000     9.914358399    18.006666667     5.250388581   0   0   0 # sty
   1045      1   2 -1.050000     6.576935901    16.835330000    10.141159764   0   0   0 # oby
   1046      1   2 -1.050000     7.084559015    20.436663333    11.991843561   0   0   0 # oby
   1047      1   2 -1.050000     8.433486640    18.635996667    10.626887151   0   0   0 # oby
   1048      1   2 -1.050000     4.629561064    20.978670000    11.265477151   0   0   0 # oby
   1049      1   2 -1.050000     5.978488690    17.377336667    12.630433561   0   0   0 # oby
   1050      1   2 -1.050000     4.121937951    19.178003333    13.116160948   0   0   0 # oby
   1051      1   3  2.100000     6.090311579    16.206000000    11.546936487   0   0   0 # sty
   1052      1   3  2.100000     3.635313628    19.807333333    11.710384225   0   0   0 # sty
   1053      1   3  2.100000     7.459360448    18.006666667     9.502569764   0   0   0 # sty
   1054      1   2 -1.050000     4.121937951    16.835330000    14.393340948   0   0   0 # oby
   1055      1   2 -1.050000     4.629561064    20.436663333    16.244024744   0   0   0 # oby
   1056      1   2 -1.050000     5.978488690    18.635996667    14.879068334   0   0   0 # oby
   1057      1   2 -1.050000     2.174563113    20.978670000    15.517658334   0   0   0 # oby
   1058      1   2 -1.050000     3.523490739    17.377336667    16.882614744   0   0   0 # oby
   1059      1   2 -1.050000     1.666940000    19.178003333    17.368342131   0   0   0 # oby
   1060      1   3  2.100000     3.635313628    16.206000000    15.799117670   0   0   0 # sty
   1061      1   3  2.100000     1.180315677    19.807333333    15.962565409   0   0   0 # sty
   1062      1   3  2.100000     5.004362497    18.006666667    13.754750948   0   0   0 # sty
   1063      1   2 -1.050000     1.666940000    16.835330000    18.645522131   0   0   0 # oby
   1064      1   2 -1.050000     2.174563113    20.436663333    20.496205927   0   0   0 # oby
   1065      1   2 -1.050000     3.523490739    18.635996667    19.131249517   0   0   0 # oby
   1066      1   2 -1.050000    24.269544670    20.978670000    19.769839517   0   0   0 # oby
   1067      1   2 -1.050000     1.068492788    17.377336667    21.134795927   0   0   0 # oby
   1068      1   2 -1.050000    23.761921557    19.178003333    21.620523314   0   0   0 # oby
   1069      1   3  2.100000     1.180315677    16.206000000    20.051298853   0   0   0 # sty
   1070      1   3  2.100000    23.275297234    19.807333333    20.214746592   0   0   0 # sty
   1071      1   3  2.100000     2.549364547    18.006666667    18.006932131   0   0   0 # sty
   1072      1   2 -1.050000    23.761921557    16.835330000    22.897703314   0   0   0 # oby
   1073      1   2 -1.050000    24.269544670    20.436663333    24.748387110   0   0   0 # oby
   1074      1   2 -1.050000     1.068492788    18.635996667    23.383430700   0   0   0 # oby
   1075      1   2 -1.050000    21.814546719    20.978670000    24.022020700   0   0   0 # oby
   1076      1   2 -1.050000    23.163474345    17.377336667    25.386977110   0   0   0 # oby
   1077      1   2 -1.050000    21.306923606    19.178003333    25.872704497   0   0   0 # oby
   1078      1   3  2.100000    23.275297234    16.206000000    24.303480036   0   0   0 # sty
   1079      1   3  2.100000    20.820299283    19.807333333    24.466927775   0   0   0 # sty
   1080      1   3  2.100000    49.194366596    18.006666667    22.259113314  -1   0   0 # sty
   1081      1   1 -0.950000    16.396927704    22.237330000     1.636797398   0   0   0 # ohy
   1082      1   2 -1.050000    16.904550818    25.838663333     3.487481195   0   0   0 # oby
   1083      1   1 -0.950000    18.253478443    24.037996667     2.122524785   0   0   0 # ohy
   1084      1   2 -1.050000    14.449552867    26.380670000     2.761114785   0   0   0 # oby
   1085      1   2 -1.050000    15.798480493    22.779336667     4.126071195   0   0   0 # oby
   1086      1   2 -1.050000    13.941929754    24.580003333     4.611798581   0   0   0 # oby
   1087      1   3  2.100000    15.910303382    21.608000000     3.042574120   0   0   0 # sty
   1088      1   3  2.100000    13.455305431    25.209333333     3.206021859   0   0   0 # sty
   1089      1   3  2.100000     2.549364547    23.408666667    26.511294497   0   0   0 # sty
   1090      1   2 -1.050000    13.941929754    22.237330000     5.888978581   0   0   0 # oby
   1091      1   2 -1.050000    14.449552867    25.838663333     7.739662378   0   0   0 # oby
   1092      1   2 -1.050000    15.798480493    24.037996667     6.374705968   0   0   0 # oby
   1093      1   2 -1.050000    11.994554916    26.380670000     7.013295968   0   0   0 # oby
   1094      1   2 -1.050000    13.343482542    22.779336667     8.378252378   0   0   0 # oby
   1095      1   2 -1.050000    11.486931803    24.580003333     8.863979764   0   0   0 # oby
   1096      1   3  2.100000    13.455305431    21.608000000     7.294755303   0   0   0 # sty
   1097      1   3  2.100000    11.000307480    25.209333333     7.458203042   0   0   0 # sty
   1098      1   3  2.100000    14.824354300    23.408666667     5.250388581   0   0   0 # sty
   1099      1   2 -1.050000    11.486931803    22.237330000    10.141159764   0   0   0 # oby
   1100      1   2 -1.050000    11.994554916    25.838663333    11.991843561   0   0   0 # oby
   1101      1   2 -1.050000    13.343482542    24.037996667    10.626887151   0   0   0 # oby
   1102      1   2 -1.050000     9.539556966    26.380670000    11.265477151   0   0   0 # oby
   1103      1   2 -1.050000    10.888484591    22.779336667    12.630433561   0   0   0 # oby
   1104      1   2 -1.050000     9.031933852    24.580003333    13.116160948   0   0   0 # oby
   1105      1   3  2.100000    11.000307480    21.608000000    11.546936487   0   0   0 # sty
   1106      1   3  2.100000     8.545309530    25.209333333    11.710384225   0   0   0 # sty
   1107      1   3  2.100000    12.369356350    23.408666667     9.502569764   0   0   0 # sty
   1108      1   2 -1.050000     9.031933852    22.237330000    14.393340948   0   0   0 # oby
   1109      1   2 -1.050000     9.539556966    25.838663333    16.244024744   0   0   0 # oby
   1110      1   2 -1.050000    10.888484591    24.037996667    14.879068334   0   0   0 # oby
   1111      1   2 -1.050000     7.084559015    26.380670000    15.517658334   0   0   0 # oby
   1112      1   2 -1.050000     8.433486640    22.779336667    16.882614744   0   0   0 # oby
   1113      1   2 -1.050000     6.576935901    24.580003333    17.368342131   0   0   0 # oby
   1114      1   3  2.100000     8.545309530    21.608000000    15.799117670   0   0   0 # sty
   1115      1   3  2.100000     6.090311579    25.209333333    15.962565409   0   0   0 # sty
   1116      1   3  2.100000     9.914358399    23.408666667    13.754750948   0   0   0 # sty
   1117      1   2 -1.050000     6.576935901    22.237330000    18.645522131   0   0   0 # oby
   1118      1   2 -1.050000     7.084559015    25.838663333    20.496205927   0   0   0 # oby
   1119      1   2 -1.050000     8.433486640    24.037996667    19.131249517   0   0   0 # oby
   1120      1   2 -1.050000     4.629561064    26.380670000    19.769839517   0   0   0 # oby
   1121      1   2 -1.050000     5.978488690    22.779336667    21.134795927   0   0   0 # oby
   1122      1   2 -1.050000     4.121937951    24.580003333    21.620523314   0   0   0 # oby
   1123      1   3  2.100000     6.090311579    21.608000000    20.051298853   0   0   0 # sty
   1124      1   3  2.100000     3.635313628    25.209333333    20.214746592   0   0   0 # sty
   1125      1   3  2.100000     7.459360448    23.408666667    18.006932131   0   0   0 # sty
   1126      1   2 -1.050000     4.121937951    22.237330000    22.897703314   0   0   0 # oby
   1127      1   2 -1.050000     4.629561064    25.838663333    24.748387110   0   0   0 # oby
   1128      1   2 -1.050000     5.978488690    24.037996667    23.383430700   0   0   0 # oby
   1129      1   2 -1.050000     2.174563113    26.380670000    24.022020700   0   0   0 # oby
   1130      1   2 -1.050000     3.523490739    22.779336667    25.386977110   0   0   0 # oby
   1131      1   2 -1.050000     1.666940000    24.580003333    25.872704497   0   0   0 # oby
   1132      1   3  2.100000     3.635313628    21.608000000    24.303480036   0   0   0 # sty
   1133      1   3  2.100000     1.180315677    25.209333333    24.466927775   0   0   0 # sty
   1134      1   3  2.100000     5.004362497    23.408666667    22.259113314   0   0   0 # sty
   1135      1   1 -0.950000    21.306923606    22.237330000     1.636797398   0   0   0 # ohy
   1136      1   2 -1.050000    21.814546719    25.838663333     3.487481195   0   0   0 # oby
   1137      1   1 -0.950000    23.163474345    24.037996667     2.122524785   0   0   0 # ohy
   1138      1   2 -1.050000    19.359548768    26.380670000     2.761114785   0   0   0 # oby
   1139      1   2 -1.050000    20.708476394    22.779336667     4.126071195   0   0   0 # oby
   1140      1   2 -1.050000    18.851925655    24.580003333     4.611798581   0   0   0 # oby
   1141      1   3  2.100000    20.820299283    21.608000000     3.042574120   0   0   0 # sty
   1142      1   3  2.100000    18.365301332    25.209333333     3.206021859   0   0   0 # sty
   1143      1   3  2.100000     7.459360448    23.408666667    26.511294497   0   0   0 # sty
   1144      1   2 -1.050000    18.851925655    22.237330000     5.888978581   0   0   0 # oby
   1145      1   2 -1.050000    19.359548768    25.838663333     7.739662378   0   0   0 # oby
   1146      1   2 -1.050000    20.708476394    24.037996667     6.374705968   0   0   0 # oby
   1147      1   2 -1.050000    16.904550818    26.380670000     7.013295968   0   0   0 # oby
   1148      1   2 -1.050000    18.253478443    22.779336667     8.378252378   0   0   0 # oby
   1149      1   2 -1.050000    16.396927704    24.580003333     8.863979764   0   0   0 # oby
   1150      1   3  2.100000    18.365301332    21.608000000     7.294755303   0   0   0 # sty
   1151      1   3  2.100000    15.910303382    25.209333333     7.458203042   0   0   0 # sty
   1152      1   3  2.100000    19.734350202    23.408666667     5.250388581   0   0   0 # sty
   1153      1   2 -1.050000    16.396927704    22.237330000    10.141159764   0   0   0 # oby
   1154      1   2 -1.050000    16.904550818    25.838663333    11.991843561   0   0   0 # oby
   1155      1   2 -1.050000    18.253478443    24.037996667    10.626887151   0   0   0 # oby
   1156      1   2 -1.050000    14.449552867    26.380670000    11.265477151   0   0   0 # oby
   1157      1   2 -1.050000    15.798480493    22.779336667    12.630433561   0   0   0 # oby
   1158      1   2 -1.050000    13.941929754    24.580003333    13.116160948   0   0   0 # oby
   1159      1   3  2.100000    15.910303382    21.608000000    11.546936487   0   0   0 # sty
   1160      1   3  2.100000    13.455305431    25.209333333    11.710384225   0   0   0 # sty
   1161      1   3  2.100000    17.279352251    23.408666667     9.502569764   0   0   0 # sty
   1162      1   2 -1.050000    13.941929754    22.237330000    14.393340948   0   0   0 # oby
   1163      1   2 -1.050000    14.449552867    25.838663333    16.244024744   0   0   0 # oby
   1164      1   2 -1.050000    15.798480493    24.037996667    14.879068334   0   0   0 # oby
   1165      1   2 -1.050000    11.994554916    26.380670000    15.517658334   0   0   0 # oby
   1166      1   2 -1.050000    13.343482542    22.779336667    16.882614744   0   0   0 # oby
   1167      1   2 -1.050000    11.486931803    24.580003333    17.368342131   0   0   0 # oby
   1168      1   3  2.100000    13.455305431    21.608000000    15.799117670   0   0   0 # sty
   1169      1   3  2.100000    11.000307480    25.209333333    15.962565409   0   0   0 # sty
   1170      1   3  2.100000    14.824354300    23.408666667    13.754750948   0   0   0 # sty
   1171      1   2 -1.050000    11.486931803    22.237330000    18.645522131   0   0   0 # oby
   1172      1   2 -1.050000    11.994554916    25.838663333    20.496205927   0   0   0 # oby
   1173      1   2 -1.050000    13.343482542    24.037996667    19.131249517   0   0   0 # oby
   1174      1   2 -1.050000     9.539556966    26.380670000    19.769839517   0   0   0 # oby
   1175      1   2 -1.050000    10.888484591    22.779336667    21.134795927   0   0   0 # oby
   1176      1   2 -1.050000     9.031933852    24.580003333    21.620523314   0   0   0 # oby
   1177      1   3  2.100000    11.000307480    21.608000000    20.051298853   0   0   0 # sty
   1178      1   3  2.100000     8.545309530    25.209333333    20.214746592   0   0   0 # sty
   1179      1   3  2.100000    12.369356350    23.408666667    18.006932131   0   0   0 # sty
   1180      1   2 -1.050000     9.031933852    22.237330000    22.897703314   0   0   0 # oby
   1181      1   2 -1.050000     9.539556966    25.838663333    24.748387110   0   0   0 # oby
   1182      1   2 -1.050000    10.888484591    24.037996667    23.383430700   0   0   0 # oby
   1183      1   2 -1.050000     7.084559015    26.380670000    24.022020700   0   0   0 # oby
   1184      1   2 -1.050000     8.433486640    22.779336667    25.386977110   0   0   0 # oby
   1185      1   2 -1.050000     6.576935901    24.580003333    25.872704497   0   0   0 # oby
   1186      1   3  2.100000     8.545309530    21.608000000    24.303480036   0   0   0 # sty
   1187      1   3  2.100000     6.090311579    25.209333333    24.466927775   0   0   0 # sty
   1188      1   3  2.100000     9.914358399    23.408666667    22.259113314   0   0   0 # sty
   1189      1   1 -0.950000     1.666940000    22.237330000     1.636797398   0   0   0 # ohy
   1190      1   2 -1.050000     2.174563113    25.838663333     3.487481195   0   0   0 # oby
   1191      1   1 -0.950000     3.523490739    24.037996667     2.122524785   0   0   0 # ohy
   1192      1   2 -1.050000    24.269544670    26.380670000     2.761114785   0   0   0 # oby
   1193      1   2 -1.050000     1.068492788    22.779336667     4.126071195   0   0   0 # oby
   1194      1   2 -1.050000    23.761921557    24.580003333     4.611798581   0   0   0 # oby
   1195      1   3  2.100000     1.180315677    21.608000000     3.042574120   0   0   0 # sty
   1196      1   3  2.100000    23.275297234    25.209333333     3.206021859   0   0   0 # sty
   1197      1   3  2.100000    12.369356350    23.408666667    26.511294497   0   0   0 # sty
   1198      1   2 -1.050000    23.761921557    22.237330000     5.888978581   0   0   0 # oby
   1199      1   2 -1.050000    24.269544670    25.838663333     7.739662378   0   0   0 # oby
   1200      1   2 -1.050000     1.068492788    24.037996667     6.374705968   0   0   0 # oby
   1201      1   2 -1.050000    21.814546719    26.380670000     7.013295968   0   0   0 # oby
   1202      1   2 -1.050000    23.163474345    22.779336667     8.378252378   0   0   0 # oby
   1203      1   2 -1.050000    21.306923606    24.580003333     8.863979764   0   0   0 # oby
   1204      1   3  2.100000    23.275297234    21.608000000     7.294755303   0   0   0 # sty
   1205      1   3  2.100000    20.820299283    25.209333333     7.458203042   0   0   0 # sty
   1206      1   3  2.100000    49.194366596    23.408666667     5.250388581  -1   0   0 # sty
   1207      1   2 -1.050000    21.306923606    22.237330000    10.141159764   0   0   0 # oby
   1208      1   2 -1.050000    21.814546719    25.838663333    11.991843561   0   0   0 # oby
   1209      1   2 -1.050000    23.163474345    24.037996667    10.626887151   0   0   0 # oby
   1210      1   2 -1.050000    19.359548768    26.380670000    11.265477151   0   0   0 # oby
   1211      1   2 -1.050000    20.708476394    22.779336667    12.630433561   0   0   0 # oby
   1212      1   2 -1.050000    18.851925655    24.580003333    13.116160948   0   0   0 # oby
   1213      1   3  2.100000    20.820299283    21.608000000    11.546936487   0   0   0 # sty
   1214      1   3  2.100000    18.365301332    25.209333333    11.710384225   0   0   0 # sty
   1215      1   3  2.100000    22.189348153    23.408666667     9.502569764   0   0   0 # sty
   1216      1   2 -1.050000    18.851925655    22.237330000    14.393340948   0   0   0 # oby
   1217      1   2 -1.050000    19.359548768    25.838663333    16.244024744   0   0   0 # oby
   1218      1   2 -1.050000    20.708476394    24.037996667    14.879068334   0   0   0 # oby
   1219      1   2 -1.050000    16.904550818    26.380670000    15.517658334   0   0   0 # oby
   1220      1   2 -1.050000    18.253478443    22.779336667    16.882614744   0   0   0 # oby
   1221      1   2 -1.050000    16.396927704    24.580003333    17.368342131   0   0   0 # oby
   1222      1   3  2.100000    18.365301332    21.608000000    15.799117670   0   0   0 # sty
   1223      1   3  2.100000    15.910303382    25.209333333    15.962565409   0   0   0 # sty
   1224      1   3  2.100000    19.734350202    23.408666667    13.754750948   0   0   0 # sty
   1225      1   2 -1.050000    16.396927704    22.237330000    18.645522131   0   0   0 # oby
   1226      1   2 -1.050000    16.904550818    25.838663333    20.496205927   0   0   0 # oby
   1227      1   2 -1.050000    18.253478443    24.037996667    19.131249517   0   0   0 # oby
   1228      1   2 -1.050000    14.449552867    26.380670000    19.769839517   0   0   0 # oby
   1229      1   2 -1.050000    15.798480493    22.779336667    21.134795927   0   0   0 # oby
   1230      1   2 -1.050000    13.941929754    24.580003333    21.620523314   0   0   0 # oby
   1231      1   3  2.100000    15.910303382    21.608000000    20.051298853   0   0   0 # sty
   1232      1   3  2.100000    13.455305431    25.209333333    20.214746592   0   0   0 # sty
   1233      1   3  2.100000    17.279352251    23.408666667    18.006932131   0   0   0 # sty
   1234      1   2 -1.050000    13.941929754    22.237330000    22.897703314   0   0   0 # oby
   1235      1   2 -1.050000    14.449552867    25.838663333    24.748387110   0   0   0 # oby
   1236      1   2 -1.050000    15.798480493    24.037996667    23.383430700   0   0   0 # oby
   1237      1   2 -1.050000    11.994554916    26.380670000    24.022020700   0   0   0 # oby
   1238      1   2 -1.050000    13.343482542    22.779336667    25.386977110   0   0   0 # oby
   1239      1   2 -1.050000    11.486931803    24.580003333    25.872704497   0   0   0 # oby
   1240      1   3  2.100000    13.455305431    21.608000000    24.303480036   0   0   0 # sty
   1241      1   3  2.100000    11.000307480    25.209333333    24.466927775   0   0   0 # sty
   1242      1   3  2.100000    14.824354300    23.408666667    22.259113314   0   0   0 # sty
   1243      1   1 -0.950000     6.576935901    22.237330000     1.636797398   0   0   0 # ohy
   1244      1   2 -1.050000     7.084559015    25.838663333     3.487481195   0   0   0 # oby
   1245      1   1 -0.950000     8.433486640    24.037996667     2.122524785   0   0   0 # ohy
   1246      1   2 -1.050000     4.629561064    26.380670000     2.761114785   0   0   0 # oby
   1247      1   2 -1.050000     5.978488690    22.779336667     4.126071195   0   0   0 # oby
   1248      1   2 -1.050000     4.121937951    24.580003333     4.611798581   0   0   0 # oby
   1249      1   3  2.100000     6.090311579    21.608000000     3.042574120   0   0   0 # sty
   1250      1   3  2.100000     3.635313628    25.209333333     3.206021859   0   0   0 # sty
   1251      1   3  2.100000    17.279352251    23.408666667    26.511294497   0   0   0 # sty
   1252      1   2 -1.050000     4.121937951    22.237330000     5.888978581   0   0   0 # oby
   1253      1   2 -1.050000     4.629561064    25.838663333     7.739662378   0   0   0 # oby
   1254      1   2 -1.050000     5.978488690    24.037996667     6.374705968   0   0   0 # oby
   1255      1   2 -1.050000     2.174563113    26.380670000     7.013295968   0   0   0 # oby
   1256      1   2 -1.050000     3.523490739    22.779336667     8.378252378   0   0   0 # oby
   1257      1   2 -1.050000     1.666940000    24.580003333     8.863979764   0   0   0 # oby
   1258      1   3  2.100000     3.635313628    21.608000000     7.294755303   0   0   0 # sty
   1259      1   3  2.100000     1.180315677    25.209333333     7.458203042   0   0   0 # sty
   1260      1   3  2.100000     5.004362497    23.408666667     5.250388581   0   0   0 # sty
   1261      1   2 -1.050000     1.666940000    22.237330000    10.141159764   0   0   0 # oby
   1262      1   2 -1.050000     2.174563113    25.838663333    11.991843561   0   0   0 # oby
   1263      1   2 -1.050000     3.523490739    24.037996667    10.626887151   0   0   0 # oby
   1264      1   2 -1.050000    24.269544670    26.380670000    11.265477151   0   0   0 # oby
   1265      1   2 -1.050000     1.068492788    22.779336667    12.630433561   0   0   0 # oby
   1266      1   2 -1.050000    23.761921557    24.580003333    13.116160948   0   0   0 # oby
   1267      1   3  2.100000     1.180315677    21.608000000    11.546936487   0   0   0 # sty
   1268      1   3  2.100000    23.275297234    25.209333333    11.710384225   0   0   0 # sty
   1269      1   3  2.100000     2.549364547    23.408666667     9.502569764   0   0   0 # sty
   1270      1   2 -1.050000    23.761921557    22.237330000    14.393340948   0   0   0 # oby
   1271      1   2 -1.050000    24.269544670    25.838663333    16.244024744   0   0   0 # oby
   1272      1   2 -1.050000     1.068492788    24.037996667    14.879068334   0   0   0 # oby
   1273      1   2 -1.050000    21.814546719    26.380670000    15.517658334   0   0   0 # oby
   1274      1   2 -1.050000    23.163474345    22.779336667    16.882614744   0   0   0 # oby
   1275      1   2 -1.050000    21.306923606    24.580003333    17.368342131   0   0   0 # oby
   1276      1   3  2.100000    23.275297234    21.608000000    15.799117670   0   0   0 # sty
   1277      1   3  2.100000    20.820299283    25.209333333    15.962565409   0   0   0 # sty
   1278      1   3  2.100000    49.194366596    23.408666667    13.754750948  -1   0   0 # sty
   1279      1   2 -1.050000    21.306923606    22.237330000    18.645522131   0   0   0 # oby
   1280      1   2 -1.050000    21.814546719    25.838663333    20.496205927   0   0   0 # oby
   1281      1   2 -1.050000    23.163474345    24.037996667    19.131249517   0   0   0 # oby
   1282      1   2 -1.050000    19.359548768    26.380670000    19.769839517   0   0   0 # oby
   1283      1   2 -1.050000    20.708476394    22.779336667    21.134795927   0   0   0 # oby
   1284      1   2 -1.050000    18.851925655    24.580003333    21.620523314   0   0   0 # oby
   1285      1   3  2.100000    20.820299283    21.608000000    20.051298853   0   0   0 # sty
   1286      1   3  2.100000    18.365301332    25.209333333    20.214746592   0   0   0 # sty
   1287      1   3  2.100000    22.189348153    23.408666667    18.006932131   0   0   0 # sty
   1288      1   2 -1.050000    18.851925655    22.237330000    22.897703314   0   0   0 # oby
   1289      1   2 -1.050000    19.359548768    25.838663333    24.748387110   0   0   0 # oby
   1290      1   2 -1.050000    20.708476394    24.037996667    23.383430700   0   0   0 # oby
   1291      1   2 -1.050000    16.904550818    26.380670000    24.022020700   0   0   0 # oby
   1292      1   2 -1.050000    18.253478443    22.779336667    25.386977110   0   0   0 # oby
   1293      1   2 -1.050000    16.396927704    24.580003333    25.872704497   0   0   0 # oby
   1294      1   3  2.100000    18.365301332    21.608000000    24.303480036   0   0   0 # sty
   1295      1   3  2.100000    15.910303382    25.209333333    24.466927775   0   0   0 # sty
   1296      1   3  2.100000    19.734350202    23.408666667    22.259113314   0   0   0 # sty
   1297      1   1 -0.950000    11.486931803    22.237330000     1.636797398   0   0   0 # ohy
   1298      1   2 -1.050000    11.994554916    25.838663333     3.487481195   0   0   0 # oby
   1299      1   1 -0.950000    13.343482542    24.037996667     2.122524785   0   0   0 # ohy
   1300      1   2 -1.050000     9.539556966    26.380670000     2.761114785   0   0   0 # oby
   1301      1   2 -1.050000    10.888484591    22.779336667     4.126071195   0   0   0 # oby
   1302      1   2 -1.050000     9.031933852    24.580003333     4.611798581   0   0   0 # oby
   1303      1   3  2.100000    11.000307480    21.608000000     3.042574120   0   0   0 # sty
   1304      1   3  2.100000     8.545309530    25.209333333     3.206021859   0   0   0 # sty
   1305      1   3  2.100000    22.189348153    23.408666667    26.511294497   0   0   0 # sty
   1306      1   2 -1.050000     9.031933852    22.237330000     5.888978581   0   0   0 # oby
   1307      1   2 -1.050000     9.539556966    25.838663333     7.739662378   0   0   0 # oby
   1308      1   2 -1.050000    10.888484591    24.037996667     6.374705968   0   0   0 # oby
   1309      1   2 -1.050000     7.084559015    26.380670000     7.013295968   0   0   0 # oby
   1310      1   2 -1.050000     8.433486640    22.779336667     8.378252378   0   0   0 # oby
   1311      1   2 -1.050000     6.576935901    24.580003333     8.863979764   0   0   0 # oby
   1312      1   3  2.100000     8.545309530    21.608000000     7.294755303   0   0   0 # sty
   1313      1   3  2.100000     6.090311579    25.209333333     7.458203042   0   0   0 # sty
   1314      1   3  2.100000     9.914358399    23.408666667     5.250388581   0   0   0 # sty
   1315      1   2 -1.050000     6.576935901    22.237330000    10.141159764   0   0   0 # oby
   1316      1   2 -1.050000     7.084559015    25.838663333    11.991843561   0   0   0 # oby
   1317      1   2 -1.050000     8.433486640    24.037996667    10.626887151   0   0   0 # oby
   1318      1   2 -1.050000     4.629561064    26.380670000    11.265477151   0   0   0 # oby
   1319      1   2 -1.050000     5.978488690    22.779336667    12.630433561   0   0   0 # oby
   1320      1   2 -1.050000     4.121937951    24.580003333    13.116160948   0   0   0 # oby
   1321      1   3  2.100000     6.090311579    21.608000000    11.546936487   0   0   0 # sty
   1322      1   3  2.100000     3.635313628    25.209333333    11.710384225   0   0   0 # sty
   1323      1   3  2.100000     7.459360448    23.408666667     9.502569764   0   0   0 # sty
   1324      1   2 -1.050000     4.121937951    22.237330000    14.393340948   0   0   0 # oby
   1325      1   2 -1.050000     4.629561064    25.838663333    16.244024744   0   0   0 # oby
   1326      1   2 -1.050000     5.978488690    24.037996667    14.879068334   0   0   0 # oby
   1327      1   2 -1.050000     2.174563113    26.380670000    15.517658334   0   0   0 # oby
   1328      1   2 -1.050000     3.523490739    22.779336667    16.882614744   0   0   0 # oby
   1329      1   2 -1.050000     1.666940000    24.580003333    17.368342131   0   0   0 # oby
   1330      1   3  2.100000     3.635313628    21.608000000    15.799117670   0   0   0 # sty
   1331      1   3  2.100000     1.180315677    25.209333333    15.962565409   0   0   0 # sty
   1332      1   3  2.100000     5.004362497    23.408666667    13.754750948   0   0   0 # sty
   1333      1   2 -1.050000     1.666940000    22.237330000    18.645522131   0   0   0 # oby
   1334      1   2 -1.050000     2.174563113    25.838663333    20.496205927   0   0   0 # oby
   1335      1   2 -1.050000     3.523490739    24.037996667    19.131249517   0   0   0 # oby
   1336      1   2 -1.050000    24.269544670    26.380670000    19.769839517   0   0   0 # oby
   1337      1   2 -1.050000     1.068492788    22.779336667    21.134795927   0   0   0 # oby
   1338      1   2 -1.050000    23.761921557    24.580003333    21.620523314   0   0   0 # oby
   1339      1   3  2.100000     1.180315677    21.608000000    20.051298853   0   0   0 # sty
   1340      1   3  2.100000    23.275297234    25.209333333    20.214746592   0   0   0 # sty
   1341      1   3  2.100000     2.549364547    23.408666667    18.006932131   0   0   0 # sty
   1342      1   2 -1.050000    23.761921557    22.237330000    22.897703314   0   0   0 # oby
   1343      1   2 -1.050000    24.269544670    25.838663333    24.748387110   0   0   0 # oby
   1344      1   2 -1.050000     1.068492788    24.037996667    23.383430700   0   0   0 # oby
   1345      1   2 -1.050000    21.814546719    26.380670000    24.022020700   0   0   0 # oby
   1346      1   2 -1.050000    23.163474345    22.779336667    25.386977110   0   0   0 # oby
   1347      1   2 -1.050000    21.306923606    24.580003333    25.872704497   0   0   0 # oby
   1348      1   3  2.100000    23.275297234    21.608000000    24.303480036   0   0   0 # sty
   1349      1   3  2.100000    20.820299283    25.209333333    24.466927775   0   0   0 # sty
   1350      1   3  2.100000    49.194366596    23.408666667    22.259113314  -1   0   0 # sty
   1351      1   4  0.425000    17.153685742     1.418776904     1.827036406   0   0   0 # hoy
   1352      1   4  0.425000    18.794956671     2.726390762     1.200000048   0   0   0 # hoy
   1353      1   4  0.425000    22.063681643     1.418776904     1.827036406   0   0   0 # hoy
   1354      1   4  0.425000    23.704952573     2.726390762     1.200000048   0   0   0 # hoy
   1355      1   4  0.425000     2.423698037     1.418776904     1.827036406   0   0   0 # hoy
   1356      1   4  0.425000     4.064968967     2.726390762     1.200000048   0   0   0 # hoy
   1357      1   4  0.425000     7.333693939     1.418776904     1.827036406   0   0   0 # hoy
   1358      1   4  0.425000     8.974964868     2.726390762     1.200000048   0   0   0 # hoy
   1359      1   4  0.425000    12.243689840     1.418776904     1.827036406   0   0   0 # hoy
   1360      1   4  0.425000    13.884960770     2.726390762     1.200000048   0   0   0 # hoy
   1361      1   4  0.425000    17.153685742     6.820776904     1.827036406   0   0   0 # hoy
   1362      1   4  0.425000    18.794956671     8.128390762     1.200000048   0   0   0 # hoy
   1363      1   4  0.425000    22.063681643     6.820776904     1.827036406   0   0   0 # hoy
   1364      1   4  0.425000    23.704952573     8.128390762     1.200000048   0   0   0 # hoy
   1365      1   4  0.425000     2.423698037     6.820776904     1.827036406   0   0   0 # hoy
   1366      1   4  0.425000     4.064968967     8.128390762     1.200000048   0   0   0 # hoy
   1367      1   4  0.425000     7.333693939     6.820776904     1.827036406   0   0   0 # hoy
   1368      1   4  0.425000     8.974964868     8.128390762     1.200000048   0   0   0 # hoy
   1369      1   4  0.425000    12.243689840     6.820776904     1.827036406   0   0   0 # hoy
   1370      1   4  0.425000    13.884960770     8.128390762     1.200000048   0   0   0 # hoy
   1371      1   4  0.425000    17.153685742    12.222776904     1.827036406   0   0   0 # hoy
   1372      1   4  0.425000    18.794956671    13.530390762     1.200000048   0   0   0 # hoy
   1373      1   4  0.425000    22.063681643    12.222776904     1.827036406   0   0   0 # hoy
   1374      1   4  0.425000    23.704952573    13.530390762     1.200000048   0   0   0 # hoy
   1375      1   4  0.425000     2.423698037    12.222776904     1.827036406   0   0   0 # hoy
   1376      1   4  0.425000     4.064968967    13.530390762     1.200000048   0   0   0 # hoy
   1377      1   4  0.425000     7.333693939    12.222776904     1.827036406   0   0   0 # hoy
   1378      1   4  0.425000     8.974964868    13.530390762     1.200000048   0   0   0 # hoy
   1379      1   4  0.425000    12.243689840    12.222776904     1.827036406   0   0   0 # hoy
   1380      1   4  0.425000    13.884960770    13.530390762     1.200000048   0   0   0 # hoy
   1381      1   4  0.425000    17.153685742    17.624776904     1.827036406   0   0   0 # hoy
   1382      1   4  0.425000    18.794956671    18.932390762     1.200000048   0   0   0 # hoy
   1383      1   4  0.425000    22.063681643    17.624776904     1.827036406   0   0   0 # hoy
   1384      1   4  0.425000    23.704952573    18.932390762     1.200000048   0   0   0 # hoy
   1385      1   4  0.425000     2.423698037    17.624776904     1.827036406   0   0   0 # hoy
   1386      1   4  0.425000     4.064968967    18.932390762     1.200000048   0   0   0 # hoy
   1387      1   4  0.425000     7.333693939    17.624776904     1.827036406   0   0   0 # hoy
   1388      1   4  0.425000     8.974964868    18.932390762     1.200000048   0   0   0 # hoy
   1389      1   4  0.425000    12.243689840    17.624776904     1.827036406   0   0   0 # hoy
   1390      1   4  0.425000    13.884960770    18.932390762     1.200000048   0   0   0 # hoy
   1391      1   4  0.425000    17.153685742    23.026776904     1.827036406   0   0   0 # hoy
   1392      1   4  0.425000    18.794956671    24.334390762     1.200000048   0   0   0 # hoy
   1393      1   4  0.425000    22.063681643    23.026776904     1.827036406   0   0   0 # hoy
   1394      1   4  0.425000    23.704952573    24.334390762     1.200000048   0   0   0 # hoy
   1395      1   4  0.425000     2.423698037    23.026776904     1.827036406   0   0   0 # hoy
   1396      1   4  0.425000     4.064968967    24.334390762     1.200000048   0   0   0 # hoy
   1397      1   4  0.425000     7.333693939    23.026776904     1.827036406   0   0   0 # hoy
   1398      1   4  0.425000     8.974964868    24.334390762     1.200000048   0   0   0 # hoy
   1399      1   4  0.425000    12.243689840    23.026776904     1.827036406   0   0   0 # hoy
   1400      1   4  0.425000    13.884960770    24.334390762     1.200000048   0   0   0 # hoy
   1401      1   1 -0.950000     3.398307639     2.369672611    27.663304796   0   0   0 # ohy
   1402      1   1 -0.950000     1.617769391     0.702248870    27.056462984   0   0   0 # ohy
   1403      1   1 -0.950000     8.308303540     2.369672611    27.663304796   0   0   0 # ohy
   1404      1   1 -0.950000     6.527765293     0.702248870    27.056462984   0   0   0 # ohy
   1405      1   1 -0.950000    13.218299442     2.369672611    27.663304796   0   0   0 # ohy
   1406      1   1 -0.950000    11.437761194     0.702248870    27.056462984   0   0   0 # ohy
   1407      1   1 -0.950000    18.128295343     2.369672611    27.663304796   0   0   0 # ohy
   1408      1   1 -0.950000    16.347757096     0.702248870    27.056462984   0   0   0 # ohy
   1409      1   1 -0.950000    23.038291245     2.369672611    27.663304796   0   0   0 # ohy
   1410      1   1 -0.950000    21.257752997     0.702248870    27.056462984   0   0   0 # ohy
   1411      1   1 -0.950000     3.398307639     7.771672611    27.663304796   0   0   0 # ohy
   1412      1   1 -0.950000     1.617769391     6.104248870    27.056462984   0   0   0 # ohy
   1413      1   1 -0.950000     8.308303540     7.771672611    27.663304796   0   0   0 # ohy
   1414      1   1 -0.950000     6.527765293     6.104248870    27.056462984   0   0   0 # ohy
   1415      1   1 -0.950000    13.218299442     7.771672611    27.663304796   0   0   0 # ohy
   1416      1   1 -0.950000    11.437761194     6.104248870    27.056462984   0   0   0 # ohy
   1417      1   1 -0.950000    18.128295343     7.771672611    27.663304796   0   0   0 # ohy
   1418      1   1 -0.950000    16.347757096     6.104248870    27.056462984   0   0   0 # ohy
   1419      1   1 -0.950000    23.038291245     7.771672611    27.663304796   0   0   0 # ohy
   1420      1   1 -0.950000    21.257752997     6.104248870    27.056462984   0   0   0 # ohy
   1421      1   1 -0.950000     3.398307639    13.173672611    27.663304796   0   0   0 # ohy
   1422      1   1 -0.950000     1.617769391    11.506248870    27.056462984   0   0   0 # ohy
   1423      1   1 -0.950000     8.308303540    13.173672611    27.663304796   0   0   0 # ohy
   1424      1   1 -0.950000     6.527765293    11.506248870    27.056462984   0   0   0 # ohy
   1425      1   1 -0.950000    13.218299442    13.173672611    27.663304796   0   0   0 # ohy
   1426      1   1 -0.950000    11.437761194    11.506248870    27.056462984   0   0   0 # ohy
   1427      1   1 -0.950000    18.128295343    13.173672611    27.663304796   0   0   0 # ohy
   1428      1   1 -0.950000    16.347757096    11.506248870    27.056462984   0   0   0 # ohy
   1429      1   1 -0.950000    23.038291245    13.173672611    27.663304796   0   0   0 # ohy
   1430      1   1 -0.950000    21.257752997    11.506248870    27.056462984   0   0   0 # ohy
   1431      1   1 -0.950000     3.398307639    18.575672611    27.663304796   0   0   0 # ohy
   1432      1   1 -0.950000     1.617769391    16.908248870    27.056462984   0   0   0 # ohy
   1433      1   1 -0.950000     8.308303540    18.575672611    27.663304796   0   0   0 # ohy
   1434      1   1 -0.950000     6.527765293    16.908248870    27.056462984   0   0   0 # ohy
   1435      1   1 -0.950000    13.218299442    18.575672611    27.663304796   0   0   0 # ohy
   1436      1   1 -0.950000    11.437761194    16.908248870    27.056462984   0   0   0 # ohy
   1437      1   1 -0.950000    18.128295343    18.575672611    27.663304796   0   0   0 # ohy
   1438      1   1 -0.950000    16.347757096    16.908248870    27.056462984   0   0   0 # ohy
   1439      1   1 -0.950000    23.038291245    18.575672611    27.663304796   0   0   0 # ohy
   1440      1   1 -0.950000    21.257752997    16.908248870    27.056462984   0   0   0 # ohy
   1441      1   1 -0.950000     3.398307639    23.977672611    27.663304796   0   0   0 # ohy
   1442      1   1 -0.950000     1.617769391    22.310248870    27.056462984   0   0   0 # ohy
   1443      1   1 -0.950000     8.308303540    23.977672611    27.663304796   0   0   0 # ohy
   1444      1   1 -0.950000     6.527765293    22.310248870    27.056462984   0   0   0 # ohy
   1445      1   1 -0.950000    13.218299442    23.977672611    27.663304796   0   0   0 # ohy
   1446      1   1 -0.950000    11.437761194    22.310248870    27.056462984   0   0   0 # ohy
   1447      1   1 -0.950000    18.128295343    23.977672611    27.663304796   0   0   0 # ohy
   1448      1   1 -0.950000    16.347757096    22.310248870    27.056462984   0   0   0 # ohy
   1449      1   1 -0.950000    23.038291245    23.977672611    27.663304796   0   0   0 # ohy
   1450      1   1 -0.950000    21.257752997    22.310248870    27.056462984   0   0   0 # ohy
   1451      1   4  0.425000     4.160468072     3.064575484    27.253034774   0   0   0 # hoy
   1452      1   4  0.425000     1.656680832     0.701079586    28.165780141   0   0   0 # hoy
   1453      1   4  0.425000     9.070463974     3.064575484    27.253034774   0   0   0 # hoy
   1454      1   4  0.425000     6.566676734     0.701079586    28.165780141   0   0   0 # hoy
   1455      1   4  0.425000    13.980459875     3.064575484    27.253034774   0   0   0 # hoy
   1456      1   4  0.425000    11.476672635     0.701079586    28.165780141   0   0   0 # hoy
   1457      1   4  0.425000    18.890455777     3.064575484    27.253034774   0   0   0 # hoy
   1458      1   4  0.425000    16.386668537     0.701079586    28.165780141   0   0   0 # hoy
   1459      1   4  0.425000    23.800451678     3.064575484    27.253034774   0   0   0 # hoy
   1460      1   4  0.425000    21.296664438     0.701079586    28.165780141   0   0   0 # hoy
   1461      1   4  0.425000     4.160468072     8.466575484    27.253034774   0   0   0 # hoy
   1462      1   4  0.425000     1.656680832     6.103079586    28.165780141   0   0   0 # hoy
   1463      1   4  0.425000     9.070463974     8.466575484    27.253034774   0   0   0 # hoy
   1464      1   4  0.425000     6.566676734     6.103079586    28.165780141   0   0   0 # hoy
   1465      1   4  0.425000    13.980459875     8.466575484    27.253034774   0   0   0 # hoy
   1466      1   4  0.425000    11.476672635     6.103079586    28.165780141   0   0   0 # hoy
   1467      1   4  0.425000    18.890455777     8.466575484    27.253034774   0   0   0 # hoy
   1468      1   4  0.425000    16.386668537     6.103079586    28.165780141   0   0   0 # hoy
   1469      1   4  0.425000    23.800451678     8.466575484    27.253034774   0   0   0 # hoy
   1470      1   4  0.425000    21.296664438     6.103079586    28.165780141   0   0   0 # hoy
   1471      1   4  0.425000     4.160468072    13.868575484    27.253034774   0   0   0 # hoy
   1472      1   4  0.425000     1.656680832    11.505079586    28.165780141   0   0   0 # hoy
   1473      1   4  0.425000     9.070463974    13.868575484    27.253034774   0   0   0 # hoy
   1474      1   4  0.425000     6.566676734    11.505079586    28.165780141   0   0   0 # hoy
   1475      1   4  0.425000    13.980459875    13.868575484    27.253034774   0   0   0 # hoy
   1476      1   4  0.425000    11.476672635    11.505079586    28.165780141   0   0   0 # hoy
   1477      1   4  0.425000    18.890455777    13.868575484    27.253034774   0   0   0 # hoy
   1478      1   4  0.425000    16.386668537    11.505079586    28.165780141   0   0   0 # hoy
   1479      1   4  0.425000    23.800451678    13.868575484    27.253034774   0   0   0 # hoy
   1480      1   4  0.425000    21.296664438    11.505079586    28.165780141   0   0   0 # hoy
   1481      1   4  0.425000     4.160468072    19.270575484    27.253034774   0   0   0 # hoy
   1482      1   4  0.425000     1.656680832    16.907079586    28.165780141   0   0   0 # hoy
   1483      1   4  0.425000     9.070463974    19.270575484    27.253034774   0   0   0 # hoy
   1484      1   4  0.425000     6.566676734    16.907079586    28.165780141   0   0   0 # hoy
   1485      1   4  0.425000    13.980459875    19.270575484    27.253034774   0   0   0 # hoy
   1486      1   4  0.425000    11.476672635    16.907079586    28.165780141   0   0   0 # hoy
   1487      1   4  0.425000    18.890455777    19.270575484    27.253034774   0   0   0 # hoy
   1488      1   4  0.425000    16.386668537    16.907079586    28.165780141   0   0   0 # hoy
   1489      1   4  0.425000    23.800451678    19.270575484    27.253034774   0   0   0 # hoy
   1490      1   4  0.425000    21.296664438    16.907079586    28.165780141   0   0   0 # hoy
   1491      1   4  0.425000     4.160468072    24.672575484    27.253034774   0   0   0 # hoy
   1492      1   4  0.425000     1.656680832    22.309079586    28.165780141   0   0   0 # hoy
   1493      1   4  0.425000     9.070463974    24.672575484    27.253034774   0   0   0 # hoy
   1494      1   4  0.425000     6.566676734    22.309079586    28.165780141   0   0   0 # hoy
   1495      1   4  0.425000    13.980459875    24.672575484    27.253034774   0   0   0 # hoy
   1496      1   4  0.425000    11.476672635    22.309079586    28.165780141   0   0   0 # hoy
   1497      1   4  0.425000    18.890455777    24.672575484    27.253034774   0   0   0 # hoy
   1498      1   4  0.425000    16.386668537    22.309079586    28.165780141   0   0   0 # hoy
   1499      1   4  0.425000    23.800451678    24.672575484    27.253034774   0   0   0 # hoy
   1500      1   4  0.425000    21.296664438    22.309079586    28.165780141   0   0   0 # hoy
   1501      1   1 -0.950000    40.946927704     0.629330000     1.636797398   0   0   0 # ohy
   1502      1   2 -1.050000    41.454550818     4.230663333     3.487481195   0   0   0 # oby
   1503      1   1 -0.950000    42.803478443     2.429996667     2.122524785   0   0   0 # ohy
   1504      1   2 -1.050000    38.999552867     4.772670000     2.761114785   0   0   0 # oby
   1505      1   2 -1.050000    40.348480493     1.171336667     4.126071195   0   0   0 # oby
   1506      1   2 -1.050000    38.491929754     2.972003333     4.611798581   0   0   0 # oby
   1507      1   3  2.100000    40.460303382     0.000000000     3.042574120   0   0   0 # sty
   1508      1   3  2.100000    38.005305431     3.601333333     3.206021859   0   0   0 # sty
   1509      1   3  2.100000    27.099364547     1.800666667    26.511294497   0   0   0 # sty
   1510      1   2 -1.050000    38.491929754     0.629330000     5.888978581   0   0   0 # oby
   1511      1   2 -1.050000    38.999552867     4.230663333     7.739662378   0   0   0 # oby
   1512      1   2 -1.050000    40.348480493     2.429996667     6.374705968   0   0   0 # oby
   1513      1   2 -1.050000    36.544554916     4.772670000     7.013295968   0   0   0 # oby
   1514      1   2 -1.050000    37.893482542     1.171336667     8.378252378   0   0   0 # oby
   1515      1   2 -1.050000    36.036931803     2.972003333     8.863979764   0   0   0 # oby
   1516      1   3  2.100000    38.005305431     0.000000000     7.294755303   0   0   0 # sty
   1517      1   3  2.100000    35.550307480     3.601333333     7.458203042   0   0   0 # sty
   1518      1   3  2.100000    39.374354300     1.800666667     5.250388581   0   0   0 # sty
   1519      1   2 -1.050000    36.036931803     0.629330000    10.141159764   0   0   0 # oby
   1520      1   2 -1.050000    36.544554916     4.230663333    11.991843561   0   0   0 # oby
   1521      1   2 -1.050000    37.893482542     2.429996667    10.626887151   0   0   0 # oby
   1522      1   2 -1.050000    34.089556966     4.772670000    11.265477151   0   0   0 # oby
   1523      1   2 -1.050000    35.438484591     1.171336667    12.630433561   0   0   0 # oby
   1524      1   2 -1.050000    33.581933852     2.972003333    13.116160948   0   0   0 # oby
   1525      1   3  2.100000    35.550307480     0.000000000    11.546936487   0   0   0 # sty
   1526      1   3  2.100000    33.095309530     3.601333333    11.710384225   0   0   0 # sty
   1527      1   3  2.100000    36.919356350     1.800666667     9.502569764   0   0   0 # sty
   1528      1   2 -1.050000    33.581933852     0.629330000    14.393340948   0   0   0 # oby
   1529      1   2 -1.050000    34.089556966     4.230663333    16.244024744   0   0   0 # oby
   1530      1   2 -1.050000    35.438484591     2.429996667    14.879068334   0   0   0 # oby
   1531      1   2 -1.050000    31.634559015     4.772670000    15.517658334   0   0   0 # oby
   1532      1   2 -1.050000    32.983486640     1.171336667    16.882614744   0   0   0 # oby
   1533      1   2 -1.050000    31.126935901     2.972003333    17.368342131   0   0   0 # oby
   1534      1   3  2.100000    33.095309530     0.000000000    15.799117670   0   0   0 # sty
   1535      1   3  2.100000    30.640311579     3.601333333    15.962565409   0   0   0 # sty
   1536      1   3  2.100000    34.464358399     1.800666667    13.754750948   0   0   0 # sty
   1537      1   2 -1.050000    31.126935901     0.629330000    18.645522131   0   0   0 # oby
   1538      1   2 -1.050000    31.634559015     4.230663333    20.496205927   0   0   0 # oby
   1539      1   2 -1.050000    32.983486640     2.429996667    19.131249517   0   0   0 # oby
   1540      1   2 -1.050000    29.179561064     4.772670000    19.769839517   0   0   0 # oby
   1541      1   2 -1.050000    30.528488690     1.171336667    21.134795927   0   0   0 # oby
   1542      1   2 -1.050000    28.671937951     2.972003333    21.620523314   0   0   0 # oby
   1543      1   3  2.100000    30.640311579     0.000000000    20.051298853   0   0   0 # sty
   1544      1   3  2.100000    28.185313628     3.601333333    20.214746592   0   0   0 # sty
   1545      1   3  2.100000    32.009360448     1.800666667    18.006932131   0   0   0 # sty
   1546      1   2 -1.050000    28.671937951     0.629330000    22.897703314   0   0   0 # oby
   1547      1   2 -1.050000    29.179561064     4.230663333    24.748387110   0   0   0 # oby
   1548      1   2 -1.050000    30.528488690     2.429996667    23.383430700   0   0   0 # oby
   1549      1   2 -1.050000    26.724563113     4.772670000    24.022020700   0   0   0 # oby
   1550      1   2 -1.050000    28.073490739     1.171336667    25.386977110   0   0   0 # oby
   1551      1   2 -1.050000    26.216940000     2.972003333    25.872704497   0   0   0 # oby
   1552      1   3  2.100000    28.185313628     0.000000000    24.303480036   0   0   0 # sty
   1553      1   3  2.100000    25.730315677     3.601333333    24.466927775   0   0   0 # sty
   1554      1   3  2.100000    29.554362497     1.800666667    22.259113314   0   0   0 # sty
   1555      1   1 -0.950000    45.856923606     0.629330000     1.636797398   0   0   0 # ohy
   1556      1   2 -1.050000    46.364546719     4.230663333     3.487481195   0   0   0 # oby
   1557      1   1 -0.950000    47.713474345     2.429996667     2.122524785   0   0   0 # ohy
   1558      1   2 -1.050000    43.909548768     4.772670000     2.761114785   0   0   0 # oby
   1559      1   2 -1.050000    45.258476394     1.171336667     4.126071195   0   0   0 # oby
   1560      1   2 -1.050000    43.401925655     2.972003333     4.611798581   0   0   0 # oby
   1561      1   3  2.100000    45.370299283     0.000000000     3.042574120   0   0   0 # sty
   1562      1   3  2.100000    42.915301332     3.601333333     3.206021859   0   0   0 # sty
   1563      1   3  2.100000    32.009360448     1.800666667    26.511294497   0   0   0 # sty
   1564      1   2 -1.050000    43.401925655     0.629330000     5.888978581   0   0   0 # oby
   1565      1   2 -1.050000    43.909548768     4.230663333     7.739662378   0   0   0 # oby
   1566      1   2 -1.050000    45.258476394     2.429996667     6.374705968   0   0   0 # oby
   1567      1   2 -1.050000    41.454550818     4.772670000     7.013295968   0   0   0 # oby
   1568      1   2 -1.050000    42.803478443     1.171336667     8.378252378   0   0   0 # oby
   1569      1   2 -1.050000    40.946927704     2.972003333     8.863979764   0   0   0 # oby
   1570      1   3  2.100000    42.915301332     0.000000000     7.294755303   0   0   0 # sty
   1571      1   3  2.100000    40.460303382     3.601333333     7.458203042   0   0   0 # sty
   1572      1   3  2.100000    44.284350202     1.800666667     5.250388581   0   0   0 # sty
   1573      1   2 -1.050000    40.946927704     0.629330000    10.141159764   0   0   0 # oby
   1574      1   2 -1.050000    41.454550818     4.230663333    11.991843561   0   0   0 # oby
   1575      1   2 -1.050000    42.803478443     2.429996667    10.626887151   0   0   0 # oby
   1576      1   2 -1.050000    38.999552867     4.772670000    11.265477151   0   0   0 # oby
   1577      1   2 -1.050000    40.348480493     1.171336667    12.630433561   0   0   0 # oby
   1578      1   2 -1.050000    38.491929754     2.972003333    13.116160948   0   0   0 # oby
   1579      1   3  2.100000    40.460303382     0.000000000    11.546936487   0   0   0 # sty
   1580      1   3  2.100000    38.005305431     3.601333333    11.710384225   0   0   0 # sty
   1581      1   3  2.100000    41.829352251     1.800666667     9.502569764   0   0   0 # sty
   1582      1   2 -1.050000    38.491929754     0.629330000    14.393340948   0   0   0 # oby
   1583      1   2 -1.050000    38.999552867     4.230663333    16.244024744   0   0   0 # oby
   1584      1   2 -1.050000    40.348480493     2.429996667    14.879068334   0   0   0 # oby
   1585      1   2 -1.050000    36.544554916     4.772670000    15.517658334   0   0   0 # oby
   1586      1   2 -1.050000    37.893482542     1.171336667    16.882614744   0   0   0 # oby
   1587      1   2 -1.050000    36.036931803     2.972003333    17.368342131   0   0   0 # oby
   1588      1   3  2.100000    38.005305431     0.000000000    15.799117670   0   0   0 # sty
   1589      1   3  2.100000    35.550307480     3.601333333    15.962565409   0   0   0 # sty
   1590      1   3  2.100000    39.374354300     1.800666667    13.754750948   0   0   0 # sty
   1591      1   2 -1.050000    36.036931803     0.629330000    18.645522131   0   0   0 # oby
   1592      1   2 -1.050000    36.544554916     4.230663333    20.496205927   0   0   0 # oby
   1593      1   2 -1.050000    37.893482542     2.429996667    19.131249517   0   0   0 # oby
   1594      1   2 -1.050000    34.089556966     4.772670000    19.769839517   0   0   0 # oby
   1595      1   2 -1.050000    35.438484591     1.171336667    21.134795927   0   0   0 # oby
   1596      1   2 -1.050000    33.581933852     2.972003333    21.620523314   0   0   0 # oby
   1597      1   3  2.100000    35.550307480     0.000000000    20.051298853   0   0   0 # sty
   1598      1   3  2.100000    33.095309530     3.601333333    20.214746592   0   0   0 # sty
   1599      1   3  2.100000    36.919356350     1.800666667    18.006932131   0   0   0 # sty
   1600      1   2 -1.050000    33.581933852     0.629330000    22.897703314   0   0   0 # oby
   1601      1   2 -1.050000    34.089556966     4.230663333    24.748387110   0   0   0 # oby
   1602      1   2 -1.050000    35.438484591     2.429996667    23.383430700   0   0   0 # oby
   1603      1   2 -1.050000    31.634559015     4.772670000    24.022020700   0   0   0 # oby
   1604      1   2 -1.050000    32.983486640     1.171336667    25.386977110   0   0   0 # oby
   1605      1   2 -1.050000    31.126935901     2.972003333    25.872704497   0   0   0 # oby
   1606      1   3  2.100000    33.095309530     0.000000000    24.303480036   0   0   0 # sty
   1607      1   3  2.100000    30.640311579     3.601333333    24.466927775   0   0   0 # sty
   1608      1   3  2.100000    34.464358399     1.800666667    22.259113314   0   0   0 # sty
   1609      1   1 -0.950000    26.216940000     0.629330000     1.636797398   0   0   0 # ohy
   1610      1   2 -1.050000    26.724563113     4.230663333     3.487481195   0   0   0 # oby
   1611      1   1 -0.950000    28.073490739     2.429996667     2.122524785   0   0   0 # ohy
   1612      1   2 -1.050000    48.819544670     4.772670000     2.761114785   0   0   0 # oby
   1613      1   2 -1.050000    25.618492788     1.171336667     4.126071195   0   0   0 # oby
   1614      1   2 -1.050000    48.311921557     2.972003333     4.611798581   0   0   0 # oby
   1615      1   3  2.100000    25.730315677     0.000000000     3.042574120   0   0   0 # sty
   1616      1   3  2.100000    47.825297234     3.601333333     3.206021859   0   0   0 # sty
   1617      1   3  2.100000    36.919356350     1.800666667    26.511294497   0   0   0 # sty
   1618      1   2 -1.050000    48.311921557     0.629330000     5.888978581   0   0   0 # oby
   1619      1   2 -1.050000    48.819544670     4.230663333     7.739662378   0   0   0 # oby
   1620      1   2 -1.050000    25.618492788     2.429996667     6.374705968   0   0   0 # oby
   1621      1   2 -1.050000    46.364546719     4.772670000     7.013295968   0   0   0 # oby
   1622      1   2 -1.050000    47.713474345     1.171336667     8.378252378   0   0   0 # oby
   1623      1   2 -1.050000    45.856923606     2.972003333     8.863979764   0   0   0 # oby
   1624      1   3  2.100000    47.825297234     0.000000000     7.294755303   0   0   0 # sty
   1625      1   3  2.100000    45.370299283     3.601333333     7.458203042   0   0   0 # sty
   1626      1   3  2.100000    24.644366596     1.800666667     5.250388581   0   0   0 # sty
   1627      1   2 -1.050000    45.856923606     0.629330000    10.141159764   0   0   0 # oby
   1628      1   2 -1.050000    46.364546719     4.230663333    11.991843561   0   0   0 # oby
   1629      1   2 -1.050000    47.713474345     2.429996667    10.626887151   0   0   0 # oby
   1630      1   2 -1.050000    43.909548768     4.772670000    11.265477151   0   0   0 # oby
   1631      1   2 -1.050000    45.258476394     1.171336667    12.630433561   0   0   0 # oby
   1632      1   2 -1.050000    43.401925655     2.972003333    13.116160948   0   0   0 # oby
   1633      1   3  2.100000    45.370299283     0.000000000    11.546936487   0   0   0 # sty
   1634      1   3  2.100000    42.915301332     3.601333333    11.710384225   0   0   0 # sty
   1635      1   3  2.100000    46.739348153     1.800666667     9.502569764   0   0   0 # sty
   1636      1   2 -1.050000    43.401925655     0.629330000    14.393340948   0   0   0 # oby
   1637      1   2 -1.050000    43.909548768     4.230663333    16.244024744   0   0   0 # oby
   1638      1   2 -1.050000    45.258476394     2.429996667    14.879068334   0   0   0 # oby
   1639      1   2 -1.050000    41.454550818     4.772670000    15.517658334   0   0   0 # oby
   1640      1   2 -1.050000    42.803478443     1.171336667    16.882614744   0   0   0 # oby
   1641      1   2 -1.050000    40.946927704     2.972003333    17.368342131   0   0   0 # oby
   1642      1   3  2.100000    42.915301332     0.000000000    15.799117670   0   0   0 # sty
   1643      1   3  2.100000    40.460303382     3.601333333    15.962565409   0   0   0 # sty
   1644      1   3  2.100000    44.284350202     1.800666667    13.754750948   0   0   0 # sty
   1645      1   2 -1.050000    40.946927704     0.629330000    18.645522131   0   0   0 # oby
   1646      1   2 -1.050000    41.454550818     4.230663333    20.496205927   0   0   0 # oby
   1647      1   2 -1.050000    42.803478443     2.429996667    19.131249517   0   0   0 # oby
   1648      1   2 -1.050000    38.999552867     4.772670000    19.769839517   0   0   0 # oby
   1649      1   2 -1.050000    40.348480493     1.171336667    21.134795927   0   0   0 # oby
   1650      1   2 -1.050000    38.491929754     2.972003333    21.620523314   0   0   0 # oby
   1651      1   3  2.100000    40.460303382     0.000000000    20.051298853   0   0   0 # sty
   1652      1   3  2.100000    38.005305431     3.601333333    20.214746592   0   0   0 # sty
   1653      1   3  2.100000    41.829352251     1.800666667    18.006932131   0   0   0 # sty
   1654      1   2 -1.050000    38.491929754     0.629330000    22.897703314   0   0   0 # oby
   1655      1   2 -1.050000    38.999552867     4.230663333    24.748387110   0   0   0 # oby
   1656      1   2 -1.050000    40.348480493     2.429996667    23.383430700   0   0   0 # oby
   1657      1   2 -1.050000    36.544554916     4.772670000    24.022020700   0   0   0 # oby
   1658      1   2 -1.050000    37.893482542     1.171336667    25.386977110   0   0   0 # oby
   1659      1   2 -1.050000    36.036931803     2.972003333    25.872704497   0   0   0 # oby
   1660      1   3  2.100000    38.005305431     0.000000000    24.303480036   0   0   0 # sty
   1661      1   3  2.100000    35.550307480     3.601333333    24.466927775   0   0   0 # sty
   1662      1   3  2.100000    39.374354300     1.800666667    22.259113314   0   0   0 # sty
   1663      1   1 -0.950000    31.126935901     0.629330000     1.636797398   0   0   0 # ohy
   1664      1   2 -1.050000    31.634559015     4.230663333     3.487481195   0   0   0 # oby
   1665      1   1 -0.950000    32.983486640     2.429996667     2.122524785   0   0   0 # ohy
   1666      1   2 -1.050000    29.179561064     4.772670000     2.761114785   0   0   0 # oby
   1667      1   2 -1.050000    30.528488690     1.171336667     4.126071195   0   0   0 # oby
   1668      1   2 -1.050000    28.671937951     2.972003333     4.611798581   0   0   0 # oby
   1669      1   3  2.100000    30.640311579     0.000000000     3.042574120   0   0   0 # sty
   1670      1   3  2.100000    28.185313628     3.601333333     3.206021859   0   0   0 # sty
   1671      1   3  2.100000    41.829352251     1.800666667    26.511294497   0   0   0 # sty
   1672      1   2 -1.050000    28.671937951     0.629330000     5.888978581   0   0   0 # oby
   1673      1   2 -1.050000    29.179561064     4.230663333     7.739662378   0   0   0 # oby
   1674      1   2 -1.050000    30.528488690     2.429996667     6.374705968   0   0   0 # oby
   1675      1   2 -1.050000    26.724563113     4.772670000     7.013295968   0   0   0 # oby
   1676      1   2 -1.050000    28.073490739     1.171336667     8.378252378   0   0   0 # oby
   1677      1   2 -1.050000    26.216940000     2.972003333     8.863979764   0   0   0 # oby
   1678      1   3  2.100000    28.185313628     0.000000000     7.294755303   0   0   0 # sty
   1679      1   3  2.100000    25.730315677     3.601333333     7.458203042   0   0   0 # sty
   1680      1   3  2.100000    29.554362497     1.800666667     5.250388581   0   0   0 # sty
   1681      1   2 -1.050000    26.216940000     0.629330000    10.141159764   0   0   0 # oby
   1682      1   2 -1.050000    26.724563113     4.230663333    11.991843561   0   0   0 # oby
   1683      1   2 -1.050000    28.073490739     2.429996667    10.626887151   0   0   0 # oby
   1684      1   2 -1.050000    48.819544670     4.772670000    11.265477151   0   0   0 # oby
   1685      1   2 -1.050000    25.618492788     1.171336667    12.630433561   0   0   0 # oby
   1686      1   2 -1.050000    48.311921557     2.972003333    13.116160948   0   0   0 # oby
   1687      1   3  2.100000    25.730315677     0.000000000    11.546936487   0   0   0 # sty
   1688      1   3  2.100000    47.825297234     3.601333333    11.710384225   0   0   0 # sty
   1689      1   3  2.100000    27.099364547     1.800666667     9.502569764   0   0   0 # sty
   1690      1   2 -1.050000    48.311921557     0.629330000    14.393340948   0   0   0 # oby
   1691      1   2 -1.050000    48.819544670     4.230663333    16.244024744   0   0   0 # oby
   1692      1   2 -1.050000    25.618492788     2.429996667    14.879068334   0   0   0 # oby
   1693      1   2 -1.050000    46.364546719     4.772670000    15.517658334   0   0   0 # oby
   1694      1   2 -1.050000    47.713474345     1.171336667    16.882614744   0   0   0 # oby
   1695      1   2 -1.050000    45.856923606     2.972003333    17.368342131   0   0   0 # oby
   1696      1   3  2.100000    47.825297234     0.000000000    15.799117670   0   0   0 # sty
   1697      1   3  2.100000    45.370299283     3.601333333    15.962565409   0   0   0 # sty
   1698      1   3  2.100000    24.644366596     1.800666667    13.754750948   0   0   0 # sty
   1699      1   2 -1.050000    45.856923606     0.629330000    18.645522131   0   0   0 # oby
   1700      1   2 -1.050000    46.364546719     4.230663333    20.496205927   0   0   0 # oby
   1701      1   2 -1.050000    47.713474345     2.429996667    19.131249517   0   0   0 # oby
   1702      1   2 -1.050000    43.909548768     4.772670000    19.769839517   0   0   0 # oby
   1703      1   2 -1.050000    45.258476394     1.171336667    21.134795927   0   0   0 # oby
   1704      1   2 -1.050000    43.401925655     2.972003333    21.620523314   0   0   0 # oby
   1705      1   3  2.100000    45.370299283     0.000000000    20.051298853   0   0   0 # sty
   1706      1   3  2.100000    42.915301332     3.601333333    20.214746592   0   0   0 # sty
   1707      1   3  2.100000    46.739348153     1.800666667    18.006932131   0   0   0 # sty
   1708      1   2 -1.050000    43.401925655     0.629330000    22.897703314   0   0   0 # oby
   1709      1   2 -1.050000    43.909548768     4.230663333    24.748387110   0   0   0 # oby
   1710      1   2 -1.050000    45.258476394     2.429996667    23.383430700   0   0   0 # oby
   1711      1   2 -1.050000    41.454550818     4.772670000    24.022020700   0   0   0 # oby
   1712      1   2 -1.050000    42.803478443     1.171336667    25.386977110   0   0   0 # oby
   1713      1   2 -1.050000    40.946927704     2.972003333    25.872704497   0   0   0 # oby
   1714      1   3  2.100000    42.915301332     0.000000000    24.303480036   0   0   0 # sty
   1715      1   3  2.100000    40.460303382     3.601333333    24.466927775   0   0   0 # sty
   1716      1   3  2.100000    44.284350202     1.800666667    22.259113314   0   0   0 # sty
   1717      1   1 -0.950000    36.036931803     0.629330000     1.636797398   0   0   0 # ohy
   1718      1   2 -1.050000    36.544554916     4.230663333     3.487481195   0   0   0 # oby
   1719      1   1 -0.950000    37.893482542     2.429996667     2.122524785   0   0   0 # ohy
   1720      1   2 -1.050000    34.089556966     4.772670000     2.761114785   0   0   0 # oby
   1721      1   2 -1.050000    35.438484591     1.171336667     4.126071195   0   0   0 # oby
   1722      1   2 -1.050000    33.581933852     2.972003333     4.611798581   0   0   0 # oby
   1723      1   3  2.100000    35.550307480     0.000000000     3.042574120   0   0   0 # sty
   1724      1   3  2.100000    33.095309530     3.601333333     3.206021859   0   0   0 # sty
   1725      1   3  2.100000    46.739348153     1.800666667    26.511294497   0   0   0 # sty
   1726      1   2 -1.050000    33.581933852     0.629330000     5.888978581   0   0   0 # oby
   1727      1   2 -1.050000    34.089556966     4.230663333     7.739662378   0   0   0 # oby
   1728      1   2 -1.050000    35.438484591     2.429996667     6.374705968   0   0   0 # oby
   1729      1   2 -1.050000    31.634559015     4.772670000     7.013295968   0   0   0 # oby
   1730      1   2 -1.050000    32.983486640     1.171336667     8.378252378   0   0   0 # oby
   1731      1   2 -1.050000    31.126935901     2.972003333     8.863979764   0   0   0 # oby
   1732      1   3  2.100000    33.095309530     0.000000000     7.294755303   0   0   0 # sty
   1733      1   3  2.100000    30.640311579     3.601333333     7.458203042   0   0   0 # sty
   1734      1   3  2.100000    34.464358399     1.800666667     5.250388581   0   0   0 # sty
   1735      1   2 -1.050000    31.126935901     0.629330000    10.141159764   0   0   0 # oby
   1736      1   2 -1.050000    31.634559015     4.230663333    11.991843561   0   0   0 # oby
   1737      1   2 -1.050000    32.983486640     2.429996667    10.626887151   0   0   0 # oby
   1738      1   2 -1.050000    29.179561064     4.772670000    11.265477151   0   0   0 # oby
   1739      1   2 -1.050000    30.528488690     1.171336667    12.630433561   0   0   0 # oby
   1740      1   2 -1.050000    28.671937951     2.972003333    13.116160948   0   0   0 # oby
   1741      1   3  2.100000    30.640311579     0.000000000    11.546936487   0   0   0 # sty
   1742      1   3  2.100000    28.185313628     3.601333333    11.710384225   0   0   0 # sty
   1743      1   3  2.100000    32.009360448     1.800666667     9.502569764   0   0   0 # sty
   1744      1   2 -1.050000    28.671937951     0.629330000    14.393340948   0   0   0 # oby
   1745      1   2 -1.050000    29.179561064     4.230663333    16.244024744   0   0   0 # oby
   1746      1   2 -1.050000    30.528488690     2.429996667    14.879068334   0   0   0 # oby
   1747      1   2 -1.050000    26.724563113     4.772670000    15.517658334   0   0   0 # oby
   1748      1   2 -1.050000    28.073490739     1.171336667    16.882614744   0   0   0 # oby
   1749      1   2 -1.050000    26.216940000     2.972003333    17.368342131   0   0   0 # oby
   1750      1   3  2.100000    28.185313628     0.000000000    15.799117670   0   0   0 # sty
   1751      1   3  2.100000    25.730315677     3.601333333    15.962565409   0   0   0 # sty
   1752      1   3  2.100000    29.554362497     1.800666667    13.754750948   0   0   0 # sty
   1753      1   2 -1.050000    26.216940000     0.629330000    18.645522131   0   0   0 # oby
   1754      1   2 -1.050000    26.724563113     4.230663333    20.496205927   0   0   0 # oby
   1755      1   2 -1.050000    28.073490739     2.429996667    19.131249517   0   0   0 # oby
   1756      1   2 -1.050000    48.819544670     4.772670000    19.769839517   0   0   0 # oby
   1757      1   2 -1.050000    25.618492788     1.171336667    21.134795927   0   0   0 # oby
   1758      1   2 -1.050000    48.311921557     2.972003333    21.620523314   0   0   0 # oby
   1759      1   3  2.100000    25.730315677     0.000000000    20.051298853   0   0   0 # sty
   1760      1   3  2.100000    47.825297234     3.601333333    20.214746592   0   0   0 # sty
   1761      1   3  2.100000    27.099364547     1.800666667    18.006932131   0   0   0 # sty
   1762      1   2 -1.050000    48.311921557     0.629330000    22.897703314   0   0   0 # oby
   1763      1   2 -1.050000    48.819544670     4.230663333    24.748387110   0   0   0 # oby
   1764      1   2 -1.050000    25.618492788     2.429996667    23.383430700   0   0   0 # oby
   1765      1   2 -1.050000    46.364546719     4.772670000    24.022020700   0   0   0 # oby
   1766      1   2 -1.050000    47.713474345     1.171336667    25.386977110   0   0   0 # oby
   1767      1   2 -1.050000    45.856923606     2.972003333    25.872704497   0   0   0 # oby
   1768      1   3  2.100000    47.825297234     0.000000000    24.303480036   0   0   0 # sty
   1769      1   3  2.100000    45.370299283     3.601333333    24.466927775   0   0   0 # sty
   1770      1   3  2.100000    24.644366596     1.800666667    22.259113314   0   0   0 # sty
   1771      1   1 -0.950000    40.946927704     6.031330000     1.636797398   0   0   0 # ohy
   1772      1   2 -1.050000    41.454550818     9.632663333     3.487481195   0   0   0 # oby
   1773      1   1 -0.950000    42.803478443     7.831996667     2.122524785   0   0   0 # ohy
   1774      1   2 -1.050000    38.999552867    10.174670000     2.761114785   0   0   0 # oby
   1775      1   2 -1.050000    40.348480493     6.573336667     4.126071195   0   0   0 # oby
   1776      1   2 -1.050000    38.491929754     8.374003333     4.611798581   0   0   0 # oby
   1777      1   3  2.100000    40.460303382     5.402000000     3.042574120   0   0   0 # sty
   1778      1   3  2.100000    38.005305431     9.003333333     3.206021859   0   0   0 # sty
   1779      1   3  2.100000    27.099364547     7.202666667    26.511294497   0   0   0 # sty
   1780      1   2 -1.050000    38.491929754     6.031330000     5.888978581   0   0   0 # oby
   1781      1   2 -1.050000    38.999552867     9.632663333     7.739662378   0   0   0 # oby
   1782      1   2 -1.050000    40.348480493     7.831996667     6.374705968   0   0   0 # oby
   1783      1   2 -1.050000    36.544554916    10.174670000     7.013295968   0   0   0 # oby
   1784      1   2 -1.050000    37.893482542     6.573336667     8.378252378   0   0   0 # oby
   1785      1   2 -1.050000    36.036931803     8.374003333     8.863979764   0   0   0 # oby
   1786      1   3  2.100000    38.005305431     5.402000000     7.294755303   0   0   0 # sty
   1787      1   3  2.100000    35.550307480     9.003333333     7.458203042   0   0   0 # sty
   1788      1   3  2.100000    39.374354300     7.202666667     5.250388581   0   0   0 # sty
   1789      1   2 -1.050000    36.036931803     6.031330000    10.141159764   0   0   0 # oby
   1790      1   2 -1.050000    36.544554916     9.632663333    11.991843561   0   0   0 # oby
   1791      1   2 -1.050000    37.893482542     7.831996667    10.626887151   0   0   0 # oby
   1792      1   2 -1.050000    34.089556966    10.174670000    11.265477151   0   0   0 # oby
   1793      1   2 -1.050000    35.438484591     6.573336667    12.630433561   0   0   0 # oby
   1794      1   2 -1.050000    33.581933852     8.374003333    13.116160948   0   0   0 # oby
   1795      1   3  2.100000    35.550307480     5.402000000    11.546936487   0   0   0 # sty
   1796      1   3  2.100000    33.095309530     9.003333333    11.710384225   0   0   0 # sty
   1797      1   3  2.100000    36.919356350     7.202666667     9.502569764   0   0   0 # sty
   1798      1   2 -1.050000    33.581933852     6.031330000    14.393340948   0   0   0 # oby
   1799      1   2 -1.050000    34.089556966     9.632663333    16.244024744   0   0   0 # oby
   1800      1   2 -1.050000    35.438484591     7.831996667    14.879068334   0   0   0 # oby
   1801      1   2 -1.050000    31.634559015    10.174670000    15.517658334   0   0   0 # oby
   1802      1   2 -1.050000    32.983486640     6.573336667    16.882614744   0   0   0 # oby
   1803      1   2 -1.050000    31.126935901     8.374003333    17.368342131   0   0   0 # oby
   1804      1   3  2.100000    33.095309530     5.402000000    15.799117670   0   0   0 # sty
   1805      1   3  2.100000    30.640311579     9.003333333    15.962565409   0   0   0 # sty
   1806      1   3  2.100000    34.464358399     7.202666667    13.754750948   0   0   0 # sty
   1807      1   2 -1.050000    31.126935901     6.031330000    18.645522131   0   0   0 # oby
   1808      1   2 -1.050000    31.634559015     9.632663333    20.496205927   0   0   0 # oby
   1809      1   2 -1.050000    32.983486640     7.831996667    19.131249517   0   0   0 # oby
   1810      1   2 -1.050000    29.179561064    10.174670000    19.769839517   0   0   0 # oby
   1811      1   2 -1.050000    30.528488690     6.573336667    21.134795927   0   0   0 # oby
   1812      1   2 -1.050000    28.671937951     8.374003333    21.620523314   0   0   0 # oby
   1813      1   3  2.100000    30.640311579     5.402000000    20.051298853   0   0   0 # sty
   1814      1   3  2.100000    28.185313628     9.003333333    20.214746592   0   0   0 # sty
   1815      1   3  2.100000    32.009360448     7.202666667    18.006932131   0   0   0 # sty
   1816      1   2 -1.050000    28.671937951     6.031330000    22.897703314   0   0   0 # oby
   1817      1   2 -1.050000    29.179561064     9.632663333    24.748387110   0   0   0 # oby
   1818      1   2 -1.050000    30.528488690     7.831996667    23.383430700   0   0   0 # oby
   1819      1   2 -1.050000    26.724563113    10.174670000    24.022020700   0   0   0 # oby
   1820      1   2 -1.050000    28.073490739     6.573336667    25.386977110   0   0   0 # oby
   1821      1   2 -1.050000    26.216940000     8.374003333    25.872704497   0   0   0 # oby
   1822      1   3  2.100000    28.185313628     5.402000000    24.303480036   0   0   0 # sty
   1823      1   3  2.100000    25.730315677     9.003333333    24.466927775   0   0   0 # sty
   1824      1   3  2.100000    29.554362497     7.202666667    22.259113314   0   0   0 # sty
   1825      1   1 -0.950000    45.856923606     6.031330000     1.636797398   0   0   0 # ohy
   1826      1   2 -1.050000    46.364546719     9.632663333     3.487481195   0   0   0 # oby
   1827      1   1 -0.950000    47.713474345     7.831996667     2.122524785   0   0   0 # ohy
   1828      1   2 -1.050000    43.909548768    10.174670000     2.761114785   0   0   0 # oby
   1829      1   2 -1.050000    45.258476394     6.573336667     4.126071195   0   0   0 # oby
   1830      1   2 -1.050000    43.401925655     8.374003333     4.611798581   0   0   0 # oby
   1831      1   3  2.100000    45.370299283     5.402000000     3.042574120   0   0   0 # sty
   1832      1   3  2.100000    42.915301332     9.003333333     3.206021859   0   0   0 # sty
   1833      1   3  2.100000    32.009360448     7.202666667    26.511294497   0   0   0 # sty
   1834      1   2 -1.050000    43.401925655     6.031330000     5.888978581   0   0   0 # oby
   1835      1   2 -1.050000    43.909548768     9.632663333     7.739662378   0   0   0 # oby
   1836      1   2 -1.050000    45.258476394     7.831996667     6.374705968   0   0   0 # oby
   1837      1   2 -1.050000    41.454550818    10.174670000     7.013295968   0   0   0 # oby
   1838      1   2 -1.050000    42.803478443     6.573336667     8.378252378   0   0   0 # oby
   1839      1   2 -1.050000    40.946927704     8.374003333     8.863979764   0   0   0 # oby
   1840      1   3  2.100000    42.915301332     5.402000000     7.294755303   0   0   0 # sty
   1841      1   3  2.100000    40.460303382     9.003333333     7.458203042   0   0   0 # sty
   1842      1   3  2.100000    44.284350202     7.202666667     5.250388581   0   0   0 # sty
   1843      1   2 -1.050000    40.946927704     6.031330000    10.141159764   0   0   0 # oby
   1844      1   2 -1.050000    41.454550818     9.632663333    11.991843561   0   0   0 # oby
   1845      1   2 -1.050000    42.803478443     7.831996667    10.626887151   0   0   0 # oby
   1846      1   2 -1.050000    38.999552867    10.174670000    11.265477151   0   0   0 # oby
   1847      1   2 -1.050000    40.348480493     6.573336667    12.630433561   0   0   0 # oby
   1848      1   2 -1.050000    38.491929754     8.374003333    13.116160948   0   0   0 # oby
   1849      1   3  2.100000    40.460303382     5.402000000    11.546936487   0   0   0 # sty
   1850      1   3  2.100000    38.005305431     9.003333333    11.710384225   0   0   0 # sty
   1851      1   3  2.100000    41.829352251     7.202666667     9.502569764   0   0   0 # sty
   1852      1   2 -1.050000    38.491929754     6.031330000    14.393340948   0   0   0 # oby
   1853      1   2 -1.050000    38.999552867     9.632663333    16.244024744   0   0   0 # oby
   1854      1   2 -1.050000    40.348480493     7.831996667    14.879068334   0   0   0 # oby
   1855      1   2 -1.050000    36.544554916    10.174670000    15.517658334   0   0   0 # oby
   1856      1   2 -1.050000    37.893482542     6.573336667    16.882614744   0   0   0 # oby
   1857      1   2 -1.050000    36.036931803     8.374003333    17.368342131   0   0   0 # oby
   1858      1   3  2.100000    38.005305431     5.402000000    15.799117670   0   0   0 # sty
   1859      1   3  2.100000    35.550307480     9.003333333    15.962565409   0   0   0 # sty
   1860      1   3  2.100000    39.374354300     7.202666667    13.754750948   0   0   0 # sty
   1861      1   2 -1.050000    36.036931803     6.031330000    18.645522131   0   0   0 # oby
   1862      1   2 -1.050000    36.544554916     9.632663333    20.496205927   0   0   0 # oby
   1863      1   2 -1.050000    37.893482542     7.831996667    19.131249517   0   0   0 # oby
   1864      1   2 -1.050000    34.089556966    10.174670000    19.769839517   0   0   0 # oby
   1865      1   2 -1.050000    35.438484591     6.573336667    21.134795927   0   0   0 # oby
   1866      1   2 -1.050000    33.581933852     8.374003333    21.620523314   0   0   0 # oby
   1867      1   3  2.100000    35.550307480     5.402000000    20.051298853   0   0   0 # sty
   1868      1   3  2.100000    33.095309530     9.003333333    20.214746592   0   0   0 # sty
   1869      1   3  2.100000    36.919356350     7.202666667    18.006932131   0   0   0 # sty
   1870      1   2 -1.050000    33.581933852     6.031330000    22.897703314   0   0   0 # oby
   1871      1   2 -1.050000    34.089556966     9.632663333    24.748387110   0   0   0 # oby
   1872      1   2 -1.050000    35.438484591     7.831996667    23.383430700   0   0   0 # oby
   1873      1   2 -1.050000    31.634559015    10.174670000    24.022020700   0   0   0 # oby
   1874      1   2 -1.050000    32.983486640     6.573336667    25.386977110   0   0   0 # oby
   1875      1   2 -1.050000    31.126935901     8.374003333    25.872704497   0   0   0 # oby
   1876      1   3  2.100000    33.095309530     5.402000000    24.303480036   0   0   0 # sty
   1877      1   3  2.100000    30.640311579     9.003333333    24.466927775   0   0   0 # sty
   1878      1   3  2.100000    34.464358399     7.202666667    22.259113314   0   0   0 # sty
   1879      1   1 -0.950000    26.216940000     6.031330000     1.636797398   0   0   0 # ohy
   1880      1   2 -1.050000    26.724563113     9.632663333     3.487481195   0   0   0 # oby
   1881      1   1 -0.950000    28.073490739     7.831996667     2.122524785   0   0   0 # ohy
   1882      1   2 -1.050000    48.819544670    10.174670000     2.761114785   0   0   0 # oby
   1883      1   2 -1.050000    25.618492788     6.573336667     4.126071195   0   0   0 # oby
   1884      1   2 -1.050000    48.311921557     8.374003333     4.611798581   0   0   0 # oby
   1885      1   3  2.100000    25.730315677     5.402000000     3.042574120   0   0   0 # sty
   1886      1   3  2.100000    47.825297234     9.003333333     3.206021859   0   0   0 # sty
   1887      1   3  2.100000    36.919356350     7.202666667    26.511294497   0   0   0 # sty
   1888      1   2 -1.050000    48.311921557     6.031330000     5.888978581   0   0   0 # oby
   1889      1   2 -1.050000    48.819544670     9.632663333     7.739662378   0   0   0 # oby
   1890      1   2 -1.050000    25.618492788     7.831996667     6.374705968   0   0   0 # oby
   1891      1   2 -1.050000    46.364546719    10.174670000     7.013295968   0   0   0 # oby
   1892      1   2 -1.050000    47.713474345     6.573336667     8.378252378   0   0   0 # oby
   1893      1   2 -1.050000    45.856923606     8.374003333     8.863979764   0   0   0 # oby
   1894      1   3  2.100000    47.825297234     5.402000000     7.294755303   0   0   0 # sty
   1895      1   3  2.100000    45.370299283     9.003333333     7.458203042   0   0   0 # sty
   1896      1   3  2.100000    24.644366596     7.202666667     5.250388581   0   0   0 # sty
   1897      1   2 -1.050000    45.856923606     6.031330000    10.141159764   0   0   0 # oby
   1898      1   2 -1.050000    46.364546719     9.632663333    11.991843561   0   0   0 # oby
   1899      1   2 -1.050000    47.713474345     7.831996667    10.626887151   0   0   0 # oby
   1900      1   2 -1.050000    43.909548768    10.174670000    11.265477151   0   0   0 # oby
   1901      1   2 -1.050000    45.258476394     6.573336667    12.630433561   0   0   0 # oby
   1902      1   2 -1.050000    43.401925655     8.374003333    13.116160948   0   0   0 # oby
   1903      1   3  2.100000    45.370299283     5.402000000    11.546936487   0   0   0 # sty
   1904      1   3  2.100000    42.915301332     9.003333333    11.710384225   0   0   0 # sty
   1905      1   3  2.100000    46.739348153     7.202666667     9.502569764   0   0   0 # sty
   1906      1   2 -1.050000    43.401925655     6.031330000    14.393340948   0   0   0 # oby
   1907      1   2 -1.050000    43.909548768     9.632663333    16.244024744   0   0   0 # oby
   1908      1   2 -1.050000    45.258476394     7.831996667    14.879068334   0   0   0 # oby
   1909      1   2 -1.050000    41.454550818    10.174670000    15.517658334   0   0   0 # oby
   1910      1   2 -1.050000    42.803478443     6.573336667    16.882614744   0   0   0 # oby
   1911      1   2 -1.050000    40.946927704     8.374003333    17.368342131   0   0   0 # oby
   1912      1   3  2.100000    42.915301332     5.402000000    15.799117670   0   0   0 # sty
   1913      1   3  2.100000    40.460303382     9.003333333    15.962565409   0   0   0 # sty
   1914      1   3  2.100000    44.284350202     7.202666667    13.754750948   0   0   0 # sty
   1915      1   2 -1.050000    40.946927704     6.031330000    18.645522131   0   0   0 # oby
   1916      1   2 -1.050000    41.454550818     9.632663333    20.496205927   0   0   0 # oby
   1917      1   2 -1.050000    42.803478443     7.831996667    19.131249517   0   0   0 # oby
   1918      1   2 -1.050000    38.999552867    10.174670000    19.769839517   0   0   0 # oby
   1919      1   2 -1.050000    40.348480493     6.573336667    21.134795927   0   0   0 # oby
   1920      1   2 -1.050000    38.491929754     8.374003333    21.620523314   0   0   0 # oby
   1921      1   3  2.100000    40.460303382     5.402000000    20.051298853   0   0   0 # sty
   1922      1   3  2.100000    38.005305431     9.003333333    20.214746592   0   0   0 # sty
   1923      1   3  2.100000    41.829352251     7.202666667    18.006932131   0   0   0 # sty
   1924      1   2 -1.050000    38.491929754     6.031330000    22.897703314   0   0   0 # oby
   1925      1   2 -1.050000    38.999552867     9.632663333    24.748387110   0   0   0 # oby
   1926      1   2 -1.050000    40.348480493     7.831996667    23.383430700   0   0   0 # oby
   1927      1   2 -1.050000    36.544554916    10.174670000    24.022020700   0   0   0 # oby
   1928      1   2 -1.050000    37.893482542     6.573336667    25.386977110   0   0   0 # oby
   1929      1   2 -1.050000    36.036931803     8.374003333    25.872704497   0   0   0 # oby
   1930      1   3  2.100000    38.005305431     5.402000000    24.303480036   0   0   0 # sty
   1931      1   3  2.100000    35.550307480     9.003333333    24.466927775   0   0   0 # sty
   1932      1   3  2.100000    39.374354300     7.202666667    22.259113314   0   0   0 # sty
   1933      1   1 -0.950000    31.126935901     6.031330000     1.636797398   0   0   0 # ohy
   1934      1   2 -1.050000    31.634559015     9.632663333     3.487481195   0   0   0 # oby
   1935      1   1 -0.950000    32.983486640     7.831996667     2.122524785   0   0   0 # ohy
   1936      1   2 -1.050000    29.179561064    10.174670000     2.761114785   0   0   0 # oby
   1937      1   2 -1.050000    30.528488690     6.573336667     4.126071195   0   0   0 # oby
   1938      1   2 -1.050000    28.671937951     8.374003333     4.611798581   0   0   0 # oby
   1939      1   3  2.100000    30.640311579     5.402000000     3.042574120   0   0   0 # sty
   1940      1   3  2.100000    28.185313628     9.003333333     3.206021859   0   0   0 # sty
   1941      1   3  2.100000    41.829352251     7.202666667    26.511294497   0   0   0 # sty
   1942      1   2 -1.050000    28.671937951     6.031330000     5.888978581   0   0   0 # oby
   1943      1   2 -1.050000    29.179561064     9.632663333     7.739662378   0   0   0 # oby
   1944      1   2 -1.050000    30.528488690     7.831996667     6.374705968   0   0   0 # oby
   1945      1   2 -1.050000    26.724563113    10.174670000     7.013295968   0   0   0 # oby
   1946      1   2 -1.050000    28.073490739     6.573336667     8.378252378   0   0   0 # oby
   1947      1   2 -1.050000    26.216940000     8.374003333     8.863979764   0   0   0 # oby
   1948      1   3  2.100000    28.185313628     5.402000000     7.294755303   0   0   0 # sty
   1949      1   3  2.100000    25.730315677     9.003333333     7.458203042   0   0   0 # sty
   1950      1   3  2.100000    29.554362497     7.202666667     5.250388581   0   0   0 # sty
   1951      1   2 -1.050000    26.216940000     6.031330000    10.141159764   0   0   0 # oby
   1952      1   2 -1.050000    26.724563113     9.632663333    11.991843561   0   0   0 # oby
   1953      1   2 -1.050000    28.073490739     7.831996667    10.626887151   0   0   0 # oby
   1954      1   2 -1.050000    48.819544670    10.174670000    11.265477151   0   0   0 # oby
   1955      1   2 -1.050000    25.618492788     6.573336667    12.630433561   0   0   0 # oby
   1956      1   2 -1.050000    48.311921557     8.374003333    13.116160948   0   0   0 # oby
   1957      1   3  2.100000    25.730315677     5.402000000    11.546936487   0   0   0 # sty
   1958      1   3  2.100000    47.825297234     9.003333333    11.710384225   0   0   0 # sty
   1959      1   3  2.100000    27.099364547     7.202666667     9.502569764   0   0   0 # sty
   1960      1   2 -1.050000    48.311921557     6.031330000    14.393340948   0   0   0 # oby
   1961      1   2 -1.050000    48.819544670     9.632663333    16.244024744   0   0   0 # oby
   1962      1   2 -1.050000    25.618492788     7.831996667    14.879068334   0   0   0 # oby
   1963      1   2 -1.050000    46.364546719    10.174670000    15.517658334   0   0   0 # oby
   1964      1   2 -1.050000    47.713474345     6.573336667    16.882614744   0   0   0 # oby
   1965      1   2 -1.050000    45.856923606     8.374003333    17.368342131   0   0   0 # oby
   1966      1   3  2.100000    47.825297234     5.402000000    15.799117670   0   0   0 # sty
   1967      1   3  2.100000    45.370299283     9.003333333    15.962565409   0   0   0 # sty
   1968      1   3  2.100000    24.644366596     7.202666667    13.754750948   0   0   0 # sty
   1969      1   2 -1.050000    45.856923606     6.031330000    18.645522131   0   0   0 # oby
   1970      1   2 -1.050000    46.364546719     9.632663333    20.496205927   0   0   0 # oby
   1971      1   2 -1.050000    47.713474345     7.831996667    19.131249517   0   0   0 # oby
   1972      1   2 -1.050000    43.909548768    10.174670000    19.769839517   0   0   0 # oby
   1973      1   2 -1.050000    45.258476394     6.573336667    21.134795927   0   0   0 # oby
   1974      1   2 -1.050000    43.401925655     8.374003333    21.620523314   0   0   0 # oby
   1975      1   3  2.100000    45.370299283     5.402000000    20.051298853   0   0   0 # sty
   1976      1   3  2.100000    42.915301332     9.003333333    20.214746592   0   0   0 # sty
   1977      1   3  2.100000    46.739348153     7.202666667    18.006932131   0   0   0 # sty
   1978      1   2 -1.050000    43.401925655     6.031330000    22.897703314   0   0   0 # oby
   1979      1   2 -1.050000    43.909548768     9.632663333    24.748387110   0   0   0 # oby
   1980      1   2 -1.050000    45.258476394     7.831996667    23.383430700   0   0   0 # oby
   1981      1   2 -1.050000    41.454550818    10.174670000    24.022020700   0   0   0 # oby
   1982      1   2 -1.050000    42.803478443     6.573336667    25.386977110   0   0   0 # oby
   1983      1   2 -1.050000    40.946927704     8.374003333    25.872704497   0   0   0 # oby
   1984      1   3  2.100000    42.915301332     5.402000000    24.303480036   0   0   0 # sty
   1985      1   3  2.100000    40.460303382     9.003333333    24.466927775   0   0   0 # sty
   1986      1   3  2.100000    44.284350202     7.202666667    22.259113314   0   0   0 # sty
   1987      1   1 -0.950000    36.036931803     6.031330000     1.636797398   0   0   0 # ohy
   1988      1   2 -1.050000    36.544554916     9.632663333     3.487481195   0   0   0 # oby
   1989      1   1 -0.950000    37.893482542     7.831996667     2.122524785   0   0   0 # ohy
   1990      1   2 -1.050000    34.089556966    10.174670000     2.761114785   0   0   0 # oby
   1991      1   2 -1.050000    35.438484591     6.573336667     4.126071195   0   0   0 # oby
   1992      1   2 -1.050000    33.581933852     8.374003333     4.611798581   0   0   0 # oby
   1993      1   3  2.100000    35.550307480     5.402000000     3.042574120   0   0   0 # sty
   1994      1   3  2.100000    33.095309530     9.003333333     3.206021859   0   0   0 # sty
   1995      1   3  2.100000    46.739348153     7.202666667    26.511294497   0   0   0 # sty
   1996      1   2 -1.050000    33.581933852     6.031330000     5.888978581   0   0   0 # oby
   1997      1   2 -1.050000    34.089556966     9.632663333     7.739662378   0   0   0 # oby
   1998      1   2 -1.050000    35.438484591     7.831996667     6.374705968   0   0   0 # oby
   1999      1   2 -1.050000    31.634559015    10.174670000     7.013295968   0   0   0 # oby
   2000      1   2 -1.050000    32.983486640     6.573336667     8.378252378   0   0   0 # oby
   2001      1   2 -1.050000    31.126935901     8.374003333     8.863979764   0   0   0 # oby
   2002      1   3  2.100000    33.095309530     5.402000000     7.294755303   0   0   0 # sty
   2003      1   3  2.100000    30.640311579     9.003333333     7.458203042   0   0   0 # sty
   2004      1   3  2.100000    34.464358399     7.202666667     5.250388581   0   0   0 # sty
   2005      1   2 -1.050000    31.126935901     6.031330000    10.141159764   0   0   0 # oby
   2006      1   2 -1.050000    31.634559015     9.632663333    11.991843561   0   0   0 # oby
   2007      1   2 -1.050000    32.983486640     7.831996667    10.626887151   0   0   0 # oby
   2008      1   2 -1.050000    29.179561064    10.174670000    11.265477151   0   0   0 # oby
   2009      1   2 -1.050000    30.528488690     6.573336667    12.630433561   0   0   0 # oby
   2010      1   2 -1.050000    28.671937951     8.374003333    13.116160948   0   0   0 # oby
   2011      1   3  2.100000    30.640311579     5.402000000    11.546936487   0   0   0 # sty
   2012      1   3  2.100000    28.185313628     9.003333333    11.710384225   0   0   0 # sty
   2013      1   3  2.100000    32.009360448     7.202666667     9.502569764   0   0   0 # sty
   2014      1   2 -1.050000    28.671937951     6.031330000    14.393340948   0   0   0 # oby
   2015      1   2 -1.050000    29.179561064     9.632663333    16.244024744   0   0   0 # oby
   2016      1   2 -1.050000    30.528488690     7.831996667    14.879068334   0   0   0 # oby
   2017      1   2 -1.050000    26.724563113    10.174670000    15.517658334   0   0   0 # oby
   2018      1   2 -1.050000    28.073490739     6.573336667    16.882614744   0   0   0 # oby
   2019      1   2 -1.050000    26.216940000     8.374003333    17.368342131   0   0   0 # oby
   2020      1   3  2.100000    28.185313628     5.402000000    15.799117670   0   0   0 # sty
   2021      1   3  2.100000    25.730315677     9.003333333    15.962565409   0   0   0 # sty
   2022      1   3  2.100000    29.554362497     7.202666667    13.754750948   0   0   0 # sty
   2023      1   2 -1.050000    26.216940000     6.031330000    18.645522131   0   0   0 # oby
   2024      1   2 -1.050000    26.724563113     9.632663333    20.496205927   0   0   0 # oby
   2025      1   2 -1.050000    28.073490739     7.831996667    19.131249517   0   0   0 # oby
   2026      1   2 -1.050000    48.819544670    10.174670000    19.769839517   0   0   0 # oby
   2027      1   2 -1.050000    25.618492788     6.573336667    21.134795927   0   0   0 # oby
   2028      1   2 -1.050000    48.311921557     8.374003333    21.620523314   0   0   0 # oby
   2029      1   3  2.100000    25.730315677     5.402000000    20.051298853   0   0   0 # sty
   2030      1   3  2.100000    47.825297234     9.003333333    20.214746592   0   0   0 # sty
   2031      1   3  2.100000    27.099364547     7.202666667    18.006932131   0   0   0 # sty
   2032      1   2 -1.050000    48.311921557     6.031330000    22.897703314   0   0   0 # oby
   2033      1   2 -1.050000    48.819544670     9.632663333    24.748387110   0   0   0 # oby
   2034      1   2 -1.050000    25.618492788     7.831996667    23.383430700   0   0   0 # oby
   2035      1   2 -1.050000    46.364546719    10.174670000    24.022020700   0   0   0 # oby
   2036      1   2 -1.050000    47.713474345     6.573336667    25.386977110   0   0   0 # oby
   2037      1   2 -1.050000    45.856923606     8.374003333    25.872704497   0   0   0 # oby
   2038      1   3  2.100000    47.825297234     5.402000000    24.303480036   0   0   0 # sty
   2039      1   3  2.100000    45.370299283     9.003333333    24.466927775   0   0   0 # sty
   2040      1   3  2.100000    24.644366596     7.202666667    22.259113314   0   0   0 # sty
   2041      1   1 -0.950000    40.946927704    11.433330000     1.636797398   0   0   0 # ohy
   2042      1   2 -1.050000    41.454550818    15.034663333     3.487481195   0   0   0 # oby
   2043      1   1 -0.950000    42.803478443    13.233996667     2.122524785   0   0   0 # ohy
   2044      1   2 -1.050000    38.999552867    15.576670000     2.761114785   0   0   0 # oby
   2045      1   2 -1.050000    40.348480493    11.975336667     4.126071195   0   0   0 # oby
   2046      1   2 -1.050000    38.491929754    13.776003333     4.611798581   0   0   0 # oby
   2047      1   3  2.100000    40.460303382    10.804000000     3.042574120   0   0   0 # sty
   2048      1   3  2.100000    38.005305431    14.405333333     3.206021859   0   0   0 # sty
   2049      1   3  2.100000    27.099364547    12.604666667    26.511294497   0   0   0 # sty
   2050      1   2 -1.050000    38.491929754    11.433330000     5.888978581   0   0   0 # oby
   2051      1   2 -1.050000    38.999552867    15.034663333     7.739662378   0   0   0 # oby
   2052      1   2 -1.050000    40.348480493    13.233996667     6.374705968   0   0   0 # oby
   2053      1   2 -1.050000    36.544554916    15.576670000     7.013295968   0   0   0 # oby
   2054      1   2 -1.050000    37.893482542    11.975336667     8.378252378   0   0   0 # oby
   2055      1   2 -1.050000    36.036931803    13.776003333     8.863979764   0   0   0 # oby
   2056      1   3  2.100000    38.005305431    10.804000000     7.294755303   0   0   0 # sty
   2057      1   3  2.100000    35.550307480    14.405333333     7.458203042   0   0   0 # sty
   2058      1   3  2.100000    39.374354300    12.604666667     5.250388581   0   0   0 # sty
   2059      1   2 -1.050000    36.036931803    11.433330000    10.141159764   0   0   0 # oby
   2060      1   2 -1.050000    36.544554916    15.034663333    11.991843561   0   0   0 # oby
   2061      1   2 -1.050000    37.893482542    13.233996667    10.626887151   0   0   0 # oby
   2062      1   2 -1.050000    34.089556966    15.576670000    11.265477151   0   0   0 # oby
   2063      1   2 -1.050000    35.438484591    11.975336667    12.630433561   0   0   0 # oby
   2064      1   2 -1.050000    33.581933852    13.776003333    13.116160948   0   0   0 # oby
   2065      1   3  2.100000    35.550307480    10.804000000    11.546936487   0   0   0 # sty
   2066      1   3  2.100000    33.095309530    14.405333333    11.710384225   0   0   0 # sty
   2067      1   3  2.100000    36.919356350    12.604666667     9.502569764   0   0   0 # sty
   2068      1   2 -1.050000    33.581933852    11.433330000    14.393340948   0   0   0 # oby
   2069      1   2 -1.050000    34.089556966    15.034663333    16.244024744   0   0   0 # oby
   2070      1   2 -1.050000    35.438484591    13.233996667    14.879068334   0   0   0 # oby
   2071      1   2 -1.050000    31.634559015    15.576670000    15.517658334   0   0   0 # oby
   2072      1   2 -1.050000    32.983486640    11.975336667    16.882614744   0   0   0 # oby
   2073      1   2 -1.050000    31.126935901    13.776003333    17.368342131   0   0   0 # oby
   2074      1   3  2.100000    33.095309530    10.804000000    15.799117670   0   0   0 # sty
   2075      1   3  2.100000    30.640311579    14.405333333    15.962565409   0   0   0 # sty
   2076      1   3  2.100000    34.464358399    12.604666667    13.754750948   0   0   0 # sty
   2077      1   2 -1.050000    31.126935901    11.433330000    18.645522131   0   0   0 # oby
   2078      1   2 -1.050000    31.634559015    15.034663333    20.496205927   0   0   0 # oby
   2079      1   2 -1.050000    32.983486640    13.233996667    19.131249517   0   0   0 # oby
   2080      1   2 -1.050000    29.179561064    15.576670000    19.769839517   0   0   0 # oby
   2081      1   2 -1.050000    30.528488690    11.975336667    21.134795927   0   0   0 # oby
   2082      1   2 -1.050000    28.671937951    13.776003333    21.620523314   0   0   0 # oby
   2083      1   3  2.100000    30.640311579    10.804000000    20.051298853   0   0   0 # sty
   2084      1   3  2.100000    28.185313628    14.405333333    20.214746592   0   0   0 # sty
   2085      1   3  2.100000    32.009360448    12.604666667    18.006932131   0   0   0 # sty
   2086      1   2 -1.050000    28.671937951    11.433330000    22.897703314   0   0   0 # oby
   2087      1   2 -1.050000    29.179561064    15.034663333    24.748387110   0   0   0 # oby
   2088      1   2 -1.050000    30.528488690    13.233996667    23.383430700   0   0   0 # oby
   2089      1   2 -1.050000    26.724563113    15.576670000    24.022020700   0   0   0 # oby
   2090      1   2 -1.050000    28.073490739    11.975336667    25.386977110   0   0   0 # oby
   2091      1   2 -1.050000    26.216940000    13.776003333    25.872704497   0   0   0 # oby
   2092      1   3  2.100000    28.185313628    10.804000000    24.303480036   0   0   0 # sty
   2093      1   3  2.100000    25.730315677    14.405333333    24.466927775   0   0   0 # sty
   2094      1   3  2.100000    29.554362497    12.604666667    22.259113314   0   0   0 # sty
   2095      1   1 -0.950000    45.856923606    11.433330000     1.636797398   0   0   0 # ohy
   2096      1   2 -1.050000    46.364546719    15.034663333     3.487481195   0   0   0 # oby
   2097      1   1 -0.950000    47.713474345    13.233996667     2.122524785   0   0   0 # ohy
   2098      1   2 -1.050000    43.909548768    15.576670000     2.761114785   0   0   0 # oby
   2099      1   2 -1.050000    45.258476394    11.975336667     4.126071195   0   0   0 # oby
   2100      1   2 -1.050000    43.401925655    13.776003333     4.611798581   0   0   0 # oby
   2101      1   3  2.100000    45.370299283    10.804000000     3.042574120   0   0   0 # sty
   2102      1   3  2.100000    42.915301332    14.405333333     3.206021859   0   0   0 # sty
   2103      1   3  2.100000    32.009360448    12.604666667    26.511294497   0   0   0 # sty
   2104      1   2 -1.050000    43.401925655    11.433330000     5.888978581   0   0   0 # oby
   2105      1   2 -1.050000    43.909548768    15.034663333     7.739662378   0   0   0 # oby
   2106      1   2 -1.050000    45.258476394    13.233996667     6.374705968   0   0   0 # oby
   2107      1   2 -1.050000    41.454550818    15.576670000     7.013295968   0   0   0 # oby
   2108      1   2 -1.050000    42.803478443    11.975336667     8.378252378   0   0   0 # oby
   2109      1   2 -1.050000    40.946927704    13.776003333     8.863979764   0   0   0 # oby
   2110      1   3  2.100000    42.915301332    10.804000000     7.294755303   0   0   0 # sty
   2111      1   3  2.100000    40.460303382    14.405333333     7.458203042   0   0   0 # sty
   2112      1   3  2.100000    44.284350202    12.604666667     5.250388581   0   0   0 # sty
   2113      1   2 -1.050000    40.946927704    11.433330000    10.141159764   0   0   0 # oby
   2114      1   2 -1.050000    41.454550818    15.034663333    11.991843561   0   0   0 # oby
   2115      1   2 -1.050000    42.803478443    13.233996667    10.626887151   0   0   0 # oby
   2116      1   2 -1.050000    38.999552867    15.576670000    11.265477151   0   0   0 # oby
   2117      1   2 -1.050000    40.348480493    11.975336667    12.630433561   0   0   0 # oby
   2118      1   2 -1.050000    38.491929754    13.776003333    13.116160948   0   0   0 # oby
   2119      1   3  2.100000    40.460303382    10.804000000    11.546936487   0   0   0 # sty
   2120      1   3  2.100000    38.005305431    14.405333333    11.710384225   0   0   0 # sty
   2121      1   3  2.100000    41.829352251    12.604666667     9.502569764   0   0   0 # sty
   2122      1   2 -1.050000    38.491929754    11.433330000    14.393340948   0   0   0 # oby
   2123      1   2 -1.050000    38.999552867    15.034663333    16.244024744   0   0   0 # oby
   2124      1   2 -1.050000    40.348480493    13.233996667    14.879068334   0   0   0 # oby
   2125      1   2 -1.050000    36.544554916    15.576670000    15.517658334   0   0   0 # oby
   2126      1   2 -1.050000    37.893482542    11.975336667    16.882614744   0   0   0 # oby
   2127      1   2 -1.050000    36.036931803    13.776003333    17.368342131   0   0   0 # oby
   2128      1   3  2.100000    38.005305431    10.804000000    15.799117670   0   0   0 # sty
   2129      1   3  2.100000    35.550307480    14.405333333    15.962565409   0   0   0 # sty
   2130      1   3  2.100000    39.374354300    12.604666667    13.754750948   0   0   0 # sty
   2131      1   2 -1.050000    36.036931803    11.433330000    18.645522131   0   0   0 # oby
   2132      1   2 -1.050000    36.544554916    15.034663333    20.496205927   0   0   0 # oby
   2133      1   2 -1.050000    37.893482542    13.233996667    19.131249517   0   0   0 # oby
   2134      1   2 -1.050000    34.089556966    15.576670000    19.769839517   0   0   0 # oby
   2135      1   2 -1.050000    35.438484591    11.975336667    21.134795927   0   0   0 # oby
   2136      1   2 -1.050000    33.581933852    13.776003333    21.620523314   0   0   0 # oby
   2137      1   3  2.100000    35.550307480    10.804000000    20.051298853   0   0   0 # sty
   2138      1   3  2.100000    33.095309530    14.405333333    20.214746592   0   0   0 # sty
   2139      1   3  2.100000    36.919356350    12.604666667    18.006932131   0   0   0 # sty
   2140      1   2 -1.050000    33.581933852    11.433330000    22.897703314   0   0   0 # oby
   2141      1   2 -1.050000    34.089556966    15.034663333    24.748387110   0   0   0 # oby
   2142      1   2 -1.050000    35.438484591    13.233996667    23.383430700   0   0   0 # oby
   2143      1   2 -1.050000    31.634559015    15.576670000    24.022020700   0   0   0 # oby
   2144      1   2 -1.050000    32.983486640    11.975336667    25.386977110   0   0   0 # oby
   2145      1   2 -1.050000    31.126935901    13.776003333    25.872704497   0   0   0 # oby
   2146      1   3  2.100000    33.095309530    10.804000000    24.303480036   0   0   0 # sty
   2147      1   3  2.100000    30.640311579    14.405333333    24.466927775   0   0   0 # sty
   2148      1   3  2.100000    34.464358399    12.604666667    22.259113314   0   0   0 # sty
   2149      1   1 -0.950000    26.216940000    11.433330000     1.636797398   0   0   0 # ohy
   2150      1   2 -1.050000    26.724563113    15.034663333     3.487481195   0   0   0 # oby
   2151      1   1 -0.950000    28.073490739    13.233996667     2.122524785   0   0   0 # ohy
   2152      1   2 -1.050000    48.819544670    15.576670000     2.761114785   0   0   0 # oby
   2153      1   2 -1.050000    25.618492788    11.975336667     4.126071195   0   0   0 # oby
   2154      1   2 -1.050000    48.311921557    13.776003333     4.611798581   0   0   0 # oby
   2155      1   3  2.100000    25.730315677    10.804000000     3.042574120   0   0   0 # sty
   2156      1   3  2.100000    47.825297234    14.405333333     3.206021859   0   0   0 # sty
   2157      1   3  2.100000    36.919356350    12.604666667    26.511294497   0   0   0 # sty
   2158      1   2 -1.050000    48.311921557    11.433330000     5.888978581   0   0   0 # oby
   2159      1   2 -1.050000    48.819544670    15.034663333     7.739662378   0   0   0 # oby
   2160      1   2 -1.050000    25.618492788    13.233996667     6.374705968   0   0   0 # oby
   2161      1   2 -1.050000    46.364546719    15.576670000     7.013295968   0   0   0 # oby
   2162      1   2 -1.050000    47.713474345    11.975336667     8.378252378   0   0   0 # oby
   2163      1   2 -1.050000    45.856923606    13.776003333     8.863979764   0   0   0 # oby
   2164      1   3  2.100000    47.825297234    10.804000000     7.294755303   0   0   0 # sty
   2165      1   3  2.100000    45.370299283    14.405333333     7.458203042   0   0   0 # sty
   2166      1   3  2.100000    24.644366596    12.604666667     5.250388581   0   0   0 # sty
   2167      1   2 -1.050000    45.856923606    11.433330000    10.141159764   0   0   0 # oby
   2168      1   2 -1.050000    46.364546719    15.034663333    11.991843561   0   0   0 # oby
   2169      1   2 -1.050000    47.713474345    13.233996667    10.626887151   0   0   0 # oby
   2170      1   2 -1.050000    43.909548768    15.576670000    11.265477151   0   0   0 # oby
   2171      1   2 -1.050000    45.258476394    11.975336667    12.630433561   0   0   0 # oby
   2172      1   2 -1.050000    43.401925655    13.776003333    13.116160948   0   0   0 # oby
   2173      1   3  2.100000    45.370299283    10.804000000    11.546936487   0   0   0 # sty
   2174      1   3  2.100000    42.915301332    14.405333333    11.710384225   0   0   0 # sty
   2175      1   3  2.100000    46.739348153    12.604666667     9.502569764   0   0   0 # sty
   2176      1   2 -1.050000    43.401925655    11.433330000    14.393340948   0   0   0 # oby
   2177      1   2 -1.050000    43.909548768    15.034663333    16.244024744   0   0   0 # oby
   2178      1   2 -1.050000    45.258476394    13.233996667    14.879068334   0   0   0 # oby
   2179      1   2 -1.050000    41.454550818    15.576670000    15.517658334   0   0   0 # oby
   2180      1   2 -1.050000    42.803478443    11.975336667    16.882614744   0   0   0 # oby
   2181      1   2 -1.050000    40.946927704    13.776003333    17.368342131   0   0   0 # oby
   2182      1   3  2.100000    42.915301332    10.804000000    15.799117670   0   0   0 # sty
   2183      1   3  2.100000    40.460303382    14.405333333    15.962565409   0   0   0 # sty
   2184      1   3  2.100000    44.284350202    12.604666667    13.754750948   0   0   0 # sty
   2185      1   2 -1.050000    40.946927704    11.433330000    18.645522131   0   0   0 # oby
   2186      1   2 -1.050000    41.454550818    15.034663333    20.496205927   0   0   0 # oby
   2187      1   2 -1.050000    42.803478443    13.233996667    19.131249517   0   0   0 # oby
   2188      1   2 -1.050000    38.999552867    15.576670000    19.769839517   0   0   0 # oby
   2189      1   2 -1.050000    40.348480493    11.975336667    21.134795927   0   0   0 # oby
   2190      1   2 -1.050000    38.491929754    13.776003333    21.620523314   0   0   0 # oby
   2191      1   3  2.100000    40.460303382    10.804000000    20.051298853   0   0   0 # sty
   2192      1   3  2.100000    38.005305431    14.405333333    20.214746592   0   0   0 # sty
   2193      1   3  2.100000    41.829352251    12.604666667    18.006932131   0   0   0 # sty
   2194      1   2 -1.050000    38.491929754    11.433330000    22.897703314   0   0   0 # oby
   2195      1   2 -1.050000    38.999552867    15.034663333    24.748387110   0   0   0 # oby
   2196      1   2 -1.050000    40.348480493    13.233996667    23.383430700   0   0   0 # oby
   2197      1   2 -1.050000    36.544554916    15.576670000    24.022020700   0   0   0 # oby
   2198      1   2 -1.050000    37.893482542    11.975336667    25.386977110   0   0   0 # oby
   2199      1   2 -1.050000    36.036931803    13.776003333    25.872704497   0   0   0 # oby
   2200      1   3  2.100000    38.005305431    10.804000000    24.303480036   0   0   0 # sty
   2201      1   3  2.100000    35.550307480    14.405333333    24.466927775   0   0   0 # sty
   2202      1   3  2.100000    39.374354300    12.604666667    22.259113314   0   0   0 # sty
   2203      1   1 -0.950000    31.126935901    11.433330000     1.636797398   0   0   0 # ohy
   2204      1   2 -1.050000    31.634559015    15.034663333     3.487481195   0   0   0 # oby
   2205      1   1 -0.950000    32.983486640    13.233996667     2.122524785   0   0   0 # ohy
   2206      1   2 -1.050000    29.179561064    15.576670000     2.761114785   0   0   0 # oby
   2207      1   2 -1.050000    30.528488690    11.975336667     4.126071195   0   0   0 # oby
   2208      1   2 -1.050000    28.671937951    13.776003333     4.611798581   0   0   0 # oby
   2209      1   3  2.100000    30.640311579    10.804000000     3.042574120   0   0   0 # sty
   2210      1   3  2.100000    28.185313628    14.405333333     3.206021859   0   0   0 # sty
   2211      1   3  2.100000    41.829352251    12.604666667    26.511294497   0   0   0 # sty
   2212      1   2 -1.050000    28.671937951    11.433330000     5.888978581   0   0   0 # oby
   2213      1   2 -1.050000    29.179561064    15.034663333     7.739662378   0   0   0 # oby
   2214      1   2 -1.050000    30.528488690    13.233996667     6.374705968   0   0   0 # oby
   2215      1   2 -1.050000    26.724563113    15.576670000     7.013295968   0   0   0 # oby
   2216      1   2 -1.050000    28.073490739    11.975336667     8.378252378   0   0   0 # oby
   2217      1   2 -1.050000    26.216940000    13.776003333     8.863979764   0   0   0 # oby
   2218      1   3  2.100000    28.185313628    10.804000000     7.294755303   0   0   0 # sty
   2219      1   3  2.100000    25.730315677    14.405333333     7.458203042   0   0   0 # sty
   2220      1   3  2.100000    29.554362497    12.604666667     5.250388581   0   0   0 # sty
   2221      1   2 -1.050000    26.216940000    11.433330000    10.141159764   0   0   0 # oby
   2222      1   2 -1.050000    26.724563113    15.034663333    11.991843561   0   0   0 # oby
   2223      1   2 -1.050000    28.073490739    13.233996667    10.626887151   0   0   0 # oby
   2224      1   2 -1.050000    48.819544670    15.576670000    11.265477151   0   0   0 # oby
   2225      1   2 -1.050000    25.618492788    11.975336667    12.630433561   0   0   0 # oby
   2226      1   2 -1.050000    48.311921557    13.776003333    13.116160948   0   0   0 # oby
   2227      1   3  2.100000    25.730315677    10.804000000    11.546936487   0   0   0 # sty
   2228      1   3  2.100000    47.825297234    14.405333333    11.710384225   0   0   0 # sty
   2229      1   3  2.100000    27.099364547    12.604666667     9.502569764   0   0   0 # sty
   2230      1   2 -1.050000    48.311921557    11.433330000    14.393340948   0   0   0 # oby
   2231      1   2 -1.050000    48.819544670    15.034663333    16.244024744   0   0   0 # oby
   2232      1   2 -1.050000    25.618492788    13.233996667    14.879068334   0   0   0 # oby
   2233      1   2 -1.050000    46.364546719    15.576670000    15.517658334   0   0   0 # oby
   2234      1   2 -1.050000    47.713474345    11.975336667    16.882614744   0   0   0 # oby
   2235      1   2 -1.050000    45.856923606    13.776003333    17.368342131   0   0   0 # oby
   2236      1   3  2.100000    47.825297234    10.804000000    15.799117670   0   0   0 # sty
   2237      1   3  2.100000    45.370299283    14.405333333    15.962565409   0   0   0 # sty
   2238      1   3  2.100000    24.644366596    12.604666667    13.754750948   0   0   0 # sty
   2239      1   2 -1.050000    45.856923606    11.433330000    18.645522131   0   0   0 # oby
   2240      1   2 -1.050000    46.364546719    15.034663333    20.496205927   0   0   0 # oby
   2241      1   2 -1.050000    47.713474345    13.233996667    19.131249517   0   0   0 # oby
   2242      1   2 -1.050000    43.909548768    15.576670000    19.769839517   0   0   0 # oby
   2243      1   2 -1.050000    45.258476394    11.975336667    21.134795927   0   0   0 # oby
   2244      1   2 -1.050000    43.401925655    13.776003333    21.620523314   0   0   0 # oby
   2245      1   3  2.100000    45.370299283    10.804000000    20.051298853   0   0   0 # sty
   2246      1   3  2.100000    42.915301332    14.405333333    20.214746592   0   0   0 # sty
   2247      1   3  2.100000    46.739348153    12.604666667    18.006932131   0   0   0 # sty
   2248      1   2 -1.050000    43.401925655    11.433330000    22.897703314   0   0   0 # oby
   2249      1   2 -1.050000    43.909548768    15.034663333    24.748387110   0   0   0 # oby
   2250      1   2 -1.050000    45.258476394    13.233996667    23.383430700   0   0   0 # oby
   2251      1   2 -1.050000    41.454550818    15.576670000    24.022020700   0   0   0 # oby
   2252      1   2 -1.050000    42.803478443    11.975336667    25.386977110   0   0   0 # oby
   2253      1   2 -1.050000    40.946927704    13.776003333    25.872704497   0   0   0 # oby
   2254      1   3  2.100000    42.915301332    10.804000000    24.303480036   0   0   0 # sty
   2255      1   3  2.100000    40.460303382    14.405333333    24.466927775   0   0   0 # sty
   2256      1   3  2.100000    44.284350202    12.604666667    22.259113314   0   0   0 # sty
   2257      1   1 -0.950000    36.036931803    11.433330000     1.636797398   0   0   0 # ohy
   2258      1   2 -1.050000    36.544554916    15.034663333     3.487481195   0   0   0 # oby
   2259      1   1 -0.950000    37.893482542    13.233996667     2.122524785   0   0   0 # ohy
   2260      1   2 -1.050000    34.089556966    15.576670000     2.761114785   0   0   0 # oby
   2261      1   2 -1.050000    35.438484591    11.975336667     4.126071195   0   0   0 # oby
   2262      1   2 -1.050000    33.581933852    13.776003333     4.611798581   0   0   0 # oby
   2263      1   3  2.100000    35.550307480    10.804000000     3.042574120   0   0   0 # sty
   2264      1   3  2.100000    33.095309530    14.405333333     3.206021859   0   0   0 # sty
   2265      1   3  2.100000    46.739348153    12.604666667    26.511294497   0   0   0 # sty
   2266      1   2 -1.050000    33.581933852    11.433330000     5.888978581   0   0   0 # oby
   2267      1   2 -1.050000    34.089556966    15.034663333     7.739662378   0   0   0 # oby
   2268      1   2 -1.050000    35.438484591    13.233996667     6.374705968   0   0   0 # oby
   2269      1   2 -1.050000    31.634559015    15.576670000     7.013295968   0   0   0 # oby
   2270      1   2 -1.050000    32.983486640    11.975336667     8.378252378   0   0   0 # oby
   2271      1   2 -1.050000    31.126935901    13.776003333     8.863979764   0   0   0 # oby
   2272      1   3  2.100000    33.095309530    10.804000000     7.294755303   0   0   0 # sty
   2273      1   3  2.100000    30.640311579    14.405333333     7.458203042   0   0   0 # sty
   2274      1   3  2.100000    34.464358399    12.604666667     5.250388581   0   0   0 # sty
   2275      1   2 -1.050000    31.126935901    11.433330000    10.141159764   0   0   0 # oby
   2276      1   2 -1.050000    31.634559015    15.034663333    11.991843561   0   0   0 # oby
   2277      1   2 -1.050000    32.983486640    13.233996667    10.626887151   0   0   0 # oby
   2278      1   2 -1.050000    29.179561064    15.576670000    11.265477151   0   0   0 # oby
   2279      1   2 -1.050000    30.528488690    11.975336667    12.630433561   0   0   0 # oby
   2280      1   2 -1.050000    28.671937951    13.776003333    13.116160948   0   0   0 # oby
   2281      1   3  2.100000    30.640311579    10.804000000    11.546936487   0   0   0 # sty
   2282      1   3  2.100000    28.185313628    14.405333333    11.710384225   0   0   0 # sty
   2283      1   3  2.100000    32.009360448    12.604666667     9.502569764   0   0   0 # sty
   2284      1   2 -1.050000    28.671937951    11.433330000    14.393340948   0   0   0 # oby
   2285      1   2 -1.050000    29.179561064    15.034663333    16.244024744   0   0   0 # oby
   2286      1   2 -1.050000    30.528488690    13.233996667    14.879068334   0   0   0 # oby
   2287      1   2 -1.050000    26.724563113    15.576670000    15.517658334   0   0   0 # oby
   2288      1   2 -1.050000    28.073490739    11.975336667    16.882614744   0   0   0 # oby
   2289      1   2 -1.050000    26.216940000    13.776003333    17.368342131   0   0   0 # oby
   2290      1   3  2.100000    28.185313628    10.804000000    15.799117670   0   0   0 # sty
   2291      1   3  2.100000    25.730315677    14.405333333    15.962565409   0   0   0 # sty
   2292      1   3  2.100000    29.554362497    12.604666667    13.754750948   0   0   0 # sty
   2293      1   2 -1.050000    26.216940000    11.433330000    18.645522131   0   0   0 # oby
   2294      1   2 -1.050000    26.724563113    15.034663333    20.496205927   0   0   0 # oby
   2295      1   2 -1.050000    28.073490739    13.233996667    19.131249517   0   0   0 # oby
   2296      1   2 -1.050000    48.819544670    15.576670000    19.769839517   0   0   0 # oby
   2297      1   2 -1.050000    25.618492788    11.975336667    21.134795927   0   0   0 # oby
   2298      1   2 -1.050000    48.311921557    13.776003333    21.620523314   0   0   0 # oby
   2299      1   3  2.100000    25.730315677    10.804000000    20.051298853   0   0   0 # sty
   2300      1   3  2.100000    47.825297234    14.405333333    20.214746592   0   0   0 # sty
   2301      1   3  2.100000    27.099364547    12.604666667    18.006932131   0   0   0 # sty
   2302      1   2 -1.050000    48.311921557    11.433330000    22.897703314   0   0   0 # oby
   2303      1   2 -1.050000    48.819544670    15.034663333    24.748387110   0   0   0 # oby
   2304      1   2 -1.050000    25.618492788    13.233996667    23.383430700   0   0   0 # oby
   2305      1   2 -1.050000    46.364546719    15.576670000    24.022020700   0   0   0 # oby
   2306      1   2 -1.050000    47.713474345    11.975336667    25.386977110   0   0   0 # oby
   2307      1   2 -1.050000    45.856923606    13.776003333    25.872704497   0   0   0 # oby
   2308      1   3  2.100000    47.825297234    10.804000000    24.303480036   0   0   0 # sty
   2309      1   3  2.100000    45.370299283    14.405333333    24.466927775   0   0   0 # sty
   2310      1   3  2.100000    24.644366596    12.604666667    22.259113314   0   0   0 # sty
   2311      1   1 -0.950000    40.946927704    16.835330000     1.636797398   0   0   0 # ohy
   2312      1   2 -1.050000    41.454550818    20.436663333     3.487481195   0   0   0 # oby
   2313      1   1 -0.950000    42.803478443    18.635996667     2.122524785   0   0   0 # ohy
   2314      1   2 -1.050000    38.999552867    20.978670000     2.761114785   0   0   0 # oby
   2315      1   2 -1.050000    40.348480493    17.377336667     4.126071195   0   0   0 # oby
   2316      1   2 -1.050000    38.491929754    19.178003333     4.611798581   0   0   0 # oby
   2317      1   3  2.100000    40.460303382    16.206000000     3.042574120   0   0   0 # sty
   2318      1   3  2.100000    38.005305431    19.807333333     3.206021859   0   0   0 # sty
   2319      1   3  2.100000    27.099364547    18.006666667    26.511294497   0   0   0 # sty
   2320      1   2 -1.050000    38.491929754    16.835330000     5.888978581   0   0   0 # oby
   2321      1   2 -1.050000    38.999552867    20.436663333     7.739662378   0   0   0 # oby
   2322      1   2 -1.050000    40.348480493    18.635996667     6.374705968   0   0   0 # oby
   2323      1   2 -1.050000    36.544554916    20.978670000     7.013295968   0   0   0 # oby
   2324      1   2 -1.050000    37.893482542    17.377336667     8.378252378   0   0   0 # oby
   2325      1   2 -1.050000    36.036931803    19.178003333     8.863979764   0   0   0 # oby
   2326      1   3  2.100000    38.005305431    16.206000000     7.294755303   0   0   0 # sty
   2327      1   3  2.100000    35.550307480    19.807333333     7.458203042   0   0   0 # sty
   2328      1   3  2.100000    39.374354300    18.006666667     5.250388581   0   0   0 # sty
   2329      1   2 -1.050000    36.036931803    16.835330000    10.141159764   0   0   0 # oby
   2330      1   2 -1.050000    36.544554916    20.436663333    11.991843561   0   0   0 # oby
   2331      1   2 -1.050000    37.893482542    18.635996667    10.626887151   0   0   0 # oby
   2332      1   2 -1.050000    34.089556966    20.978670000    11.265477151   0   0   0 # oby
   2333      1   2 -1.050000    35.438484591    17.377336667    12.630433561   0   0   0 # oby
   2334      1   2 -1.050000    33.581933852    19.178003333    13.116160948   0   0   0 # oby
   2335      1   3  2.100000    35.550307480    16.206000000    11.546936487   0   0   0 # sty
   2336      1   3  2.100000    33.095309530    19.807333333    11.710384225   0   0   0 # sty
   2337      1   3  2.100000    36.919356350    18.006666667     9.502569764   0   0   0 # sty
   2338      1   2 -1.050000    33.581933852    16.835330000    14.393340948   0   0   0 # oby
   2339      1   2 -1.050000    34.089556966    20.436663333    16.244024744   0   0   0 # oby
   2340      1   2 -1.050000    35.438484591    18.635996667    14.879068334   0   0   0 # oby
   2341      1   2 -1.050000    31.634559015    20.978670000    15.517658334   0   0   0 # oby
   2342      1   2 -1.050000    32.983486640    17.377336667    16.882614744   0   0   0 # oby
   2343      1   2 -1.050000    31.126935901    19.178003333    17.368342131   0   0   0 # oby
   2344      1   3  2.100000    33.095309530    16.206000000    15.799117670   0   0   0 # sty
   2345      1   3  2.100000    30.640311579    19.807333333    15.962565409   0   0   0 # sty
   2346      1   3  2.100000    34.464358399    18.006666667    13.754750948   0   0   0 # sty
   2347      1   2 -1.050000    31.126935901    16.835330000    18.645522131   0   0   0 # oby
   2348      1   2 -1.050000    31.634559015    20.436663333    20.496205927   0   0   0 # oby
   2349      1   2 -1.050000    32.983486640    18.635996667    19.131249517   0   0   0 # oby
   2350      1   2 -1.050000    29.179561064    20.978670000    19.769839517   0   0   0 # oby
   2351      1   2 -1.050000    30.528488690    17.377336667    21.134795927   0   0   0 # oby
   2352      1   2 -1.050000    28.671937951    19.178003333    21.620523314   0   0   0 # oby
   2353      1   3  2.100000    30.640311579    16.206000000    20.051298853   0   0   0 # sty
   2354      1   3  2.100000    28.185313628    19.807333333    20.214746592   0   0   0 # sty
   2355      1   3  2.100000    32.009360448    18.006666667    18.006932131   0   0   0 # sty
   2356      1   2 -1.050000    28.671937951    16.835330000    22.897703314   0   0   0 # oby
   2357      1   2 -1.050000    29.179561064    20.436663333    24.748387110   0   0   0 # oby
   2358      1   2 -1.050000    30.528488690    18.635996667    23.383430700   0   0   0 # oby
   2359      1   2 -1.050000    26.724563113    20.978670000    24.022020700   0   0   0 # oby
   2360      1   2 -1.050000    28.073490739    17.377336667    25.386977110   0   0   0 # oby
   2361      1   2 -1.050000    26.216940000    19.178003333    25.872704497   0   0   0 # oby
   2362      1   3  2.100000    28.185313628    16.206000000    24.303480036   0   0   0 # sty
   2363      1   3  2.100000    25.730315677    19.807333333    24.466927775   0   0   0 # sty
   2364      1   3  2.100000    29.554362497    18.006666667    22.259113314   0   0   0 # sty
   2365      1   1 -0.950000    45.856923606    16.835330000     1.636797398   0   0   0 # ohy
   2366      1   2 -1.050000    46.364546719    20.436663333     3.487481195   0   0   0 # oby
   2367      1   1 -0.950000    47.713474345    18.635996667     2.122524785   0   0   0 # ohy
   2368      1   2 -1.050000    43.909548768    20.978670000     2.761114785   0   0   0 # oby
   2369      1   2 -1.050000    45.258476394    17.377336667     4.126071195   0   0   0 # oby
   2370      1   2 -1.050000    43.401925655    19.178003333     4.611798581   0   0   0 # oby
   2371      1   3  2.100000    45.370299283    16.206000000     3.042574120   0   0   0 # sty
   2372      1   3  2.100000    42.915301332    19.807333333     3.206021859   0   0   0 # sty
   2373      1   3  2.100000    32.009360448    18.006666667    26.511294497   0   0   0 # sty
   2374      1   2 -1.050000    43.401925655    16.835330000     5.888978581   0   0   0 # oby
   2375      1   2 -1.050000    43.909548768    20.436663333     7.739662378   0   0   0 # oby
   2376      1   2 -1.050000    45.258476394    18.635996667     6.374705968   0   0   0 # oby
   2377      1   2 -1.050000    41.454550818    20.978670000     7.013295968   0   0   0 # oby
   2378      1   2 -1.050000    42.803478443    17.377336667     8.378252378   0   0   0 # oby
   2379      1   2 -1.050000    40.946927704    19.178003333     8.863979764   0   0   0 # oby
   2380      1   3  2.100000    42.915301332    16.206000000     7.294755303   0   0   0 # sty
   2381      1   3  2.100000    40.460303382    19.807333333     7.458203042   0   0   0 # sty
   2382      1   3  2.100000    44.284350202    18.006666667     5.250388581   0   0   0 # sty
   2383      1   2 -1.050000    40.946927704    16.835330000    10.141159764   0   0   0 # oby
   2384      1   2 -1.050000    41.454550818    20.436663333    11.991843561   0   0   0 # oby
   2385      1   2 -1.050000    42.803478443    18.635996667    10.626887151   0   0   0 # oby
   2386      1   2 -1.050000    38.999552867    20.978670000    11.265477151   0   0   0 # oby
   2387      1   2 -1.050000    40.348480493    17.377336667    12.630433561   0   0   0 # oby
   2388      1   2 -1.050000    38.491929754    19.178003333    13.116160948   0   0   0 # oby
   2389      1   3  2.100000    40.460303382    16.206000000    11.546936487   0   0   0 # sty
   2390      1   3  2.100000    38.005305431    19.807333333    11.710384225   0   0   0 # sty
   2391      1   3  2.100000    41.829352251    18.006666667     9.502569764   0   0   0 # sty
   2392      1   2 -1.050000    38.491929754    16.835330000    14.393340948   0   0   0 # oby
   2393      1   2 -1.050000    38.999552867    20.436663333    16.244024744   0   0   0 # oby
   2394      1   2 -1.050000    40.348480493    18.635996667    14.879068334   0   0   0 # oby
   2395      1   2 -1.050000    36.544554916    20.978670000    15.517658334   0   0   0 # oby
   2396      1   2 -1.050000    37.893482542    17.377336667    16.882614744   0   0   0 # oby
   2397      1   2 -1.050000    36.036931803    19.178003333    17.368342131   0   0   0 # oby
   2398      1   3  2.100000    38.005305431    16.206000000    15.799117670   0   0   0 # sty
   2399      1   3  2.100000    35.550307480    19.807333333    15.962565409   0   0   0 # sty
   2400      1   3  2.100000    39.374354300    18.006666667    13.754750948   0   0   0 # sty
   2401      1   2 -1.050000    36.036931803    16.835330000    18.645522131   0   0   0 # oby
   2402      1   2 -1.050000    36.544554916    20.436663333    20.496205927   0   0   0 # oby
   2403      1   2 -1.050000    37.893482542    18.635996667    19.131249517   0   0   0 # oby
   2404      1   2 -1.050000    34.089556966    20.978670000    19.769839517   0   0   0 # oby
   2405      1   2 -1.050000    35.438484591    17.377336667    21.134795927   0   0   0 # oby
   2406      1   2 -1.050000    33.581933852    19.178003333    21.620523314   0   0   0 # oby
   2407      1   3  2.100000    35.550307480    16.206000000    20.051298853   0   0   0 # sty
   2408      1   3  2.100000    33.095309530    19.807333333    20.214746592   0   0   0 # sty
   2409      1   3  2.100000    36.919356350    18.006666667    18.006932131   0   0   0 # sty
   2410      1   2 -1.050000    33.581933852    16.835330000    22.897703314   0   0   0 # oby
   2411      1   2 -1.050000    34.089556966    20.436663333    24.748387110   0   0   0 # oby
   2412      1   2 -1.050000    35.438484591    18.635996667    23.383430700   0   0   0 # oby
   2413      1   2 -1.050000    31.634559015    20.978670000    24.022020700   0   0   0 # oby
   2414      1   2 -1.050000    32.983486640    17.377336667    25.386977110   0   0   0 # oby
   2415      1   2 -1.050000    31.126935901    19.178003333    25.872704497   0   0   0 # oby
   2416      1   3  2.100000    33.095309530    16.206000000    24.303480036   0   0   0 # sty
   2417      1   3  2.100000    30.640311579    19.807333333    24.466927775   0   0   0 # sty
   2418      1   3  2.100000    34.464358399    18.006666667    22.259113314   0   0   0 # sty
   2419      1   1 -0.950000    26.216940000    16.835330000     1.636797398   0   0   0 # ohy
   2420      1   2 -1.050000    26.724563113    20.436663333     3.487481195   0   0   0 # oby
   2421      1   1 -0.950000    28.073490739    18.635996667     2.122524785   0   0   0 # ohy
   2422      1   2 -1.050000    48.819544670    20.978670000     2.761114785   0   0   0 # oby
   2423      1   2 -1.050000    25.618492788    17.377336667     4.126071195   0   0   0 # oby
   2424      1   2 -1.050000    48.311921557    19.178003333     4.611798581   0   0   0 # oby
   2425      1   3  2.100000    25.730315677    16.206000000     3.042574120   0   0   0 # sty
   2426      1   3  2.100000    47.825297234    19.807333333     3.206021859   0   0   0 # sty
   2427      1   3  2.100000    36.919356350    18.006666667    26.511294497   0   0   0 # sty
   2428      1   2 -1.050000    48.311921557    16.835330000     5.888978581   0   0   0 # oby
   2429      1   2 -1.050000    48.819544670    20.436663333     7.739662378   0   0   0 # oby
   2430      1   2 -1.050000    25.618492788    18.635996667     6.374705968   0   0   0 # oby
   2431      1   2 -1.050000    46.364546719    20.978670000     7.013295968   0   0   0 # oby
   2432      1   2 -1.050000    47.713474345    17.377336667     8.378252378   0   0   0 # oby
   2433      1   2 -1.050000    45.856923606    19.178003333     8.863979764   0   0   0 # oby
   2434      1   3  2.100000    47.825297234    16.206000000     7.294755303   0   0   0 # sty
   2435      1   3  2.100000    45.370299283    19.807333333     7.458203042   0   0   0 # sty
   2436      1   3  2.100000    24.644366596    18.006666667     5.250388581   0   0   0 # sty
   2437      1   2 -1.050000    45.856923606    16.835330000    10.141159764   0   0   0 # oby
   2438      1   2 -1.050000    46.364546719    20.436663333    11.991843561   0   0   0 # oby
   2439      1   2 -1.050000    47.713474345    18.635996667    10.626887151   0   0   0 # oby
   2440      1   2 -1.050000    43.909548768    20.978670000    11.265477151   0   0   0 # oby
   2441      1   2 -1.050000    45.258476394    17.377336667    12.630433561   0   0   0 # oby
   2442      1   2 -1.050000    43.401925655    19.178003333    13.116160948   0   0   0 # oby
   2443      1   3  2.100000    45.370299283    16.206000000    11.546936487   0   0   0 # sty
   2444      1   3  2.100000    42.915301332    19.807333333    11.710384225   0   0   0 # sty
   2445      1   3  2.100000    46.739348153    18.006666667     9.502569764   0   0   0 # sty
   2446      1   2 -1.050000    43.401925655    16.835330000    14.393340948   0   0   0 # oby
   2447      1   2 -1.050000    43.909548768    20.436663333    16.244024744   0   0   0 # oby
   2448      1   2 -1.050000    45.258476394    18.635996667    14.879068334   0   0   0 # oby
   2449      1   2 -1.050000    41.454550818    20.978670000    15.517658334   0   0   0 # oby
   2450      1   2 -1.050000    42.803478443    17.377336667    16.882614744   0   0   0 # oby
   2451      1   2 -1.050000    40.946927704    19.178003333    17.368342131   0   0   0 # oby
   2452      1   3  2.100000    42.915301332    16.206000000    15.799117670   0   0   0 # sty
   2453      1   3  2.100000    40.460303382    19.807333333    15.962565409   0   0   0 # sty
   2454      1   3  2.100000    44.284350202    18.006666667    13.754750948   0   0   0 # sty
   2455      1   2 -1.050000    40.946927704    16.835330000    18.645522131   0   0   0 # oby
   2456      1   2 -1.050000    41.454550818    20.436663333    20.496205927   0   0   0 # oby
   2457      1   2 -1.050000    42.803478443    18.635996667    19.131249517   0   0   0 # oby
   2458      1   2 -1.050000    38.999552867    20.978670000    19.769839517   0   0   0 # oby
   2459      1   2 -1.050000    40.348480493    17.377336667    21.134795927   0   0   0 # oby
   2460      1   2 -1.050000    38.491929754    19.178003333    21.620523314   0   0   0 # oby
   2461      1   3  2.100000    40.460303382    16.206000000    20.051298853   0   0   0 # sty
   2462      1   3  2.100000    38.005305431    19.807333333    20.214746592   0   0   0 # sty
   2463      1   3  2.100000    41.829352251    18.006666667    18.006932131   0   0   0 # sty
   2464      1   2 -1.050000    38.491929754    16.835330000    22.897703314   0   0   0 # oby
   2465      1   2 -1.050000    38.999552867    20.436663333    24.748387110   0   0   0 # oby
   2466      1   2 -1.050000    40.348480493    18.635996667    23.383430700   0   0   0 # oby
   2467      1   2 -1.050000    36.544554916    20.978670000    24.022020700   0   0   0 # oby
   2468      1   2 -1.050000    37.893482542    17.377336667    25.386977110   0   0   0 # oby
   2469      1   2 -1.050000    36.036931803    19.178003333    25.872704497   0   0   0 # oby
   2470      1   3  2.100000    38.005305431    16.206000000    24.303480036   0   0   0 # sty
   2471      1   3  2.100000    35.550307480    19.807333333    24.466927775   0   0   0 # sty
   2472      1   3  2.100000    39.374354300    18.006666667    22.259113314   0   0   0 # sty
   2473      1   1 -0.950000    31.126935901    16.835330000     1.636797398   0   0   0 # ohy
   2474      1   2 -1.050000    31.634559015    20.436663333     3.487481195   0   0   0 # oby
   2475      1   1 -0.950000    32.983486640    18.635996667     2.122524785   0   0   0 # ohy
   2476      1   2 -1.050000    29.179561064    20.978670000     2.761114785   0   0   0 # oby
   2477      1   2 -1.050000    30.528488690    17.377336667     4.126071195   0   0   0 # oby
   2478      1   2 -1.050000    28.671937951    19.178003333     4.611798581   0   0   0 # oby
   2479      1   3  2.100000    30.640311579    16.206000000     3.042574120   0   0   0 # sty
   2480      1   3  2.100000    28.185313628    19.807333333     3.206021859   0   0   0 # sty
   2481      1   3  2.100000    41.829352251    18.006666667    26.511294497   0   0   0 # sty
   2482      1   2 -1.050000    28.671937951    16.835330000     5.888978581   0   0   0 # oby
   2483      1   2 -1.050000    29.179561064    20.436663333     7.739662378   0   0   0 # oby
   2484      1   2 -1.050000    30.528488690    18.635996667     6.374705968   0   0   0 # oby
   2485      1   2 -1.050000    26.724563113    20.978670000     7.013295968   0   0   0 # oby
   2486      1   2 -1.050000    28.073490739    17.377336667     8.378252378   0   0   0 # oby
   2487      1   2 -1.050000    26.216940000    19.178003333     8.863979764   0   0   0 # oby
   2488      1   3  2.100000    28.185313628    16.206000000     7.294755303   0   0   0 # sty
   2489      1   3  2.100000    25.730315677    19.807333333     7.458203042   0   0   0 # sty
   2490      1   3  2.100000    29.554362497    18.006666667     5.250388581   0   0   0 # sty
   2491      1   2 -1.050000    26.216940000    16.835330000    10.141159764   0   0   0 # oby
   2492      1   2 -1.050000    26.724563113    20.436663333    11.991843561   0   0   0 # oby
   2493      1   2 -1.050000    28.073490739    18.635996667    10.626887151   0   0   0 # oby
   2494      1   2 -1.050000    48.819544670    20.978670000    11.265477151   0   0   0 # oby
   2495      1   2 -1.050000    25.618492788    17.377336667    12.630433561   0   0   0 # oby
   2496      1   2 -1.050000    48.311921557    19.178003333    13.116160948   0   0   0 # oby
   2497      1   3  2.100000    25.730315677    16.206000000    11.546936487   0   0   0 # sty
   2498      1   3  2.100000    47.825297234    19.807333333    11.710384225   0   0   0 # sty
   2499      1   3  2.100000    27.099364547    18.006666667     9.502569764   0   0   0 # sty
   2500      1   2 -1.050000    48.311921557    16.835330000    14.393340948   0   0   0 # oby
   2501      1   2 -1.050000    48.819544670    20.436663333    16.244024744   0   0   0 # oby
   2502      1   2 -1.050000    25.618492788    18.635996667    14.879068334   0   0   0 # oby
   2503      1   2 -1.050000    46.364546719    20.978670000    15.517658334   0   0   0 # oby
   2504      1   2 -1.050000    47.713474345    17.377336667    16.882614744   0   0   0 # oby
   2505      1   2 -1.050000    45.856923606    19.178003333    17.368342131   0   0   0 # oby
   2506      1   3  2.100000    47.825297234    16.206000000    15.799117670   0   0   0 # sty
   2507      1   3  2.100000    45.370299283    19.807333333    15.962565409   0   0   0 # sty
   2508      1   3  2.100000    24.644366596    18.006666667    13.754750948   0   0   0 # sty
   2509      1   2 -1.050000    45.856923606    16.835330000    18.645522131   0   0   0 # oby
   2510      1   2 -1.050000    46.364546719    20.436663333    20.496205927   0   0   0 # oby
   2511      1   2 -1.050000    47.713474345    18.635996667    19.131249517   0   0   0 # oby
   2512      1   2 -1.050000    43.909548768    20.978670000    19.769839517   0   0   0 # oby
   2513      1   2 -1.050000    45.258476394    17.377336667    21.134795927   0   0   0 # oby
   2514      1   2 -1.050000    43.401925655    19.178003333    21.620523314   0   0   0 # oby
   2515      1   3  2.100000    45.370299283    16.206000000    20.051298853   0   0   0 # sty
   2516      1   3  2.100000    42.915301332    19.807333333    20.214746592   0   0   0 # sty
   2517      1   3  2.100000    46.739348153    18.006666667    18.006932131   0   0   0 # sty
   2518      1   2 -1.050000    43.401925655    16.835330000    22.897703314   0   0   0 # oby
   2519      1   2 -1.050000    43.909548768    20.436663333    24.748387110   0   0   0 # oby
   2520      1   2 -1.050000    45.258476394    18.635996667    23.383430700   0   0   0 # oby
   2521      1   2 -1.050000    41.454550818    20.978670000    24.022020700   0   0   0 # oby
   2522      1   2 -1.050000    42.803478443    17.377336667    25.386977110   0   0   0 # oby
   2523      1   2 -1.050000    40.946927704    19.178003333    25.872704497   0   0   0 # oby
   2524      1   3  2.100000    42.915301332    16.206000000    24.303480036   0   0   0 # sty
   2525      1   3  2.100000    40.460303382    19.807333333    24.466927775   0   0   0 # sty
   2526      1   3  2.100000    44.284350202    18.006666667    22.259113314   0   0   0 # sty
   2527      1   1 -0.950000    36.036931803    16.835330000     1.636797398   0   0   0 # ohy
   2528      1   2 -1.050000    36.544554916    20.436663333     3.487481195   0   0   0 # oby
   2529      1   1 -0.950000    37.893482542    18.635996667     2.122524785   0   0   0 # ohy
   2530      1   2 -1.050000    34.089556966    20.978670000     2.761114785   0   0   0 # oby
   2531      1   2 -1.050000    35.438484591    17.377336667     4.126071195   0   0   0 # oby
   2532      1   2 -1.050000    33.581933852    19.178003333     4.611798581   0   0   0 # oby
   2533      1   3  2.100000    35.550307480    16.206000000     3.042574120   0   0   0 # sty
   2534      1   3  2.100000    33.095309530    19.807333333     3.206021859   0   0   0 # sty
   2535      1   3  2.100000    46.739348153    18.006666667    26.511294497   0   0   0 # sty
   2536      1   2 -1.050000    33.581933852    16.835330000     5.888978581   0   0   0 # oby
   2537      1   2 -1.050000    34.089556966    20.436663333     7.739662378   0   0   0 # oby
   2538      1   2 -1.050000    35.438484591    18.635996667     6.374705968   0   0   0 # oby
   2539      1   2 -1.050000    31.634559015    20.978670000     7.013295968   0   0   0 # oby
   2540      1   2 -1.050000    32.983486640    17.377336667     8.378252378   0   0   0 # oby
   2541      1   2 -1.050000    31.126935901    19.178003333     8.863979764   0   0   0 # oby
   2542      1   3  2.100000    33.095309530    16.206000000     7.294755303   0   0   0 # sty
   2543      1   3  2.100000    30.640311579    19.807333333     7.458203042   0   0   0 # sty
   2544      1   3  2.100000    34.464358399    18.006666667     5.250388581   0   0   0 # sty
   2545      1   2 -1.050000    31.126935901    16.835330000    10.141159764   0   0   0 # oby
   2546      1   2 -1.050000    31.634559015    20.436663333    11.991843561   0   0   0 # oby
   2547      1   2 -1.050000    32.983486640    18.635996667    10.626887151   0   0   0 # oby
   2548      1   2 -1.050000    29.179561064    20.978670000    11.265477151   0   0   0 # oby
   2549      1   2 -1.050000    30.528488690    17.377336667    12.630433561   0   0   0 # oby
   2550      1   2 -1.050000    28.671937951    19.178003333    13.116160948   0   0   0 # oby
   2551      1   3  2.100000    30.640311579    16.206000000    11.546936487   0   0   0 # sty
   2552      1   3  2.100000    28.185313628    19.807333333    11.710384225   0   0   0 # sty
   2553      1   3  2.100000    32.009360448    18.006666667     9.502569764   0   0   0 # sty
   2554      1   2 -1.050000    28.671937951    16.835330000    14.393340948   0   0   0 # oby
   2555      1   2 -1.050000    29.179561064    20.436663333    16.244024744   0   0   0 # oby
   2556      1   2 -1.050000    30.528488690    18.635996667    14.879068334   0   0   0 # oby
   2557      1   2 -1.050000    26.724563113    20.978670000    15.517658334   0   0   0 # oby
   2558      1   2 -1.050000    28.073490739    17.377336667    16.882614744   0   0   0 # oby
   2559      1   2 -1.050000    26.216940000    19.178003333    17.368342131   0   0   0 # oby
   2560      1   3  2.100000    28.185313628    16.206000000    15.799117670   0   0   0 # sty
   2561      1   3  2.100000    25.730315677    19.807333333    15.962565409   0   0   0 # sty
   2562      1   3  2.100000    29.554362497    18.006666667    13.754750948   0   0   0 # sty
   2563      1   2 -1.050000    26.216940000    16.835330000    18.645522131   0   0   0 # oby
   2564      1   2 -1.050000    26.724563113    20.436663333    20.496205927   0   0   0 # oby
   2565      1   2 -1.050000    28.073490739    18.635996667    19.131249517   0   0   0 # oby
   2566      1   2 -1.050000    48.819544670    20.978670000    19.769839517   0   0   0 # oby
   2567      1   2 -1.050000    25.618492788    17.377336667    21.134795927   0   0   0 # oby
   2568      1   2 -1.050000    48.311921557    19.178003333    21.620523314   0   0   0 # oby
   2569      1   3  2.100000    25.730315677    16.206000000    20.051298853   0   0   0 # sty
   2570      1   3  2.100000    47.825297234    19.807333333    20.214746592   0   0   0 # sty
   2571      1   3  2.100000    27.099364547    18.006666667    18.006932131   0   0   0 # sty
   2572      1   2 -1.050000    48.311921557    16.835330000    22.897703314   0   0   0 # oby
   2573      1   2 -1.050000    48.819544670    20.436663333    24.748387110   0   0   0 # oby
   2574      1   2 -1.050000    25.618492788    18.635996667    23.383430700   0   0   0 # oby
   2575      1   2 -1.050000    46.364546719    20.978670000    24.022020700   0   0   0 # oby
   2576      1   2 -1.050000    47.713474345    17.377336667    25.386977110   0   0   0 # oby
   2577      1   2 -1.050000    45.856923606    19.178003333    25.872704497   0   0   0 # oby
   2578      1   3  2.100000    47.825297234    16.206000000    24.303480036   0   0   0 # sty
   2579      1   3  2.100000    45.370299283    19.807333333    24.466927775   0   0   0 # sty
   2580      1   3  2.100000    24.644366596    18.006666667    22.259113314   0   0   0 # sty
   2581      1   1 -0.950000    40.946927704    22.237330000     1.636797398   0   0   0 # ohy
   2582      1   2 -1.050000    41.454550818    25.838663333     3.487481195   0   0   0 # oby
   2583      1   1 -0.950000    42.803478443    24.037996667     2.122524785   0   0   0 # ohy
   2584      1   2 -1.050000    38.999552867    26.380670000     2.761114785   0   0   0 # oby
   2585      1   2 -1.050000    40.348480493    22.779336667     4.126071195   0   0   0 # oby
   2586      1   2 -1.050000    38.491929754    24.580003333     4.611798581   0   0   0 # oby
   2587      1   3  2.100000    40.460303382    21.608000000     3.042574120   0   0   0 # sty
   2588      1   3  2.100000    38.005305431    25.209333333     3.206021859   0   0   0 # sty
   2589      1   3  2.100000    27.099364547    23.408666667    26.511294497   0   0   0 # sty
   2590      1   2 -1.050000    38.491929754    22.237330000     5.888978581   0   0   0 # oby
   2591      1   2 -1.050000    38.999552867    25.838663333     7.739662378   0   0   0 # oby
   2592      1   2 -1.050000    40.348480493    24.037996667     6.374705968   0   0   0 # oby
   2593      1   2 -1.050000    36.544554916    26.380670000     7.013295968   0   0   0 # oby
   2594      1   2 -1.050000    37.893482542    22.779336667     8.378252378   0   0   0 # oby
   2595      1   2 -1.050000    36.036931803    24.580003333     8.863979764   0   0   0 # oby
   2596      1   3  2.100000    38.005305431    21.608000000     7.294755303   0   0   0 # sty
   2597      1   3  2.100000    35.550307480    25.209333333     7.458203042   0   0   0 # sty
   2598      1   3  2.100000    39.374354300    23.408666667     5.250388581   0   0   0 # sty
   2599      1   2 -1.050000    36.036931803    22.237330000    10.141159764   0   0   0 # oby
   2600      1   2 -1.050000    36.544554916    25.838663333    11.991843561   0   0   0 # oby
   2601      1   2 -1.050000    37.893482542    24.037996667    10.626887151   0   0   0 # oby
   2602      1   2 -1.050000    34.089556966    26.380670000    11.265477151   0   0   0 # oby
   2603      1   2 -1.050000    35.438484591    22.779336667    12.630433561   0   0   0 # oby
   2604      1   2 -1.050000    33.581933852    24.580003333    13.116160948   0   0   0 # oby
   2605      1   3  2.100000    35.550307480    21.608000000    11.546936487   0   0   0 # sty
   2606      1   3  2.100000    33.095309530    25.209333333    11.710384225   0   0   0 # sty
   2607      1   3  2.100000    36.919356350    23.408666667     9.502569764   0   0   0 # sty
   2608      1   2 -1.050000    33.581933852    22.237330000    14.393340948   0   0   0 # oby
   2609      1   2 -1.050000    34.089556966    25.838663333    16.244024744   0   0   0 # oby
   2610      1   2 -1.050000    35.438484591    24.037996667    14.879068334   0   0   0 # oby
   2611      1   2 -1.050000    31.634559015    26.380670000    15.517658334   0   0   0 # oby
   2612      1   2 -1.050000    32.983486640    22.779336667    16.882614744   0   0   0 # oby
   2613      1   2 -1.050000    31.126935901    24.580003333    17.368342131   0   0   0 # oby
   2614      1   3  2.100000    33.095309530    21.608000000    15.799117670   0   0   0 # sty
   2615      1   3  2.100000    30.640311579    25.209333333    15.962565409   0   0   0 # sty
   2616      1   3  2.100000    34.464358399    23.408666667    13.754750948   0   0   0 # sty
   2617      1   2 -1.050000    31.126935901    22.237330000    18.645522131   0   0   0 # oby
   2618      1   2 -1.050000    31.634559015    25.838663333    20.496205927   0   0   0 # oby
   2619      1   2 -1.050000    32.983486640    24.037996667    19.131249517   0   0   0 # oby
   2620      1   2 -1.050000    29.179561064    26.380670000    19.769839517   0   0   0 # oby
   2621      1   2 -1.050000    30.528488690    22.779336667    21.134795927   0   0   0 # oby
   2622      1   2 -1.050000    28.671937951    24.580003333    21.620523314   0   0   0 # oby
   2623      1   3  2.100000    30.640311579    21.608000000    20.051298853   0   0   0 # sty
   2624      1   3  2.100000    28.185313628    25.209333333    20.214746592   0   0   0 # sty
   2625      1   3  2.100000    32.009360448    23.408666667    18.006932131   0   0   0 # sty
   2626      1   2 -1.050000    28.671937951    22.237330000    22.897703314   0   0   0 # oby
   2627      1   2 -1.050000    29.179561064    25.838663333    24.748387110   0   0   0 # oby
   2628      1   2 -1.050000    30.528488690    24.037996667    23.383430700   0   0   0 # oby
   2629      1   2 -1.050000    26.724563113    26.380670000    24.022020700   0   0   0 # oby
   2630      1   2 -1.050000    28.073490739    22.779336667    25.386977110   0   0   0 # oby
   2631      1   2 -1.050000    26.216940000    24.580003333    25.872704497   0   0   0 # oby
   2632      1   3  2.100000    28.185313628    21.608000000    24.303480036   0   0   0 # sty
   2633      1   3  2.100000    25.730315677    25.209333333    24.466927775   0   0   0 # sty
   2634      1   3  2.100000    29.554362497    23.408666667    22.259113314   0   0   0 # sty
   2635      1   1 -0.950000    45.856923606    22.237330000     1.636797398   0   0   0 # ohy
   2636      1   2 -1.050000    46.364546719    25.838663333     3.487481195   0   0   0 # oby
   2637      1   1 -0.950000    47.713474345    24.037996667     2.122524785   0   0   0 # ohy
   2638      1   2 -1.050000    43.909548768    26.380670000     2.761114785   0   0   0 # oby
   2639      1   2 -1.050000    45.258476394    22.779336667     4.126071195   0   0   0 # oby
   2640      1   2 -1.050000    43.401925655    24.580003333     4.611798581   0   0   0 # oby
   2641      1   3  2.100000    45.370299283    21.608000000     3.042574120   0   0   0 # sty
   2642      1   3  2.100000    42.915301332    25.209333333     3.206021859   0   0   0 # sty
   2643      1   3  2.100000    32.009360448    23.408666667    26.511294497   0   0   0 # sty
   2644      1   2 -1.050000    43.401925655    22.237330000     5.888978581   0   0   0 # oby
   2645      1   2 -1.050000    43.909548768    25.838663333     7.739662378   0   0   0 # oby
   2646      1   2 -1.050000    45.258476394    24.037996667     6.374705968   0   0   0 # oby
   2647      1   2 -1.050000    41.454550818    26.380670000     7.013295968   0   0   0 # oby
   2648      1   2 -1.050000    42.803478443    22.779336667     8.378252378   0   0   0 # oby
   2649      1   2 -1.050000    40.946927704    24.580003333     8.863979764   0   0   0 # oby
   2650      1   3  2.100000    42.915301332    21.608000000     7.294755303   0   0   0 # sty
   2651      1   3  2.100000    40.460303382    25.209333333     7.458203042   0   0   0 # sty
   2652      1   3  2.100000    44.284350202    23.408666667     5.250388581   0   0   0 # sty
   2653      1   2 -1.050000    40.946927704    22.237330000    10.141159764   0   0   0 # oby
   2654      1   2 -1.050000    41.454550818    25.838663333    11.991843561   0   0   0 # oby
   2655      1   2 -1.050000    42.803478443    24.037996667    10.626887151   0   0   0 # oby
   2656      1   2 -1.050000    38.999552867    26.380670000    11.265477151   0   0   0 # oby
   2657      1   2 -1.050000    40.348480493    22.779336667    12.630433561   0   0   0 # oby
   2658      1   2 -1.050000    38.491929754    24.580003333    13.116160948   0   0   0 # oby
   2659      1   3  2.100000    40.460303382    21.608000000    11.546936487   0   0   0 # sty
   2660      1   3  2.100000    38.005305431    25.209333333    11.710384225   0   0   0 # sty
   2661      1   3  2.100000    41.829352251    23.408666667     9.502569764   0   0   0 # sty
   2662      1   2 -1.050000    38.491929754    22.237330000    14.393340948   0   0   0 # oby
   2663      1   2 -1.050000    38.999552867    25.838663333    16.244024744   0   0   0 # oby
   2664      1   2 -1.050000    40.348480493    24.037996667    14.879068334   0   0   0 # oby
   2665      1   2 -1.050000    36.544554916    26.380670000    15.517658334   0   0   0 # oby
   2666      1   2 -1.050000    37.893482542    22.779336667    16.882614744   0   0   0 # oby
   2667      1   2 -1.050000    36.036931803    24.580003333    17.368342131   0   0   0 # oby
   2668      1   3  2.100000    38.005305431    21.608000000    15.799117670   0   0   0 # sty
   2669      1   3  2.100000    35.550307480    25.209333333    15.962565409   0   0   0 # sty
   2670      1   3  2.100000    39.374354300    23.408666667    13.754750948   0   0   0 # sty
   2671      1   2 -1.050000    36.036931803    22.237330000    18.645522131   0   0   0 # oby
   2672      1   2 -1.050000    36.544554916    25.838663333    20.496205927   0   0   0 # oby
   2673      1   2 -1.050000    37.893482542    24.037996667    19.131249517   0   0   0 # oby
   2674      1   2 -1.050000    34.089556966    26.380670000    19.769839517   0   0   0 # oby
   2675      1   2 -1.050000    35.438484591    22.779336667    21.134795927   0   0   0 # oby
   2676      1   2 -1.050000    33.581933852    24.580003333    21.620523314   0   0   0 # oby
   2677      1   3  2.100000    35.550307480    21.608000000    20.051298853   0   0   0 # sty
   2678      1   3  2.100000    33.095309530    25.209333333    20.214746592   0   0   0 # sty
   2679      1   3  2.100000    36.919356350    23.408666667    18.006932131   0   0   0 # sty
   2680      1   2 -1.050000    33.581933852    22.237330000    22.897703314   0   0   0 # oby
   2681      1   2 -1.050000    34.089556966    25.838663333    24.748387110   0   0   0 # oby
   2682      1   2 -1.050000    35.438484591    24.037996667    23.383430700   0   0   0 # oby
   2683      1   2 -1.050000    31.634559015    26.380670000    24.022020700   0   0   0 # oby
   2684      1   2 -1.050000    32.983486640    22.779336667    25.386977110   0   0   0 # oby
   2685      1   2 -1.050000    31.126935901    24.580003333    25.872704497   0   0   0 # oby
   2686      1   3  2.100000    33.095309530    21.608000000    24.303480036   0   0   0 # sty
   2687      1   3  2.100000    30.640311579    25.209333333    24.466927775   0   0   0 # sty
   2688      1   3  2.100000    34.464358399    23.408666667    22.259113314   0   0   0 # sty
   2689      1   1 -0.950000    26.216940000    22.237330000     1.636797398   0   0   0 # ohy
   2690      1   2 -1.050000    26.724563113    25.838663333     3.487481195   0   0   0 # oby
   2691      1   1 -0.950000    28.073490739    24.037996667     2.122524785   0   0   0 # ohy
   2692      1   2 -1.050000    48.819544670    26.380670000     2.761114785   0   0   0 # oby
   2693      1   2 -1.050000    25.618492788    22.779336667     4.126071195   0   0   0 # oby
   2694      1   2 -1.050000    48.311921557    24.580003333     4.611798581   0   0   0 # oby
   2695      1   3  2.100000    25.730315677    21.608000000     3.042574120   0   0   0 # sty
   2696      1   3  2.100000    47.825297234    25.209333333     3.206021859   0   0   0 # sty
   2697      1   3  2.100000    36.919356350    23.408666667    26.511294497   0   0   0 # sty
   2698      1   2 -1.050000    48.311921557    22.237330000     5.888978581   0   0   0 # oby
   2699      1   2 -1.050000    48.819544670    25.838663333     7.739662378   0   0   0 # oby
   2700      1   2 -1.050000    25.618492788    24.037996667     6.374705968   0   0   0 # oby
   2701      1   2 -1.050000    46.364546719    26.380670000     7.013295968   0   0   0 # oby
   2702      1   2 -1.050000    47.713474345    22.779336667     8.378252378   0   0   0 # oby
   2703      1   2 -1.050000    45.856923606    24.580003333     8.863979764   0   0   0 # oby
   2704      1   3  2.100000    47.825297234    21.608000000     7.294755303   0   0   0 # sty
   2705      1   3  2.100000    45.370299283    25.209333333     7.458203042   0   0   0 # sty
   2706      1   3  2.100000    24.644366596    23.408666667     5.250388581   0   0   0 # sty
   2707      1   2 -1.050000    45.856923606    22.237330000    10.141159764   0   0   0 # oby
   2708      1   2 -1.050000    46.364546719    25.838663333    11.991843561   0   0   0 # oby
   2709      1   2 -1.050000    47.713474345    24.037996667    10.626887151   0   0   0 # oby
   2710      1   2 -1.050000    43.909548768    26.380670000    11.265477151   0   0   0 # oby
   2711      1   2 -1.050000    45.258476394    22.779336667    12.630433561   0   0   0 # oby
   2712      1   2 -1.050000    43.401925655    24.580003333    13.116160948   0   0   0 # oby
   2713      1   3  2.100000    45.370299283    21.608000000    11.546936487   0   0   0 # sty
   2714      1   3  2.100000    42.915301332    25.209333333    11.710384225   0   0   0 # sty
   2715      1   3  2.100000    46.739348153    23.408666667     9.502569764   0   0   0 # sty
   2716      1   2 -1.050000    43.401925655    22.237330000    14.393340948   0   0   0 # oby
   2717      1   2 -1.050000    43.909548768    25.838663333    16.244024744   0   0   0 # oby
   2718      1   2 -1.050000    45.258476394    24.037996667    14.879068334   0   0   0 # oby
   2719      1   2 -1.050000    41.454550818    26.380670000    15.517658334   0   0   0 # oby
   2720      1   2 -1.050000    42.803478443    22.779336667    16.882614744   0   0   0 # oby
   2721      1   2 -1.050000    40.946927704    24.580003333    17.368342131   0   0   0 # oby
   2722      1   3  2.100000    42.915301332    21.608000000    15.799117670   0   0   0 # sty
   2723      1   3  2.100000    40.460303382    25.209333333    15.962565409   0   0   0 # sty
   2724      1   3  2.100000    44.284350202    23.408666667    13.754750948   0   0   0 # sty
   2725      1   2 -1.050000    40.946927704    22.237330000    18.645522131   0   0   0 # oby
   2726      1   2 -1.050000    41.454550818    25.838663333    20.496205927   0   0   0 # oby
   2727      1   2 -1.050000    42.803478443    24.037996667    19.131249517   0   0   0 # oby
   2728      1   2 -1.050000    38.999552867    26.380670000    19.769839517   0   0   0 # oby
   2729      1   2 -1.050000    40.348480493    22.779336667    21.134795927   0   0   0 # oby
   2730      1   2 -1.050000    38.491929754    24.580003333    21.620523314   0   0   0 # oby
   2731      1   3  2.100000    40.460303382    21.608000000    20.051298853   0   0   0 # sty
   2732      1   3  2.100000    38.005305431    25.209333333    20.214746592   0   0   0 # sty
   2733      1   3  2.100000    41.829352251    23.408666667    18.006932131   0   0   0 # sty
   2734      1   2 -1.050000    38.491929754    22.237330000    22.897703314   0   0   0 # oby
   2735      1   2 -1.050000    38.999552867    25.838663333    24.748387110   0   0   0 # oby
   2736      1   2 -1.050000    40.348480493    24.037996667    23.383430700   0   0   0 # oby
   2737      1   2 -1.050000    36.544554916    26.380670000    24.022020700   0   0   0 # oby
   2738      1   2 -1.050000    37.893482542    22.779336667    25.386977110   0   0   0 # oby
   2739      1   2 -1.050000    36.036931803    24.580003333    25.872704497   0   0   0 # oby
   2740      1   3  2.100000    38.005305431    21.608000000    24.303480036   0   0   0 # sty
   2741      1   3  2.100000    35.550307480    25.209333333    24.466927775   0   0   0 # sty
   2742      1   3  2.100000    39.374354300    23.408666667    22.259113314   0   0   0 # sty
   2743      1   1 -0.950000    31.126935901    22.237330000     1.636797398   0   0   0 # ohy
   2744      1   2 -1.050000    31.634559015    25.838663333     3.487481195   0   0   0 # oby
   2745      1   1 -0.950000    32.983486640    24.037996667     2.122524785   0   0   0 # ohy
   2746      1   2 -1.050000    29.179561064    26.380670000     2.761114785   0   0   0 # oby
   2747      1   2 -1.050000    30.528488690    22.779336667     4.126071195   0   0   0 # oby
   2748      1   2 -1.050000    28.671937951    24.580003333     4.611798581   0   0   0 # oby
   2749      1   3  2.100000    30.640311579    21.608000000     3.042574120   0   0   0 # sty
   2750      1   3  2.100000    28.185313628    25.209333333     3.206021859   0   0   0 # sty
   2751      1   3  2.100000    41.829352251    23.408666667    26.511294497   0   0   0 # sty
   2752      1   2 -1.050000    28.671937951    22.237330000     5.888978581   0   0   0 # oby
   2753      1   2 -1.050000    29.179561064    25.838663333     7.739662378   0   0   0 # oby
   2754      1   2 -1.050000    30.528488690    24.037996667     6.374705968   0   0   0 # oby
   2755      1   2 -1.050000    26.724563113    26.380670000     7.013295968   0   0   0 # oby
   2756      1   2 -1.050000    28.073490739    22.779336667     8.378252378   0   0   0 # oby
   2757      1   2 -1.050000    26.216940000    24.580003333     8.863979764   0   0   0 # oby
   2758      1   3  2.100000    28.185313628    21.608000000     7.294755303   0   0   0 # sty
   2759      1   3  2.100000    25.730315677    25.209333333     7.458203042   0   0   0 # sty
   2760      1   3  2.100000    29.554362497    23.408666667     5.250388581   0   0   0 # sty
   2761      1   2 -1.050000    26.216940000    22.237330000    10.141159764   0   0   0 # oby
   2762      1   2 -1.050000    26.724563113    25.838663333    11.991843561   0   0   0 # oby
   2763      1   2 -1.050000    28.073490739    24.037996667    10.626887151   0   0   0 # oby
   2764      1   2 -1.050000    48.819544670    26.380670000    11.265477151   0   0   0 # oby
   2765      1   2 -1.050000    25.618492788    22.779336667    12.630433561   0   0   0 # oby
   2766      1   2 -1.050000    48.311921557    24.580003333    13.116160948   0   0   0 # oby
   2767      1   3  2.100000    25.730315677    21.608000000    11.546936487   0   0   0 # sty
   2768      1   3  2.100000    47.825297234    25.209333333    11.710384225   0   0   0 # sty
   2769      1   3  2.100000    27.099364547    23.408666667     9.502569764   0   0   0 # sty
   2770      1   2 -1.050000    48.311921557    22.237330000    14.393340948   0   0   0 # oby
   2771      1   2 -1.050000    48.819544670    25.838663333    16.244024744   0   0   0 # oby
   2772      1   2 -1.050000    25.618492788    24.037996667    14.879068334   0   0   0 # oby
   2773      1   2 -1.050000    46.364546719    26.380670000    15.517658334   0   0   0 # oby
   2774      1   2 -1.050000    47.713474345    22.779336667    16.882614744   0   0   0 # oby
   2775      1   2 -1.050000    45.856923606    24.580003333    17.368342131   0   0   0 # oby
   2776      1   3  2.100000    47.825297234    21.608000000    15.799117670   0   0   0 # sty
   2777      1   3  2.100000    45.370299283    25.209333333    15.962565409   0   0   0 # sty
   2778      1   3  2.100000    24.644366596    23.408666667    13.754750948   0   0   0 # sty
   2779      1   2 -1.050000    45.856923606    22.237330000    18.645522131   0   0   0 # oby
   2780      1   2 -1.050000    46.364546719    25.838663333    20.496205927   0   0   0 # oby
   2781      1   2 -1.050000    47.713474345    24.037996667    19.131249517   0   0   0 # oby
   2782      1   2 -1.050000    43.909548768    26.380670000    19.769839517   0   0   0 # oby
   2783      1   2 -1.050000    45.258476394    22.779336667    21.134795927   0   0   0 # oby
   2784      1   2 -1.050000    43.401925655    24.580003333    21.620523314   0   0   0 # oby
   2785      1   3  2.100000    45.370299283    21.608000000    20.051298853   0   0   0 # sty
   2786      1   3  2.100000    42.915301332    25.209333333    20.214746592   0   0   0 # sty
   2787      1   3  2.100000    46.739348153    23.408666667    18.006932131   0   0   0 # sty
   2788      1   2 -1.050000    43.401925655    22.237330000    22.897703314   0   0   0 # oby
   2789      1   2 -1.050000    43.909548768    25.838663333    24.748387110   0   0   0 # oby
   2790      1   2 -1.050000    45.258476394    24.037996667    23.383430700   0   0   0 # oby
   2791      1   2 -1.050000    41.454550818    26.380670000    24.022020700   0   0   0 # oby
   2792      1   2 -1.050000    42.803478443    22.779336667    25.386977110   0   0   0 # oby
   2793      1   2 -1.050000    40.946927704    24.580003333    25.872704497   0   0   0 # oby
   2794      1   3  2.100000    42.915301332    21.608000000    24.303480036   0   0   0 # sty
   2795      1   3  2.100000    40.460303382    25.209333333    24.466927775   0   0   0 # sty
   2796      1   3  2.100000    44.284350202    23.408666667    22.259113314   0   0   0 # sty
   2797      1   1 -0.950000    36.036931803    22.237330000     1.636797398   0   0   0 # ohy
   2798      1   2 -1.050000    36.544554916    25.838663333     3.487481195   0   0   0 # oby
   2799      1   1 -0.950000    37.893482542    24.037996667     2.122524785   0   0   0 # ohy
   2800      1   2 -1.050000    34.089556966    26.380670000     2.761114785   0   0   0 # oby
   2801      1   2 -1.050000    35.438484591    22.779336667     4.126071195   0   0   0 # oby
   2802      1   2 -1.050000    33.581933852    24.580003333     4.611798581   0   0   0 # oby
   2803      1   3  2.100000    35.550307480    21.608000000     3.042574120   0   0   0 # sty
   2804      1   3  2.100000    33.095309530    25.209333333     3.206021859   0   0   0 # sty
   2805      1   3  2.100000    46.739348153    23.408666667    26.511294497   0   0   0 # sty
   2806      1   2 -1.050000    33.581933852    22.237330000     5.888978581   0   0   0 # oby
   2807      1   2 -1.050000    34.089556966    25.838663333     7.739662378   0   0   0 # oby
   2808      1   2 -1.050000    35.438484591    24.037996667     6.374705968   0   0   0 # oby
   2809      1   2 -1.050000    31.634559015    26.380670000     7.013295968   0   0   0 # oby
   2810      1   2 -1.050000    32.983486640    22.779336667     8.378252378   0   0   0 # oby
   2811      1   2 -1.050000    31.126935901    24.580003333     8.863979764   0   0   0 # oby
   2812      1   3  2.100000    33.095309530    21.608000000     7.294755303   0   0   0 # sty
   2813      1   3  2.100000    30.640311579    25.209333333     7.458203042   0   0   0 # sty
   2814      1   3  2.100000    34.464358399    23.408666667     5.250388581   0   0   0 # sty
   2815      1   2 -1.050000    31.126935901    22.237330000    10.141159764   0   0   0 # oby
   2816      1   2 -1.050000    31.634559015    25.838663333    11.991843561   0   0   0 # oby
   2817      1   2 -1.050000    32.983486640    24.037996667    10.626887151   0   0   0 # oby
   2818      1   2 -1.050000    29.179561064    26.380670000    11.265477151   0   0   0 # oby
   2819      1   2 -1.050000    30.528488690    22.779336667    12.630433561   0   0   0 # oby
   2820      1   2 -1.050000    28.671937951    24.580003333    13.116160948   0   0   0 # oby
   2821      1   3  2.100000    30.640311579    21.608000000    11.546936487   0   0   0 # sty
   2822      1   3  2.100000    28.185313628    25.209333333    11.710384225   0   0   0 # sty
   2823      1   3  2.100000    32.009360448    23.408666667     9.502569764   0   0   0 # sty
   2824      1   2 -1.050000    28.671937951    22.237330000    14.393340948   0   0   0 # oby
   2825      1   2 -1.050000    29.179561064    25.838663333    16.244024744   0   0   0 # oby
   2826      1   2 -1.050000    30.528488690    24.037996667    14.879068334   0   0   0 # oby
   2827      1   2 -1.050000    26.724563113    26.380670000    15.517658334   0   0   0 # oby
   2828      1   2 -1.050000    28.073490739    22.779336667    16.882614744   0   0   0 # oby
   2829      1   2 -1.050000    26.216940000    24.580003333    17.368342131   0   0   0 # oby
   2830      1   3  2.100000    28.185313628    21.608000000    15.799117670   0   0   0 # sty
   2831      1   3  2.100000    25.730315677    25.209333333    15.962565409   0   0   0 # sty
   2832      1   3  2.100000    29.554362497    23.408666667    13.754750948   0   0   0 # sty
   2833      1   2 -1.050000    26.216940000    22.237330000    18.645522131   0   0   0 # oby
   2834      1   2 -1.050000    26.724563113    25.838663333    20.496205927   0   0   0 # oby
   2835      1   2 -1.050000    28.073490739    24.037996667    19.131249517   0   0   0 # oby
   2836      1   2 -1.050000    48.819544670    26.380670000    19.769839517   0   0   0 # oby
   2837      1   2 -1.050000    25.618492788    22.779336667    21.134795927   0   0   0 # oby
   2838      1   2 -1.050000    48.311921557    24.580003333    21.620523314   0   0   0 # oby
   2839      1   3  2.100000    25.730315677    21.608000000    20.051298853   0   0   0 # sty
   2840      1   3  2.100000    47.825297234    25.209333333    20.214746592   0   0   0 # sty
   2841      1   3  2.100000    27.099364547    23.408666667    18.006932131   0   0   0 # sty
   2842      1   2 -1.050000    48.311921557    22.237330000    22.897703314   0   0   0 # oby
   2843      1   2 -1.050000    48.819544670    25.838663333    24.748387110   0   0   0 # oby
   2844      1   2 -1.050000    25.618492788    24.037996667    23.383430700   0   0   0 # oby
   2845      1   2 -1.050000    46.364546719    26.380670000    24.022020700   0   0   0 # oby
   2846      1   2 -1.050000    47.713474345    22.779336667    25.386977110   0   0   0 # oby
   2847      1   2 -1.050000    45.856923606    24.580003333    25.872704497   0   0   0 # oby
   2848      1   3  2.100000    47.825297234    21.608000000    24.303480036   0   0   0 # sty
   2849      1   3  2.100000    45.370299283    25.209333333    24.466927775   0   0   0 # sty
   2850      1   3  2.100000    24.644366596    23.408666667    22.259113314   0   0   0 # sty
   2851      1   4  0.425000    41.703685742     1.418776904     1.827036406   0   0   0 # hoy
   2852      1   4  0.425000    43.344956671     2.726390762     1.200000048   0   0   0 # hoy
   2853      1   4  0.425000    46.613681643     1.418776904     1.827036406   0   0   0 # hoy
   2854      1   4  0.425000    48.254952573     2.726390762     1.200000048   0   0   0 # hoy
   2855      1   4  0.425000    26.973698037     1.418776904     1.827036406   0   0   0 # hoy
   2856      1   4  0.425000    28.614968967     2.726390762     1.200000048   0   0   0 # hoy
   2857      1   4  0.425000    31.883693939     1.418776904     1.827036406   0   0   0 # hoy
   2858      1   4  0.425000    33.524964868     2.726390762     1.200000048   0   0   0 # hoy
   2859      1   4  0.425000    36.793689840     1.418776904     1.827036406   0   0   0 # hoy
   2860      1   4  0.425000    38.434960770     2.726390762     1.200000048   0   0   0 # hoy
   2861      1   4  0.425000    41.703685742     6.820776904     1.827036406   0   0   0 # hoy
   2862      1   4  0.425000    43.344956671     8.128390762     1.200000048   0   0   0 # hoy
   2863      1   4  0.425000    46.613681643     6.820776904     1.827036406   0   0   0 # hoy
   2864      1   4  0.425000    48.254952573     8.128390762     1.200000048   0   0   0 # hoy
   2865      1   4  0.425000    26.973698037     6.820776904     1.827036406   0   0   0 # hoy
   2866      1   4  0.425000    28.614968967     8.128390762     1.200000048   0   0   0 # hoy
   2867      1   4  0.425000    31.883693939     6.820776904     1.827036406   0   0   0 # hoy
   2868      1   4  0.425000    33.524964868     8.128390762     1.200000048   0   0   0 # hoy
   2869      1   4  0.425000    36.793689840     6.820776904     1.827036406   0   0   0 # hoy
   2870      1   4  0.425000    38.434960770     8.128390762     1.200000048   0   0   0 # hoy
   2871      1   4  0.425000    41.703685742    12.222776904     1.827036406   0   0   0 # hoy
   2872      1   4  0.425000    43.344956671    13.530390762     1.200000048   0   0   0 # hoy
   2873      1   4  0.425000    46.613681643    12.222776904     1.827036406   0   0   0 # hoy
   2874      1   4  0.425000    48.254952573    13.530390762     1.200000048   0   0   0 # hoy
   2875      1   4  0.425000    26.973698037    12.222776904     1.827036406   0   0   0 # hoy
   2876      1   4  0.425000    28.614968967    13.530390762     1.200000048   0   0   0 # hoy
   2877      1   4  0.425000    31.883693939    12.222776904     1.827036406   0   0   0 # hoy
   2878      1   4  0.425000    33.524964868    13.530390762     1.200000048   0   0   0 # hoy
   2879      1   4  0.425000    36.793689840    12.222776904     1.827036406   0   0   0 # hoy
   2880      1   4  0.425000    38.434960770    13.530390762     1.200000048   0   0   0 # hoy
   2881      1   4  0.425000    41.703685742    17.624776904     1.827036406   0   0   0 # hoy
   2882      1   4  0.425000    43.344956671    18.932390762     1.200000048   0   0   0 # hoy
   2883      1   4  0.425000    46.613681643    17.624776904     1.827036406   0   0   0 # hoy
   2884      1   4  0.425000    48.254952573    18.932390762     1.200000048   0   0   0 # hoy
   2885      1   4  0.425000    26.973698037    17.624776904     1.827036406   0   0   0 # hoy
   2886      1   4  0.425000    28.614968967    18.932390762     1.200000048   0   0   0 # hoy
   2887      1   4  0.425000    31.883693939    17.624776904     1.827036406   0   0   0 # hoy
   2888      1   4  0.425000    33.524964868    18.932390762     1.200000048   0   0   0 # hoy
   2889      1   4  0.425000    36.793689840    17.624776904     1.827036406   0   0   0 # hoy
   2890      1   4  0.425000    38.434960770    18.932390762     1.200000048   0   0   0 # hoy
   2891      1   4  0.425000    41.703685742    23.026776904     1.827036406   0   0   0 # hoy
   2892      1   4  0.425000    43.344956671    24.334390762     1.200000048   0   0   0 # hoy
   2893      1   4  0.425000    46.613681643    23.026776904     1.827036406   0   0   0 # hoy
   2894      1   4  0.425000    48.254952573    24.334390762     1.200000048   0   0   0 # hoy
   2895      1   4  0.425000    26.973698037    23.026776904     1.827036406   0   0   0 # hoy
   2896      1   4  0.425000    28.614968967    24.334390762     1.200000048   0   0   0 # hoy
   2897      1   4  0.425000    31.883693939    23.026776904     1.827036406   0   0   0 # hoy
   2898      1   4  0.425000    33.524964868    24.334390762     1.200000048   0   0   0 # hoy
   2899      1   4  0.425000    36.793689840    23.026776904     1.827036406   0   0   0 # hoy
   2900      1   4  0.425000    38.434960770    24.334390762     1.200000048   0   0   0 # hoy
   2901      1   1 -0.950000    27.948307639     2.369672611    27.663304796   0   0   0 # ohy
   2902      1   1 -0.950000    26.167769391     0.702248870    27.056462984   0   0   0 # ohy
   2903      1   1 -0.950000    32.858303540     2.369672611    27.663304796   0   0   0 # ohy
   2904      1   1 -0.950000    31.077765293     0.702248870    27.056462984   0   0   0 # ohy
   2905      1   1 -0.950000    37.768299442     2.369672611    27.663304796   0   0   0 # ohy
   2906      1   1 -0.950000    35.987761194     0.702248870    27.056462984   0   0   0 # ohy
   2907      1   1 -0.950000    42.678295343     2.369672611    27.663304796   0   0   0 # ohy
   2908      1   1 -0.950000    40.897757096     0.702248870    27.056462984   0   0   0 # ohy
   2909      1   1 -0.950000    47.588291245     2.369672611    27.663304796   0   0   0 # ohy
   2910      1   1 -0.950000    45.807752997     0.702248870    27.056462984   0   0   0 # ohy
   2911      1   1 -0.950000    27.948307639     7.771672611    27.663304796   0   0   0 # ohy
   2912      1   1 -0.950000    26.167769391     6.104248870    27.056462984   0   0   0 # ohy
   2913      1   1 -0.950000    32.858303540     7.771672611    27.663304796   0   0   0 # ohy
   2914      1   1 -0.950000    31.077765293     6.104248870    27.056462984   0   0   0 # ohy
   2915      1   1 -0.950000    37.768299442     7.771672611    27.663304796   0   0   0 # ohy
   2916      1   1 -0.950000    35.987761194     6.104248870    27.056462984   0   0   0 # ohy
   2917      1   1 -0.950000    42.678295343     7.771672611    27.663304796   0   0   0 # ohy
   2918      1   1 -0.950000    40.897757096     6.104248870    27.056462984   0   0   0 # ohy
   2919      1   1 -0.950000    47.588291245     7.771672611    27.663304796   0   0   0 # ohy
   2920      1   1 -0.950000    45.807752997     6.104248870    27.056462984   0   0   0 # ohy
   2921      1   1 -0.950000    27.948307639    13.173672611    27.663304796   0   0   0 # ohy
   2922      1   1 -0.950000    26.167769391    11.506248870    27.056462984   0   0   0 # ohy
   2923      1   1 -0.950000    32.858303540    13.173672611    27.663304796   0   0   0 # ohy
   2924      1   1 -0.950000    31.077765293    11.506248870    27.056462984   0   0   0 # ohy
   2925      1   1 -0.950000    37.768299442    13.173672611    27.663304796   0   0   0 # ohy
   2926      1   1 -0.950000    35.987761194    11.506248870    27.056462984   0   0   0 # ohy
   2927      1   1 -0.950000    42.678295343    13.173672611    27.663304796   0   0   0 # ohy
   2928      1   1 -0.950000    40.897757096    11.506248870    27.056462984   0   0   0 # ohy
   2929      1   1 -0.950000    47.588291245    13.173672611    27.663304796   0   0   0 # ohy
   2930      1   1 -0.950000    45.807752997    11.506248870    27.056462984   0   0   0 # ohy
   2931      1   1 -0.950000    27.948307639    18.575672611    27.663304796   0   0   0 # ohy
   2932      1   1 -0.950000    26.167769391    16.908248870    27.056462984   0   0   0 # ohy
   2933      1   1 -0.950000    32.858303540    18.575672611    27.663304796   0   0   0 # ohy
   2934      1   1 -0.950000    31.077765293    16.908248870    27.056462984   0   0   0 # ohy
   2935      1   1 -0.950000    37.768299442    18.575672611    27.663304796   0   0   0 # ohy
   2936      1   1 -0.950000    35.987761194    16.908248870    27.056462984   0   0   0 # ohy
   2937      1   1 -0.950000    42.678295343    18.575672611    27.663304796   0   0   0 # ohy
   2938      1   1 -0.950000    40.897757096    16.908248870    27.056462984   0   0   0 # ohy
   2939      1   1 -0.950000    47.588291245    18.575672611    27.663304796   0   0   0 # ohy
   2940      1   1 -0.950000    45.807752997    16.908248870    27.056462984   0   0   0 # ohy
   2941      1   1 -0.950000    27.948307639    23.977672611    27.663304796   0   0   0 # ohy
   2942      1   1 -0.950000    26.167769391    22.310248870    27.056462984   0   0   0 # ohy
   2943      1   1 -0.950000    32.858303540    23.977672611    27.663304796   0   0   0 # ohy
   2944      1   1 -0.950000    31.077765293    22.310248870    27.056462984   0   0   0 # ohy
   2945      1   1 -0.950000    37.768299442    23.977672611    27.663304796   0   0   0 # ohy
   2946      1   1 -0.950000    35.987761194    22.310248870    27.056462984   0   0   0 # ohy
   2947      1   1 -0.950000    42.678295343    23.977672611    27.663304796   0   0   0 # ohy
   2948      1   1 -0.950000    40.897757096    22.310248870    27.056462984   0   0   0 # ohy
   2949      1   1 -0.950000    47.588291245    23.977672611    27.663304796   0   0   0 # ohy
   2950      1   1 -0.950000    45.807752997    22.310248870    27.056462984   0   0   0 # ohy
   2951      1   4  0.425000    28.710468072     3.064575484    27.253034774   0   0   0 # hoy
   2952      1   4  0.425000    26.206680832     0.701079586    28.165780141   0   0   0 # hoy
   2953      1   4  0.425000    33.620463974     3.064575484    27.253034774   0   0   0 # hoy
   2954      1   4  0.425000    31.116676734     0.701079586    28.165780141   0   0   0 # hoy
   2955      1   4  0.425000    38.530459875     3.064575484    27.253034774   0   0   0 # hoy
   2956      1   4  0.425000    36.026672635     0.701079586    28.165780141   0   0   0 # hoy
   2957      1   4  0.425000    43.440455777     3.064575484    27.253034774   0   0   0 # hoy
   2958      1   4  0.425000    40.936668537     0.701079586    28.165780141   0   0   0 # hoy
   2959      1   4  0.425000    48.350451678     3.064575484    27.253034774   0   0   0 # hoy
   2960      1   4  0.425000    45.846664438     0.701079586    28.165780141   0   0   0 # hoy
   2961      1   4  0.425000    28.710468072     8.466575484    27.253034774   0   0   0 # hoy
   2962      1   4  0.425000    26.206680832     6.103079586    28.165780141   0   0   0 # hoy
   2963      1   4  0.425000    33.620463974     8.466575484    27.253034774   0   0   0 # hoy
   2964      1   4  0.425000    31.116676734     6.103079586    28.165780141   0   0   0 # hoy
   2965      1   4  0.425000    38.530459875     8.466575484    27.253034774   0   0   0 # hoy
   2966      1   4  0.425000    36.026672635     6.103079586    28.165780141   0   0   0 # hoy
   2967      1   4  0.425000    43.440455777     8.466575484    27.253034774   0   0   0 # hoy
   2968      1   4  0.425000    40.936668537     6.103079586    28.165780141   0   0   0 # hoy
   2969      1   4  0.425000    48.350451678     8.466575484    27.253034774   0   0   0 # hoy
   2970      1   4  0.425000    45.846664438     6.103079586    28.165780141   0   0   0 # hoy
   2971      1   4  0.425000    28.710468072    13.868575484    27.253034774   0   0   0 # hoy
   2972      1   4  0.425000    26.206680832    11.505079586    28.165780141   0   0   0 # hoy
   2973      1   4  0.425000    33.620463974    13.868575484    27.253034774   0   0   0 # hoy
   2974      1   4  0.425000    31.116676734    11.505079586    28.165780141   0   0   0 # hoy
   2975      1   4  0.425000    38.530459875    13.868575484    27.253034774   0   0   0 # hoy
   2976      1   4  0.425000    36.026672635    11.505079586    28.165780141   0   0   0 # hoy
   2977      1   4  0.425000    43.440455777    13.868575484    27.253034774   0   0   0 # hoy
   2978      1   4  0.425000    40.936668537    11.505079586    28.165780141   0   0   0 # hoy
   2979      1   4  0.425000    48.350451678    13.868575484    27.253034774   0   0   0 # hoy
   2980      1   4  0.425000    45.846664438    11.505079586    28.165780141   0   0   0 # hoy
   2981      1   4  0.425000    28.710468072    19.270575484    27.253034774   0   0   0 # hoy
   2982      1   4  0.425000    26.206680832    16.907079586    28.165780141   0   0   0 # hoy
   2983      1   4  0.425000    33.620463974    19.270575484    27.253034774   0   0   0 # hoy
   2984      1   4  0.425000    31.116676734    16.907079586    28.165780141   0   0   0 # hoy
   2985      1   4  0.425000    38.530459875    19.270575484    27.253034774   0   0   0 # hoy
   2986      1   4  0.425000    36.026672635    16.907079586    28.165780141   0   0   0 # hoy
   2987      1   4  0.425000    43.440455777    19.270575484    27.253034774   0   0   0 # hoy
   2988      1   4  0.425000    40.936668537    16.907079586    28.165780141   0   0   0 # hoy
   2989      1   4  0.425000    48.350451678    19.270575484    27.253034774   0   0   0 # hoy
   2990      1   4  0.425000    45.846664438    16.907079586    28.165780141   0   0   0 # hoy
   2991      1   4  0.425000    28.710468072    24.672575484    27.253034774   0   0   0 # hoy
   2992      1   4  0.425000    26.206680832    22.309079586    28.165780141   0   0   0 # hoy
   2993      1   4  0.425000    33.620463974    24.672575484    27.253034774   0   0   0 # hoy
   2994      1   4  0.425000    31.116676734    22.309079586    28.165780141   0   0   0 # hoy
   2995      1   4  0.425000    38.530459875    24.672575484    27.253034774   0   0   0 # hoy
   2996      1   4  0.425000    36.026672635    22.309079586    28.165780141   0   0   0 # hoy
   2997      1   4  0.425000    43.440455777    24.672575484    27.253034774   0   0   0 # hoy
   2998      1   4  0.425000    40.936668537    22.309079586    28.165780141   0   0   0 # hoy
   2999      1   4  0.425000    48.350451678    24.672575484    27.253034774   0   0   0 # hoy
   3000      1   4  0.425000    45.846664438    22.309079586    28.165780141   0   0   0 # hoy
   3001      1   1 -0.950000    16.396927704    27.639330000     1.636797398   0   0   0 # ohy
   3002      1   2 -1.050000    16.904550818    31.240663333     3.487481195   0   0   0 # oby
   3003      1   1 -0.950000    18.253478443    29.439996667     2.122524785   0   0   0 # ohy
   3004      1   2 -1.050000    14.449552867    31.782670000     2.761114785   0   0   0 # oby
   3005      1   2 -1.050000    15.798480493    28.181336667     4.126071195   0   0   0 # oby
   3006      1   2 -1.050000    13.941929754    29.982003333     4.611798581   0   0   0 # oby
   3007      1   3  2.100000    15.910303382    27.010000000     3.042574120   0   0   0 # sty
   3008      1   3  2.100000    13.455305431    30.611333333     3.206021859   0   0   0 # sty
   3009      1   3  2.100000     2.549364547    28.810666667    26.511294497   0   0   0 # sty
   3010      1   2 -1.050000    13.941929754    27.639330000     5.888978581   0   0   0 # oby
   3011      1   2 -1.050000    14.449552867    31.240663333     7.739662378   0   0   0 # oby
   3012      1   2 -1.050000    15.798480493    29.439996667     6.374705968   0   0   0 # oby
   3013      1   2 -1.050000    11.994554916    31.782670000     7.013295968   0   0   0 # oby
   3014      1   2 -1.050000    13.343482542    28.181336667     8.378252378   0   0   0 # oby
   3015      1   2 -1.050000    11.486931803    29.982003333     8.863979764   0   0   0 # oby
   3016      1   3  2.100000    13.455305431    27.010000000     7.294755303   0   0   0 # sty
   3017      1   3  2.100000    11.000307480    30.611333333     7.458203042   0   0   0 # sty
   3018      1   3  2.100000    14.824354300    28.810666667     5.250388581   0   0   0 # sty
   3019      1   2 -1.050000    11.486931803    27.639330000    10.141159764   0   0   0 # oby
   3020      1   2 -1.050000    11.994554916    31.240663333    11.991843561   0   0   0 # oby
   3021      1   2 -1.050000    13.343482542    29.439996667    10.626887151   0   0   0 # oby
   3022      1   2 -1.050000     9.539556966    31.782670000    11.265477151   0   0   0 # oby
   3023      1   2 -1.050000    10.888484591    28.181336667    12.630433561   0   0   0 # oby
   3024      1   2 -1.050000     9.031933852    29.982003333    13.116160948   0   0   0 # oby
   3025      1   3  2.100000    11.000307480    27.010000000    11.546936487   0   0   0 # sty
   3026      1   3  2.100000     8.545309530    30.611333333    11.710384225   0   0   0 # sty
   3027      1   3  2.100000    12.369356350    28.810666667     9.502569764   0   0   0 # sty
   3028      1   2 -1.050000     9.031933852    27.639330000    14.393340948   0   0   0 # oby
   3029      1   2 -1.050000     9.539556966    31.240663333    16.244024744   0   0   0 # oby
   3030      1   2 -1.050000    10.888484591    29.439996667    14.879068334   0   0   0 # oby
   3031      1   2 -1.050000     7.084559015    31.782670000    15.517658334   0   0   0 # oby
   3032      1   2 -1.050000     8.433486640    28.181336667    16.882614744   0   0   0 # oby
   3033      1   2 -1.050000     6.576935901    29.982003333    17.368342131   0   0   0 # oby
   3034      1   3  2.100000     8.545309530    27.010000000    15.799117670   0   0   0 # sty
   3035      1   3  2.100000     6.090311579    30.611333333    15.962565409   0   0   0 # sty
   3036      1   3  2.100000     9.914358399    28.810666667    13.754750948   0   0   0 # sty
   3037      1   2 -1.050000     6.576935901    27.639330000    18.645522131   0   0   0 # oby
   3038      1   2 -1.050000     7.084559015    31.240663333    20.496205927   0   0   0 # oby
   3039      1   2 -1.050000     8.433486640    29.439996667    19.131249517   0   0   0 # oby
   3040      1   2 -1.050000     4.629561064    31.782670000    19.769839517   0   0   0 # oby
   3041      1   2 -1.050000     5.978488690    28.181336667    21.134795927   0   0   0 # oby
   3042      1   2 -1.050000     4.121937951    29.982003333    21.620523314   0   0   0 # oby
   3043      1   3  2.100000     6.090311579    27.010000000    20.051298853   0   0   0 # sty
   3044      1   3  2.100000     3.635313628    30.611333333    20.214746592   0   0   0 # sty
   3045      1   3  2.100000     7.459360448    28.810666667    18.006932131   0   0   0 # sty
   3046      1   2 -1.050000     4.121937951    27.639330000    22.897703314   0   0   0 # oby
   3047      1   2 -1.050000     4.629561064    31.240663333    24.748387110   0   0   0 # oby
   3048      1   2 -1.050000     5.978488690    29.439996667    23.383430700   0   0   0 # oby
   3049      1   2 -1.050000     2.174563113    31.782670000    24.022020700   0   0   0 # oby
   3050      1   2 -1.050000     3.523490739    28.181336667    25.386977110   0   0   0 # oby
   3051      1   2 -1.050000     1.666940000    29.982003333    25.872704497   0   0   0 # oby
   3052      1   3  2.100000     3.635313628    27.010000000    24.303480036   0   0   0 # sty
   3053      1   3  2.100000     1.180315677    30.611333333    24.466927775   0   0   0 # sty
   3054      1   3  2.100000     5.004362497    28.810666667    22.259113314   0   0   0 # sty
   3055      1   1 -0.950000    21.306923606    27.639330000     1.636797398   0   0   0 # ohy
   3056      1   2 -1.050000    21.814546719    31.240663333     3.487481195   0   0   0 # oby
   3057      1   1 -0.950000    23.163474345    29.439996667     2.122524785   0   0   0 # ohy
   3058      1   2 -1.050000    19.359548768    31.782670000     2.761114785   0   0   0 # oby
   3059      1   2 -1.050000    20.708476394    28.181336667     4.126071195   0   0   0 # oby
   3060      1   2 -1.050000    18.851925655    29.982003333     4.611798581   0   0   0 # oby
   3061      1   3  2.100000    20.820299283    27.010000000     3.042574120   0   0   0 # sty
   3062      1   3  2.100000    18.365301332    30.611333333     3.206021859   0   0   0 # sty
   3063      1   3  2.100000     7.459360448    28.810666667    26.511294497   0   0   0 # sty
   3064      1   2 -1.050000    18.851925655    27.639330000     5.888978581   0   0   0 # oby
   3065      1   2 -1.050000    19.359548768    31.240663333     7.739662378   0   0   0 # oby
   3066      1   2 -1.050000    20.708476394    29.439996667     6.374705968   0   0   0 # oby
   3067      1   2 -1.050000    16.904550818    31.782670000     7.013295968   0   0   0 # oby
   3068      1   2 -1.050000    18.253478443    28.181336667     8.378252378   0   0   0 # oby
   3069      1   2 -1.050000    16.396927704    29.982003333     8.863979764   0   0   0 # oby
   3070      1   3  2.100000    18.365301332    27.010000000     7.294755303   0   0   0 # sty
   3071      1   3  2.100000    15.910303382    30.611333333     7.458203042   0   0   0 # sty
   3072      1   3  2.100000    19.734350202    28.810666667     5.250388581   0   0   0 # sty
   3073      1   2 -1.050000    16.396927704    27.639330000    10.141159764   0   0   0 # oby
   3074      1   2 -1.050000    16.904550818    31.240663333    11.991843561   0   0   0 # oby
   3075      1   2 -1.050000    18.253478443    29.439996667    10.626887151   0   0   0 # oby
   3076      1   2 -1.050000    14.449552867    31.782670000    11.265477151   0   0   0 # oby
   3077      1   2 -1.050000    15.798480493    28.181336667    12.630433561   0   0   0 # oby
   3078      1   2 -1.050000    13.941929754    29.982003333    13.116160948   0   0   0 # oby
   3079      1   3  2.100000    15.910303382    27.010000000    11.546936487   0   0   0 # sty
   3080      1   3  2.100000    13.455305431    30.611333333    11.710384225   0   0   0 # sty
   3081      1   3  2.100000    17.279352251    28.810666667     9.502569764   0   0   0 # sty
   3082      1   2 -1.050000    13.941929754    27.639330000    14.393340948   0   0   0 # oby
   3083      1   2 -1.050000    14.449552867    31.240663333    16.244024744   0   0   0 # oby
   3084      1   2 -1.050000    15.798480493    29.439996667    14.879068334   0   0   0 # oby
   3085      1   2 -1.050000    11.994554916    31.782670000    15.517658334   0   0   0 # oby
   3086      1   2 -1.050000    13.343482542    28.181336667    16.882614744   0   0   0 # oby
   3087      1   2 -1.050000    11.486931803    29.982003333    17.368342131   0   0   0 # oby
   3088      1   3  2.100000    13.455305431    27.010000000    15.799117670   0   0   0 # sty
   3089      1   3  2.100000    11.000307480    30.611333333    15.962565409   0   0   0 # sty
   3090      1   3  2.100000    14.824354300    28.810666667    13.754750948   0   0   0 # sty
   3091      1   2 -1.050000    11.486931803    27.639330000    18.645522131   0   0   0 # oby
   3092      1   2 -1.050000    11.994554916    31.240663333    20.496205927   0   0   0 # oby
   3093      1   2 -1.050000    13.343482542    29.439996667    19.131249517   0   0   0 # oby
   3094      1   2 -1.050000     9.539556966    31.782670000    19.769839517   0   0   0 # oby
   3095      1   2 -1.050000    10.888484591    28.181336667    21.134795927   0   0   0 # oby
   3096      1   2 -1.050000     9.031933852    29.982003333    21.620523314   0   0   0 # oby
   3097      1   3  2.100000    11.000307480    27.010000000    20.051298853   0   0   0 # sty
   3098      1   3  2.100000     8.545309530    30.611333333    20.214746592   0   0   0 # sty
   3099      1   3  2.100000    12.369356350    28.810666667    18.006932131   0   0   0 # sty
   3100      1   2 -1.050000     9.031933852    27.639330000    22.897703314   0   0   0 # oby
   3101      1   2 -1.050000     9.539556966    31.240663333    24.748387110   0   0   0 # oby
   3102      1   2 -1.050000    10.888484591    29.439996667    23.383430700   0   0   0 # oby
   3103      1   2 -1.050000     7.084559015    31.782670000    24.022020700   0   0   0 # oby
   3104      1   2 -1.050000     8.433486640    28.181336667    25.386977110   0   0   0 # oby
   3105      1   2 -1.050000     6.576935901    29.982003333    25.872704497   0   0   0 # oby
   3106      1   3  2.100000     8.545309530    27.010000000    24.303480036   0   0   0 # sty
   3107      1   3  2.100000     6.090311579    30.611333333    24.466927775   0   0   0 # sty
   3108      1   3  2.100000     9.914358399    28.810666667    22.259113314   0   0   0 # sty
   3109      1   1 -0.950000     1.666940000    27.639330000     1.636797398   0   0   0 # ohy
   3110      1   2 -1.050000     2.174563113    31.240663333     3.487481195   0   0   0 # oby
   3111      1   1 -0.950000     3.523490739    29.439996667     2.122524785   0   0   0 # ohy
   3112      1   2 -1.050000    24.269544670    31.782670000     2.761114785   0   0   0 # oby
   3113      1   2 -1.050000     1.068492788    28.181336667     4.126071195   0   0   0 # oby
   3114      1   2 -1.050000    23.761921557    29.982003333     4.611798581   0   0   0 # oby
   3115      1   3  2.100000     1.180315677    27.010000000     3.042574120   0   0   0 # sty
   3116      1   3  2.100000    23.275297234    30.611333333     3.206021859   0   0   0 # sty
   3117      1   3  2.100000    12.369356350    28.810666667    26.511294497   0   0   0 # sty
   3118      1   2 -1.050000    23.761921557    27.639330000     5.888978581   0   0   0 # oby
   3119      1   2 -1.050000    24.269544670    31.240663333     7.739662378   0   0   0 # oby
   3120      1   2 -1.050000     1.068492788    29.439996667     6.374705968   0   0   0 # oby
   3121      1   2 -1.050000    21.814546719    31.782670000     7.013295968   0   0   0 # oby
   3122      1   2 -1.050000    23.163474345    28.181336667     8.378252378   0   0   0 # oby
   3123      1   2 -1.050000    21.306923606    29.982003333     8.863979764   0   0   0 # oby
   3124      1   3  2.100000    23.275297234    27.010000000     7.294755303   0   0   0 # sty
   3125      1   3  2.100000    20.820299283    30.611333333     7.458203042   0   0   0 # sty
   3126      1   3  2.100000    49.194366596    28.810666667     5.250388581  -1   0   0 # sty
   3127      1   2 -1.050000    21.306923606    27.639330000    10.141159764   0   0   0 # oby
   3128      1   2 -1.050000    21.814546719    31.240663333    11.991843561   0   0   0 # oby
   3129      1   2 -1.050000    23.163474345    29.439996667    10.626887151   0   0   0 # oby
   3130      1   2 -1.050000    19.359548768    31.782670000    11.265477151   0   0   0 # oby
   3131      1   2 -1.050000    20.708476394    28.181336667    12.630433561   0   0   0 # oby
   3132      1   2 -1.050000    18.851925655    29.982003333    13.116160948   0   0   0 # oby
   3133      1   3  2.100000    20.820299283    27.010000000    11.546936487   0   0   0 # sty
   3134      1   3  2.100000    18.365301332    30.611333333    11.710384225   0   0   0 # sty
   3135      1   3  2.100000    22.189348153    28.810666667     9.502569764   0   0   0 # sty
   3136      1   2 -1.050000    18.851925655    27.639330000    14.393340948   0   0   0 # oby
   3137      1   2 -1.050000    19.359548768    31.240663333    16.244024744   0   0   0 # oby
   3138      1   2 -1.050000    20.708476394    29.439996667    14.879068334   0   0   0 # oby
   3139      1   2 -1.050000    16.904550818    31.782670000    15.517658334   0   0   0 # oby
   3140      1   2 -1.050000    18.253478443    28.181336667    16.882614744   0   0   0 # oby
   3141      1   2 -1.050000    16.396927704    29.982003333    17.368342131   0   0   0 # oby
   3142      1   3  2.100000    18.365301332    27.010000000    15.799117670   0   0   0 # sty
   3143      1   3  2.100000    15.910303382    30.611333333    15.962565409   0   0   0 # sty
   3144      1   3  2.100000    19.734350202    28.810666667    13.754750948   0   0   0 # sty
   3145      1   2 -1.050000    16.396927704    27.639330000    18.645522131   0   0   0 # oby
   3146      1   2 -1.050000    16.904550818    31.240663333    20.496205927   0   0   0 # oby
   3147      1   2 -1.050000    18.253478443    29.439996667    19.131249517   0   0   0 # oby
   3148      1   2 -1.050000    14.449552867    31.782670000    19.769839517   0   0   0 # oby
   3149      1   2 -1.050000    15.798480493    28.181336667    21.134795927   0   0   0 # oby
   3150      1   2 -1.050000    13.941929754    29.982003333    21.620523314   0   0   0 # oby
   3151      1   3  2.100000    15.910303382    27.010000000    20.051298853   0   0   0 # sty
   3152      1   3  2.100000    13.455305431    30.611333333    20.214746592   0   0   0 # sty
   3153      1   3  2.100000    17.279352251    28.810666667    18.006932131   0   0   0 # sty
   3154      1   2 -1.050000    13.941929754    27.639330000    22.897703314   0   0   0 # oby
   3155      1   2 -1.050000    14.449552867    31.240663333    24.748387110   0   0   0 # oby
   3156      1   2 -1.050000    15.798480493    29.439996667    23.383430700   0   0   0 # oby
   3157      1   2 -1.050000    11.994554916    31.782670000    24.022020700   0   0   0 # oby
   3158      1   2 -1.050000    13.343482542    28.181336667    25.386977110   0   0   0 # oby
   3159      1   2 -1.050000    11.486931803    29.982003333    25.872704497   0   0   0 # oby
   3160      1   3  2.100000    13.455305431    27.010000000    24.303480036   0   0   0 # sty
   3161      1   3  2.100000    11.000307480    30.611333333    24.466927775   0   0   0 # sty
   3162      1   3  2.100000    14.824354300    28.810666667    22.259113314   0   0   0 # sty
   3163      1   1 -0.950000     6.576935901    27.639330000     1.636797398   0   0   0 # ohy
   3164      1   2 -1.050000     7.084559015    31.240663333     3.487481195   0   0   0 # oby
   3165      1   1 -0.950000     8.433486640    29.439996667     2.122524785   0   0   0 # ohy
   3166      1   2 -1.050000     4.629561064    31.782670000     2.761114785   0   0   0 # oby
   3167      1   2 -1.050000     5.978488690    28.181336667     4.126071195   0   0   0 # oby
   3168      1   2 -1.050000     4.121937951    29.982003333     4.611798581   0   0   0 # oby
   3169      1   3  2.100000     6.090311579    27.010000000     3.042574120   0   0   0 # sty
   3170      1   3  2.100000     3.635313628    30.611333333     3.206021859   0   0   0 # sty
   3171      1   3  2.100000    17.279352251    28.810666667    26.511294497   0   0   0 # sty
   3172      1   2 -1.050000     4.121937951    27.639330000     5.888978581   0   0   0 # oby
   3173      1   2 -1.050000     4.629561064    31.240663333     7.739662378   0   0   0 # oby
   3174      1   2 -1.050000     5.978488690    29.439996667     6.374705968   0   0   0 # oby
   3175      1   2 -1.050000     2.174563113    31.782670000     7.013295968   0   0   0 # oby
   3176      1   2 -1.050000     3.523490739    28.181336667     8.378252378   0   0   0 # oby
   3177      1   2 -1.050000     1.666940000    29.982003333     8.863979764   0   0   0 # oby
   3178      1   3  2.100000     3.635313628    27.010000000     7.294755303   0   0   0 # sty
   3179      1   3  2.100000     1.180315677    30.611333333     7.458203042   0   0   0 # sty
   3180      1   3  2.100000     5.004362497    28.810666667     5.250388581   0   0   0 # sty
   3181      1   2 -1.050000     1.666940000    27.639330000    10.141159764   0   0   0 # oby
   3182      1   2 -1.050000     2.174563113    31.240663333    11.991843561   0   0   0 # oby
   3183      1   2 -1.050000     3.523490739    29.439996667    10.626887151   0   0   0 # oby
   3184      1   2 -1.050000    24.269544670    31.782670000    11.265477151   0   0   0 # oby
   3185      1   2 -1.050000     1.068492788    28.181336667    12.630433561   0   0   0 # oby
   3186      1   2 -1.050000    23.761921557    29.982003333    13.116160948   0   0   0 # oby
   3187      1   3  2.100000     1.180315677    27.010000000    11.546936487   0   0   0 # sty
   3188      1   3  2.100000    23.275297234    30.611333333    11.710384225   0   0   0 # sty
   3189      1   3  2.100000     2.549364547    28.810666667     9.502569764   0   0   0 # sty
   3190      1   2 -1.050000    23.761921557    27.639330000    14.393340948   0   0   0 # oby
   3191      1   2 -1.050000    24.269544670    31.240663333    16.244024744   0   0   0 # oby
   3192      1   2 -1.050000     1.068492788    29.439996667    14.879068334   0   0   0 # oby
   3193      1   2 -1.050000    21.814546719    31.782670000    15.517658334   0   0   0 # oby
   3194      1   2 -1.050000    23.163474345    28.181336667    16.882614744   0   0   0 # oby
   3195      1   2 -1.050000    21.306923606    29.982003333    17.368342131   0   0   0 # oby
   3196      1   3  2.100000    23.275297234    27.010000000    15.799117670   0   0   0 # sty
   3197      1   3  2.100000    20.820299283    30.611333333    15.962565409   0   0   0 # sty
   3198      1   3  2.100000    49.194366596    28.810666667    13.754750948  -1   0   0 # sty
   3199      1   2 -1.050000    21.306923606    27.639330000    18.645522131   0   0   0 # oby
   3200      1   2 -1.050000    21.814546719    31.240663333    20.496205927   0   0   0 # oby
   3201      1   2 -1.050000    23.163474345    29.439996667    19.131249517   0   0   0 # oby
   3202      1   2 -1.050000    19.359548768    31.782670000    19.769839517   0   0   0 # oby
   3203      1   2 -1.050000    20.708476394    28.181336667    21.134795927   0   0   0 # oby
   3204      1   2 -1.050000    18.851925655    29.982003333    21.620523314   0   0   0 # oby
   3205      1   3  2.100000    20.820299283    27.010000000    20.051298853   0   0   0 # sty
   3206      1   3  2.100000    18.365301332    30.611333333    20.214746592   0   0   0 # sty
   3207      1   3  2.100000    22.189348153    28.810666667    18.006932131   0   0   0 # sty
   3208      1   2 -1.050000    18.851925655    27.639330000    22.897703314   0   0   0 # oby
   3209      1   2 -1.050000    19.359548768    31.240663333    24.748387110   0   0   0 # oby
   3210      1   2 -1.050000    20.708476394    29.439996667    23.383430700   0   0   0 # oby
   3211      1   2 -1.050000    16.904550818    31.782670000    24.022020700   0   0   0 # oby
   3212      1   2 -1.050000    18.253478443    28.181336667    25.386977110   0   0   0 # oby
   3213      1   2 -1.050000    16.396927704    29.982003333    25.872704497   0   0   0 # oby
   3214      1   3  2.100000    18.365301332    27.010000000    24.303480036   0   0   0 # sty
   3215      1   3  2.100000    15.910303382    30.611333333    24.466927775   0   0   0 # sty
   3216      1   3  2.100000    19.734350202    28.810666667    22.259113314   0   0   0 # sty
   3217      1   1 -0.950000    11.486931803    27.639330000     1.636797398   0   0   0 # ohy
   3218      1   2 -1.050000    11.994554916    31.240663333     3.487481195   0   0   0 # oby
   3219      1   1 -0.950000    13.343482542    29.439996667     2.122524785   0   0   0 # ohy
   3220      1   2 -1.050000     9.539556966    31.782670000     2.761114785   0   0   0 # oby
   3221      1   2 -1.050000    10.888484591    28.181336667     4.126071195   0   0   0 # oby
   3222      1   2 -1.050000     9.031933852    29.982003333     4.611798581   0   0   0 # oby
   3223      1   3  2.100000    11.000307480    27.010000000     3.042574120   0   0   0 # sty
   3224      1   3  2.100000     8.545309530    30.611333333     3.206021859   0   0   0 # sty
   3225      1   3  2.100000    22.189348153    28.810666667    26.511294497   0   0   0 # sty
   3226      1   2 -1.050000     9.031933852    27.639330000     5.888978581   0   0   0 # oby
   3227      1   2 -1.050000     9.539556966    31.240663333     7.739662378   0   0   0 # oby
   3228      1   2 -1.050000    10.888484591    29.439996667     6.374705968   0   0   0 # oby
   3229      1   2 -1.050000     7.084559015    31.782670000     7.013295968   0   0   0 # oby
   3230      1   2 -1.050000     8.433486640    28.181336667     8.378252378   0   0   0 # oby
   3231      1   2 -1.050000     6.576935901    29.982003333     8.863979764   0   0   0 # oby
   3232      1   3  2.100000     8.545309530    27.010000000     7.294755303   0   0   0 # sty
   3233      1   3  2.100000     6.090311579    30.611333333     7.458203042   0   0   0 # sty
   3234      1   3  2.100000     9.914358399    28.810666667     5.250388581   0   0   0 # sty
   3235      1   2 -1.050000     6.576935901    27.639330000    10.141159764   0   0   0 # oby
   3236      1   2 -1.050000     7.084559015    31.240663333    11.991843561   0   0   0 # oby
   3237      1   2 -1.050000     8.433486640    29.439996667    10.626887151   0   0   0 # oby
   3238      1   2 -1.050000     4.629561064    31.782670000    11.265477151   0   0   0 # oby
   3239      1   2 -1.050000     5.978488690    28.181336667    12.630433561   0   0   0 # oby
   3240      1   2 -1.050000     4.121937951    29.982003333    13.116160948   0   0   0 # oby
   3241      1   3  2.100000     6.090311579    27.010000000    11.546936487   0   0   0 # sty
   3242      1   3  2.100000     3.635313628    30.611333333    11.710384225   0   0   0 # sty
   3243      1   3  2.100000     7.459360448    28.810666667     9.502569764   0   0   0 # sty
   3244      1   2 -1.050000     4.121937951    27.639330000    14.393340948   0   0   0 # oby
   3245      1   2 -1.050000     4.629561064    31.240663333    16.244024744   0   0   0 # oby
   3246      1   2 -1.050000     5.978488690    29.439996667    14.879068334   0   0   0 # oby
   3247      1   2 -1.050000     2.174563113    31.782670000    15.517658334   0   0   0 # oby
   3248      1   2 -1.050000     3.523490739    28.181336667    16.882614744   0   0   0 # oby
   3249      1   2 -1.050000     1.666940000    29.982003333    17.368342131   0   0   0 # oby
   3250      1   3  2.100000     3.635313628    27.010000000    15.799117670   0   0   0 # sty
   3251      1   3  2.100000     1.180315677    30.611333333    15.962565409   0   0   0 # sty
   3252      1   3  2.100000     5.004362497    28.810666667    13.754750948   0   0   0 # sty
   3253      1   2 -1.050000     1.666940000    27.639330000    18.645522131   0   0   0 # oby
   3254      1   2 -1.050000     2.174563113    31.240663333    20.496205927   0   0   0 # oby
   3255      1   2 -1.050000     3.523490739    29.439996667    19.131249517   0   0   0 # oby
   3256      1   2 -1.050000    24.269544670    31.782670000    19.769839517   0   0   0 # oby
   3257      1   2 -1.050000     1.068492788    28.181336667    21.134795927   0   0   0 # oby
   3258      1   2 -1.050000    23.761921557    29.982003333    21.620523314   0   0   0 # oby
   3259      1   3  2.100000     1.180315677    27.010000000    20.051298853   0   0   0 # sty
   3260      1   3  2.100000    23.275297234    30.611333333    20.214746592   0   0   0 # sty
   3261      1   3  2.100000     2.549364547    28.810666667    18.006932131   0   0   0 # sty
   3262      1   2 -1.050000    23.761921557    27.639330000    22.897703314   0   0   0 # oby
   3263      1   2 -1.050000    24.269544670    31.240663333    24.748387110   0   0   0 # oby
   3264      1   2 -1.050000     1.068492788    29.439996667    23.383430700   0   0   0 # oby
   3265      1   2 -1.050000    21.814546719    31.782670000    24.022020700   0   0   0 # oby
   3266      1   2 -1.050000    23.163474345    28.181336667    25.386977110   0   0   0 # oby
   3267      1   2 -1.050000    21.306923606    29.982003333    25.872704497   0   0   0 # oby
   3268      1   3  2.100000    23.275297234    27.010000000    24.303480036   0   0   0 # sty
   3269      1   3  2.100000    20.820299283    30.611333333    24.466927775   0   0   0 # sty
   3270      1   3  2.100000    49.194366596    28.810666667    22.259113314  -1   0   0 # sty
   3271      1   1 -0.950000    16.396927704    33.041330000     1.636797398   0   0   0 # ohy
   3272      1   2 -1.050000    16.904550818    36.642663333     3.487481195   0   0   0 # oby
   3273      1   1 -0.950000    18.253478443    34.841996667     2.122524785   0   0   0 # ohy
   3274      1   2 -1.050000    14.449552867    37.184670000     2.761114785   0   0   0 # oby
   3275      1   2 -1.050000    15.798480493    33.583336667     4.126071195   0   0   0 # oby
   3276      1   2 -1.050000    13.941929754    35.384003333     4.611798581   0   0   0 # oby
   3277      1   3  2.100000    15.910303382    32.412000000     3.042574120   0   0   0 # sty
   3278      1   3  2.100000    13.455305431    36.013333333     3.206021859   0   0   0 # sty
   3279      1   3  2.100000     2.549364547    34.212666667    26.511294497   0   0   0 # sty
   3280      1   2 -1.050000    13.941929754    33.041330000     5.888978581   0   0   0 # oby
   3281      1   2 -1.050000    14.449552867    36.642663333     7.739662378   0   0   0 # oby
   3282      1   2 -1.050000    15.798480493    34.841996667     6.374705968   0   0   0 # oby
   3283      1   2 -1.050000    11.994554916    37.184670000     7.013295968   0   0   0 # oby
   3284      1   2 -1.050000    13.343482542    33.583336667     8.378252378   0   0   0 # oby
   3285      1   2 -1.050000    11.486931803    35.384003333     8.863979764   0   0   0 # oby
   3286      1   3  2.100000    13.455305431    32.412000000     7.294755303   0   0   0 # sty
   3287      1   3  2.100000    11.000307480    36.013333333     7.458203042   0   0   0 # sty
   3288      1   3  2.100000    14.824354300    34.212666667     5.250388581   0   0   0 # sty
   3289      1   2 -1.050000    11.486931803    33.041330000    10.141159764   0   0   0 # oby
   3290      1   2 -1.050000    11.994554916    36.642663333    11.991843561   0   0   0 # oby
   3291      1   2 -1.050000    13.343482542    34.841996667    10.626887151   0   0   0 # oby
   3292      1   2 -1.050000     9.539556966    37.184670000    11.265477151   0   0   0 # oby
   3293      1   2 -1.050000    10.888484591    33.583336667    12.630433561   0   0   0 # oby
   3294      1   2 -1.050000     9.031933852    35.384003333    13.116160948   0   0   0 # oby
   3295      1   3  2.100000    11.000307480    32.412000000    11.546936487   0   0   0 # sty
   3296      1   3  2.100000     8.545309530    36.013333333    11.710384225   0   0   0 # sty
   3297      1   3  2.100000    12.369356350    34.212666667     9.502569764   0   0   0 # sty
   3298      1   2 -1.050000     9.031933852    33.041330000    14.393340948   0   0   0 # oby
   3299      1   2 -1.050000     9.539556966    36.642663333    16.244024744   0   0   0 # oby
   3300      1   2 -1.050000    10.888484591    34.841996667    14.879068334   0   0   0 # oby
   3301      1   2 -1.050000     7.084559015    37.184670000    15.517658334   0   0   0 # oby
   3302      1   2 -1.050000     8.433486640    33.583336667    16.882614744   0   0   0 # oby
   3303      1   2 -1.050000     6.576935901    35.384003333    17.368342131   0   0   0 # oby
   3304      1   3  2.100000     8.545309530    32.412000000    15.799117670   0   0   0 # sty
   3305      1   3  2.100000     6.090311579    36.013333333    15.962565409   0   0   0 # sty
   3306      1   3  2.100000     9.914358399    34.212666667    13.754750948   0   0   0 # sty
   3307      1   2 -1.050000     6.576935901    33.041330000    18.645522131   0   0   0 # oby
   3308      1   2 -1.050000     7.084559015    36.642663333    20.496205927   0   0   0 # oby
   3309      1   2 -1.050000     8.433486640    34.841996667    19.131249517   0   0   0 # oby
   3310      1   2 -1.050000     4.629561064    37.184670000    19.769839517   0   0   0 # oby
   3311      1   2 -1.050000     5.978488690    33.583336667    21.134795927   0   0   0 # oby
   3312      1   2 -1.050000     4.121937951    35.384003333    21.620523314   0   0   0 # oby
   3313      1   3  2.100000     6.090311579    32.412000000    20.051298853   0   0   0 # sty
   3314      1   3  2.100000     3.635313628    36.013333333    20.214746592   0   0   0 # sty
   3315      1   3  2.100000     7.459360448    34.212666667    18.006932131   0   0   0 # sty
   3316      1   2 -1.050000     4.121937951    33.041330000    22.897703314   0   0   0 # oby
   3317      1   2 -1.050000     4.629561064    36.642663333    24.748387110   0   0   0 # oby
   3318      1   2 -1.050000     5.978488690    34.841996667    23.383430700   0   0   0 # oby
   3319      1   2 -1.050000     2.174563113    37.184670000    24.022020700   0   0   0 # oby
   3320      1   2 -1.050000     3.523490739    33.583336667    25.386977110   0   0   0 # oby
   3321      1   2 -1.050000     1.666940000    35.384003333    25.872704497   0   0   0 # oby
   3322      1   3  2.100000     3.635313628    32.412000000    24.303480036   0   0   0 # sty
   3323      1   3  2.100000     1.180315677    36.013333333    24.466927775   0   0   0 # sty
   3324      1   3  2.100000     5.004362497    34.212666667    22.259113314   0   0   0 # sty
   3325      1   1 -0.950000    21.306923606    33.041330000     1.636797398   0   0   0 # ohy
   3326      1   2 -1.050000    21.814546719    36.642663333     3.487481195   0   0   0 # oby
   3327      1   1 -0.950000    23.163474345    34.841996667     2.122524785   0   0   0 # ohy
   3328      1   2 -1.050000    19.359548768    37.184670000     2.761114785   0   0   0 # oby
   3329      1   2 -1.050000    20.708476394    33.583336667     4.126071195   0   0   0 # oby
   3330      1   2 -1.050000    18.851925655    35.384003333     4.611798581   0   0   0 # oby
   3331      1   3  2.100000    20.820299283    32.412000000     3.042574120   0   0   0 # sty
   3332      1   3  2.100000    18.365301332    36.013333333     3.206021859   0   0   0 # sty
   3333      1   3  2.100000     7.459360448    34.212666667    26.511294497   0   0   0 # sty
   3334      1   2 -1.050000    18.851925655    33.041330000     5.888978581   0   0   0 # oby
   3335      1   2 -1.050000    19.359548768    36.642663333     7.739662378   0   0   0 # oby
   3336      1   2 -1.050000    20.708476394    34.841996667     6.374705968   0   0   0 # oby
   3337      1   2 -1.050000    16.904550818    37.184670000     7.013295968   0   0   0 # oby
   3338      1   2 -1.050000    18.253478443    33.583336667     8.378252378   0   0   0 # oby
   3339      1   2 -1.050000    16.396927704    35.384003333     8.863979764   0   0   0 # oby
   3340      1   3  2.100000    18.365301332    32.412000000     7.294755303   0   0   0 # sty
   3341      1   3  2.100000    15.910303382    36.013333333     7.458203042   0   0   0 # sty
   3342      1   3  2.100000    19.734350202    34.212666667     5.250388581   0   0   0 # sty
   3343      1   2 -1.050000    16.396927704    33.041330000    10.141159764   0   0   0 # oby
   3344      1   2 -1.050000    16.904550818    36.642663333    11.991843561   0   0   0 # oby
   3345      1   2 -1.050000    18.253478443    34.841996667    10.626887151   0   0   0 # oby
   3346      1   2 -1.050000    14.449552867    37.184670000    11.265477151   0   0   0 # oby
   3347      1   2 -1.050000    15.798480493    33.583336667    12.630433561   0   0   0 # oby
   3348      1   2 -1.050000    13.941929754    35.384003333    13.116160948   0   0   0 # oby
   3349      1   3  2.100000    15.910303382    32.412000000    11.546936487   0   0   0 # sty
   3350      1   3  2.100000    13.455305431    36.013333333    11.710384225   0   0   0 # sty
   3351      1   3  2.100000    17.279352251    34.212666667     9.502569764   0   0   0 # sty
   3352      1   2 -1.050000    13.941929754    33.041330000    14.393340948   0   0   0 # oby
   3353      1   2 -1.050000    14.449552867    36.642663333    16.244024744   0   0   0 # oby
   3354      1   2 -1.050000    15.798480493    34.841996667    14.879068334   0   0   0 # oby
   3355      1   2 -1.050000    11.994554916    37.184670000    15.517658334   0   0   0 # oby
   3356      1   2 -1.050000    13.343482542    33.583336667    16.882614744   0   0   0 # oby
   3357      1   2 -1.050000    11.486931803    35.384003333    17.368342131   0   0   0 # oby
   3358      1   3  2.100000    13.455305431    32.412000000    15.799117670   0   0   0 # sty
   3359      1   3  2.100000    11.000307480    36.013333333    15.962565409   0   0   0 # sty
   3360      1   3  2.100000    14.824354300    34.212666667    13.754750948   0   0   0 # sty
   3361      1   2 -1.050000    11.486931803    33.041330000    18.645522131   0   0   0 # oby
   3362      1   2 -1.050000    11.994554916    36.642663333    20.496205927   0   0   0 # oby
   3363      1   2 -1.050000    13.343482542    34.841996667    19.131249517   0   0   0 # oby
   3364      1   2 -1.050000     9.539556966    37.184670000    19.769839517   0   0   0 # oby
   3365      1   2 -1.050000    10.888484591    33.583336667    21.134795927   0   0   0 # oby
   3366      1   2 -1.050000     9.031933852    35.384003333    21.620523314   0   0   0 # oby
   3367      1   3  2.100000    11.000307480    32.412000000    20.051298853   0   0   0 # sty
   3368      1   3  2.100000     8.545309530    36.013333333    20.214746592   0   0   0 # sty
   3369      1   3  2.100000    12.369356350    34.212666667    18.006932131   0   0   0 # sty
   3370      1   2 -1.050000     9.031933852    33.041330000    22.897703314   0   0   0 # oby
   3371      1   2 -1.050000     9.539556966    36.642663333    24.748387110   0   0   0 # oby
   3372      1   2 -1.050000    10.888484591    34.841996667    23.383430700   0   0   0 # oby
   3373      1   2 -1.050000     7.084559015    37.184670000    24.022020700   0   0   0 # oby
   3374      1   2 -1.050000     8.433486640    33.583336667    25.386977110   0   0   0 # oby
   3375      1   2 -1.050000     6.576935901    35.384003333    25.872704497   0   0   0 # oby
   3376      1   3  2.100000     8.545309530    32.412000000    24.303480036   0   0   0 # sty
   3377      1   3  2.100000     6.090311579    36.013333333    24.466927775   0   0   0 # sty
   3378      1   3  2.100000     9.914358399    34.212666667    22.259113314   0   0   0 # sty
   3379      1   1 -0.950000     1.666940000    33.041330000     1.636797398   0   0   0 # ohy
   3380      1   2 -1.050000     2.174563113    36.642663333     3.487481195   0   0   0 # oby
   3381      1   1 -0.950000     3.523490739    34.841996667     2.122524785   0   0   0 # ohy
   3382      1   2 -1.050000    24.269544670    37.184670000     2.761114785   0   0   0 # oby
   3383      1   2 -1.050000     1.068492788    33.583336667     4.126071195   0   0   0 # oby
   3384      1   2 -1.050000    23.761921557    35.384003333     4.611798581   0   0   0 # oby
   3385      1   3  2.100000     1.180315677    32.412000000     3.042574120   0   0   0 # sty
   3386      1   3  2.100000    23.275297234    36.013333333     3.206021859   0   0   0 # sty
   3387      1   3  2.100000    12.369356350    34.212666667    26.511294497   0   0   0 # sty
   3388      1   2 -1.050000    23.761921557    33.041330000     5.888978581   0   0   0 # oby
   3389      1   2 -1.050000    24.269544670    36.642663333     7.739662378   0   0   0 # oby
   3390      1   2 -1.050000     1.068492788    34.841996667     6.374705968   0   0   0 # oby
   3391      1   2 -1.050000    21.814546719    37.184670000     7.013295968   0   0   0 # oby
   3392      1   2 -1.050000    23.163474345    33.583336667     8.378252378   0   0   0 # oby
   3393      1   2 -1.050000    21.306923606    35.384003333     8.863979764   0   0   0 # oby
   3394      1   3  2.100000    23.275297234    32.412000000     7.294755303   0   0   0 # sty
   3395      1   3  2.100000    20.820299283    36.013333333     7.458203042   0   0   0 # sty
   3396      1   3  2.100000    49.194366596    34.212666667     5.250388581  -1   0   0 # sty
   3397      1   2 -1.050000    21.306923606    33.041330000    10.141159764   0   0   0 # oby
   3398      1   2 -1.050000    21.814546719    36.642663333    11.991843561   0   0   0 # oby
   3399      1   2 -1.050000    23.163474345    34.841996667    10.626887151   0   0   0 # oby
   3400      1   2 -1.050000    19.359548768    37.184670000    11.265477151   0   0   0 # oby
   3401      1   2 -1.050000    20.708476394    33.583336667    12.630433561   0   0   0 # oby
   3402      1   2 -1.050000    18.851925655    35.384003333    13.116160948   0   0   0 # oby
   3403      1   3  2.100000    20.820299283    32.412000000    11.546936487   0   0   0 # sty
   3404      1   3  2.100000    18.365301332    36.013333333    11.710384225   0   0   0 # sty
   3405      1   3  2.100000    22.189348153    34.212666667     9.502569764   0   0   0 # sty
   3406      1   2 -1.050000    18.851925655    33.041330000    14.393340948   0   0   0 # oby
   3407      1   2 -1.050000    19.359548768    36.642663333    16.244024744   0   0   0 # oby
   3408      1   2 -1.050000    20.708476394    34.841996667    14.879068334   0   0   0 # oby
   3409      1   2 -1.050000    16.904550818    37.184670000    15.517658334   0   0   0 # oby
   3410      1   2 -1.050000    18.253478443    33.583336667    16.882614744   0   0   0 # oby
   3411      1   2 -1.050000    16.396927704    35.384003333    17.368342131   0   0   0 # oby
   3412      1   3  2.100000    18.365301332    32.412000000    15.799117670   0   0   0 # sty
   3413      1   3  2.100000    15.910303382    36.013333333    15.962565409   0   0   0 # sty
   3414      1   3  2.100000    19.734350202    34.212666667    13.754750948   0   0   0 # sty
   3415      1   2 -1.050000    16.396927704    33.041330000    18.645522131   0   0   0 # oby
   3416      1   2 -1.050000    16.904550818    36.642663333    20.496205927   0   0   0 # oby
   3417      1   2 -1.050000    18.253478443    34.841996667    19.131249517   0   0   0 # oby
   3418      1   2 -1.050000    14.449552867    37.184670000    19.769839517   0   0   0 # oby
   3419      1   2 -1.050000    15.798480493    33.583336667    21.134795927   0   0   0 # oby
   3420      1   2 -1.050000    13.941929754    35.384003333    21.620523314   0   0   0 # oby
   3421      1   3  2.100000    15.910303382    32.412000000    20.051298853   0   0   0 # sty
   3422      1   3  2.100000    13.455305431    36.013333333    20.214746592   0   0   0 # sty
   3423      1   3  2.100000    17.279352251    34.212666667    18.006932131   0   0   0 # sty
   3424      1   2 -1.050000    13.941929754    33.041330000    22.897703314   0   0   0 # oby
   3425      1   2 -1.050000    14.449552867    36.642663333    24.748387110   0   0   0 # oby
   3426      1   2 -1.050000    15.798480493    34.841996667    23.383430700   0   0   0 # oby
   3427      1   2 -1.050000    11.994554916    37.184670000    24.022020700   0   0   0 # oby
   3428      1   2 -1.050000    13.343482542    33.583336667    25.386977110   0   0   0 # oby
   3429      1   2 -1.050000    11.486931803    35.384003333    25.872704497   0   0   0 # oby
   3430      1   3  2.100000    13.455305431    32.412000000    24.303480036   0   0   0 # sty
   3431      1   3  2.100000    11.000307480    36.013333333    24.466927775   0   0   0 # sty
   3432      1   3  2.100000    14.824354300    34.212666667    22.259113314   0   0   0 # sty
   3433      1   1 -0.950000     6.576935901    33.041330000     1.636797398   0   0   0 # ohy
   3434      1   2 -1.050000     7.084559015    36.642663333     3.487481195   0   0   0 # oby
   3435      1   1 -0.950000     8.433486640    34.841996667     2.122524785   0   0   0 # ohy
   3436      1   2 -1.050000     4.629561064    37.184670000     2.761114785   0   0   0 # oby
   3437      1   2 -1.050000     5.978488690    33.583336667     4.126071195   0   0   0 # oby
   3438      1   2 -1.050000     4.121937951    35.384003333     4.611798581   0   0   0 # oby
   3439      1   3  2.100000     6.090311579    32.412000000     3.042574120   0   0   0 # sty
   3440      1   3  2.100000     3.635313628    36.013333333     3.206021859   0   0   0 # sty
   3441      1   3  2.100000    17.279352251    34.212666667    26.511294497   0   0   0 # sty
   3442      1   2 -1.050000     4.121937951    33.041330000     5.888978581   0   0   0 # oby
   3443      1   2 -1.050000     4.629561064    36.642663333     7.739662378   0   0   0 # oby
   3444      1   2 -1.050000     5.978488690    34.841996667     6.374705968   0   0   0 # oby
   3445      1   2 -1.050000     2.174563113    37.184670000     7.013295968   0   0   0 # oby
   3446      1   2 -1.050000     3.523490739    33.583336667     8.378252378   0   0   0 # oby
   3447      1   2 -1.050000     1.666940000    35.384003333     8.863979764   0   0   0 # oby
   3448      1   3  2.100000     3.635313628    32.412000000     7.294755303   0   0   0 # sty
   3449      1   3  2.100000     1.180315677    36.013333333     7.458203042   0   0   0 # sty
   3450      1   3  2.100000     5.004362497    34.212666667     5.250388581   0   0   0 # sty
   3451      1   2 -1.050000     1.666940000    33.041330000    10.141159764   0   0   0 # oby
   3452      1   2 -1.050000     2.174563113    36.642663333    11.991843561   0   0   0 # oby
   3453      1   2 -1.050000     3.523490739    34.841996667    10.626887151   0   0   0 # oby
   3454      1   2 -1.050000    24.269544670    37.184670000    11.265477151   0   0   0 # oby
   3455      1   2 -1.050000     1.068492788    33.583336667    12.630433561   0   0   0 # oby
   3456      1   2 -1.050000    23.761921557    35.384003333    13.116160948   0   0   0 # oby
   3457      1   3  2.100000     1.180315677    32.412000000    11.546936487   0   0   0 # sty
   3458      1   3  2.100000    23.275297234    36.013333333    11.710384225   0   0   0 # sty
   3459      1   3  2.100000     2.549364547    34.212666667     9.502569764   0   0   0 # sty
   3460      1   2 -1.050000    23.761921557    33.041330000    14.393340948   0   0   0 # oby
   3461      1   2 -1.050000    24.269544670    36.642663333    16.244024744   0   0   0 # oby
   3462      1   2 -1.050000     1.068492788    34.841996667    14.879068334   0   0   0 # oby
   3463      1   2 -1.050000    21.814546719    37.184670000    15.517658334   0   0   0 # oby
   3464      1   2 -1.050000    23.163474345    33.583336667    16.882614744   0   0   0 # oby
   3465      1   2 -1.050000    21.306923606    35.384003333    17.368342131   0   0   0 # oby
   3466      1   3  2.100000    23.275297234    32.412000000    15.799117670   0   0   0 # sty
   3467      1   3  2.100000    20.820299283    36.013333333    15.962565409   0   0   0 # sty
   3468      1   3  2.100000    49.194366596    34.212666667    13.754750948  -1   0   0 # sty
   3469      1   2 -1.050000    21.306923606    33.041330000    18.645522131   0   0   0 # oby
   3470      1   2 -1.050000    21.814546719    36.642663333    20.496205927   0   0   0 # oby
   3471      1   2 -1.050000    23.163474345    34.841996667    19.131249517   0   0   0 # oby
   3472      1   2 -1.050000    19.359548768    37.184670000    19.769839517   0   0   0 # oby
   3473      1   2 -1.050000    20.708476394    33.583336667    21.134795927   0   0   0 # oby
   3474      1   2 -1.050000    18.851925655    35.384003333    21.620523314   0   0   0 # oby
   3475      1   3  2.100000    20.820299283    32.412000000    20.051298853   0   0   0 # sty
   3476      1   3  2.100000    18.365301332    36.013333333    20.214746592   0   0   0 # sty
   3477      1   3  2.100000    22.189348153    34.212666667    18.006932131   0   0   0 # sty
   3478      1   2 -1.050000    18.851925655    33.041330000    22.897703314   0   0   0 # oby
   3479      1   2 -1.050000    19.359548768    36.642663333    24.748387110   0   0   0 # oby
   3480      1   2 -1.050000    20.708476394    34.841996667    23.383430700   0   0   0 # oby
   3481      1   2 -1.050000    16.904550818    37.184670000    24.022020700   0   0   0 # oby
   3482      1   2 -1.050000    18.253478443    33.583336667    25.386977110   0   0   0 # oby
   3483      1   2 -1.050000    16.396927704    35.384003333    25.872704497   0   0   0 # oby
   3484      1   3  2.100000    18.365301332    32.412000000    24.303480036   0   0   0 # sty
   3485      1   3  2.100000    15.910303382    36.013333333    24.466927775   0   0   0 # sty
   3486      1   3  2.100000    19.734350202    34.212666667    22.259113314   0   0   0 # sty
   3487      1   1 -0.950000    11.486931803    33.041330000     1.636797398   0   0   0 # ohy
   3488      1   2 -1.050000    11.994554916    36.642663333     3.487481195   0   0   0 # oby
   3489      1   1 -0.950000    13.343482542    34.841996667     2.122524785   0   0   0 # ohy
   3490      1   2 -1.050000     9.539556966    37.184670000     2.761114785   0   0   0 # oby
   3491      1   2 -1.050000    10.888484591    33.583336667     4.126071195   0   0   0 # oby
   3492      1   2 -1.050000     9.031933852    35.384003333     4.611798581   0   0   0 # oby
   3493      1   3  2.100000    11.000307480    32.412000000     3.042574120   0   0   0 # sty
   3494      1   3  2.100000     8.545309530    36.013333333     3.206021859   0   0   0 # sty
   3495      1   3  2.100000    22.189348153    34.212666667    26.511294497   0   0   0 # sty
   3496      1   2 -1.050000     9.031933852    33.041330000     5.888978581   0   0   0 # oby
   3497      1   2 -1.050000     9.539556966    36.642663333     7.739662378   0   0   0 # oby
   3498      1   2 -1.050000    10.888484591    34.841996667     6.374705968   0   0   0 # oby
   3499      1   2 -1.050000     7.084559015    37.184670000     7.013295968   0   0   0 # oby
   3500      1   2 -1.050000     8.433486640    33.583336667     8.378252378   0   0   0 # oby
   3501      1   2 -1.050000     6.576935901    35.384003333     8.863979764   0   0   0 # oby
   3502      1   3  2.100000     8.545309530    32.412000000     7.294755303   0   0   0 # sty
   3503      1   3  2.100000     6.090311579    36.013333333     7.458203042   0   0   0 # sty
   3504      1   3  2.100000     9.914358399    34.212666667     5.250388581   0   0   0 # sty
   3505      1   2 -1.050000     6.576935901    33.041330000    10.141159764   0   0   0 # oby
   3506      1   2 -1.050000     7.084559015    36.642663333    11.991843561   0   0   0 # oby
   3507      1   2 -1.050000     8.433486640    34.841996667    10.626887151   0   0   0 # oby
   3508      1   2 -1.050000     4.629561064    37.184670000    11.265477151   0   0   0 # oby
   3509      1   2 -1.050000     5.978488690    33.583336667    12.630433561   0   0   0 # oby
   3510      1   2 -1.050000     4.121937951    35.384003333    13.116160948   0   0   0 # oby
   3511      1   3  2.100000     6.090311579    32.412000000    11.546936487   0   0   0 # sty
   3512      1   3  2.100000     3.635313628    36.013333333    11.710384225   0   0   0 # sty
   3513      1   3  2.100000     7.459360448    34.212666667     9.502569764   0   0   0 # sty
   3514      1   2 -1.050000     4.121937951    33.041330000    14.393340948   0   0   0 # oby
   3515      1   2 -1.050000     4.629561064    36.642663333    16.244024744   0   0   0 # oby
   3516      1   2 -1.050000     5.978488690    34.841996667    14.879068334   0   0   0 # oby
   3517      1   2 -1.050000     2.174563113    37.184670000    15.517658334   0   0   0 # oby
   3518      1   2 -1.050000     3.523490739    33.583336667    16.882614744   0   0   0 # oby
   3519      1   2 -1.050000     1.666940000    35.384003333    17.368342131   0   0   0 # oby
   3520      1   3  2.100000     3.635313628    32.412000000    15.799117670   0   0   0 # sty
   3521      1   3  2.100000     1.180315677    36.013333333    15.962565409   0   0   0 # sty
   3522      1   3  2.100000     5.004362497    34.212666667    13.754750948   0   0   0 # sty
   3523      1   2 -1.050000     1.666940000    33.041330000    18.645522131   0   0   0 # oby
   3524      1   2 -1.050000     2.174563113    36.642663333    20.496205927   0   0   0 # oby
   3525      1   2 -1.050000     3.523490739    34.841996667    19.131249517   0   0   0 # oby
   3526      1   2 -1.050000    24.269544670    37.184670000    19.769839517   0   0   0 # oby
   3527      1   2 -1.050000     1.068492788    33.583336667    21.134795927   0   0   0 # oby
   3528      1   2 -1.050000    23.761921557    35.384003333    21.620523314   0   0   0 # oby
   3529      1   3  2.100000     1.180315677    32.412000000    20.051298853   0   0   0 # sty
   3530      1   3  2.100000    23.275297234    36.013333333    20.214746592   0   0   0 # sty
   3531      1   3  2.100000     2.549364547    34.212666667    18.006932131   0   0   0 # sty
   3532      1   2 -1.050000    23.761921557    33.041330000    22.897703314   0   0   0 # oby
   3533      1   2 -1.050000    24.269544670    36.642663333    24.748387110   0   0   0 # oby
   3534      1   2 -1.050000     1.068492788    34.841996667    23.383430700   0   0   0 # oby
   3535      1   2 -1.050000    21.814546719    37.184670000    24.022020700   0   0   0 # oby
   3536      1   2 -1.050000    23.163474345    33.583336667    25.386977110   0   0   0 # oby
   3537      1   2 -1.050000    21.306923606    35.384003333    25.872704497   0   0   0 # oby
   3538      1   3  2.100000    23.275297234    32.412000000    24.303480036   0   0   0 # sty
   3539      1   3  2.100000    20.820299283    36.013333333    24.466927775   0   0   0 # sty
   3540      1   3  2.100000    49.194366596    34.212666667    22.259113314  -1   0   0 # sty
   3541      1   1 -0.950000    16.396927704    38.443330000     1.636797398   0   0   0 # ohy
   3542      1   2 -1.050000    16.904550818    42.044663333     3.487481195   0   0   0 # oby
   3543      1   1 -0.950000    18.253478443    40.243996667     2.122524785   0   0   0 # ohy
   3544      1   2 -1.050000    14.449552867    42.586670000     2.761114785   0   0   0 # oby
   3545      1   2 -1.050000    15.798480493    38.985336667     4.126071195   0   0   0 # oby
   3546      1   2 -1.050000    13.941929754    40.786003333     4.611798581   0   0   0 # oby
   3547      1   3  2.100000    15.910303382    37.814000000     3.042574120   0   0   0 # sty
   3548      1   3  2.100000    13.455305431    41.415333333     3.206021859   0   0   0 # sty
   3549      1   3  2.100000     2.549364547    39.614666667    26.511294497   0   0   0 # sty
   3550      1   2 -1.050000    13.941929754    38.443330000     5.888978581   0   0   0 # oby
   3551      1   2 -1.050000    14.449552867    42.044663333     7.739662378   0   0   0 # oby
   3552      1   2 -1.050000    15.798480493    40.243996667     6.374705968   0   0   0 # oby
   3553      1   2 -1.050000    11.994554916    42.586670000     7.013295968   0   0   0 # oby
   3554      1   2 -1.050000    13.343482542    38.985336667     8.378252378   0   0   0 # oby
   3555      1   2 -1.050000    11.486931803    40.786003333     8.863979764   0   0   0 # oby
   3556      1   3  2.100000    13.455305431    37.814000000     7.294755303   0   0   0 # sty
   3557      1   3  2.100000    11.000307480    41.415333333     7.458203042   0   0   0 # sty
   3558      1   3  2.100000    14.824354300    39.614666667     5.250388581   0   0   0 # sty
   3559      1   2 -1.050000    11.486931803    38.443330000    10.141159764   0   0   0 # oby
   3560      1   2 -1.050000    11.994554916    42.044663333    11.991843561   0   0   0 # oby
   3561      1   2 -1.050000    13.343482542    40.243996667    10.626887151   0   0   0 # oby
   3562      1   2 -1.050000     9.539556966    42.586670000    11.265477151   0   0   0 # oby
   3563      1   2 -1.050000    10.888484591    38.985336667    12.630433561   0   0   0 # oby
   3564      1   2 -1.050000     9.031933852    40.786003333    13.116160948   0   0   0 # oby
   3565      1   3  2.100000    11.000307480    37.814000000    11.546936487   0   0   0 # sty
   3566      1   3  2.100000     8.545309530    41.415333333    11.710384225   0   0   0 # sty
   3567      1   3  2.100000    12.369356350    39.614666667     9.502569764   0   0   0 # sty
   3568      1   2 -1.050000     9.031933852    38.443330000    14.393340948   0   0   0 # oby
   3569      1   2 -1.050000     9.539556966    42.044663333    16.244024744   0   0   0 # oby
   3570      1   2 -1.050000    10.888484591    40.243996667    14.879068334   0   0   0 # oby
   3571      1   2 -1.050000     7.084559015    42.586670000    15.517658334   0   0   0 # oby
   3572      1   2 -1.050000     8.433486640    38.985336667    16.882614744   0   0   0 # oby
   3573      1   2 -1.050000     6.576935901    40.786003333    17.368342131   0   0   0 # oby
   3574      1   3  2.100000     8.545309530    37.814000000    15.799117670   0   0   0 # sty
   3575      1   3  2.100000     6.090311579    41.415333333    15.962565409   0   0   0 # sty
   3576      1   3  2.100000     9.914358399    39.614666667    13.754750948   0   0   0 # sty
   3577      1   2 -1.050000     6.576935901    38.443330000    18.645522131   0   0   0 # oby
   3578      1   2 -1.050000     7.084559015    42.044663333    20.496205927   0   0   0 # oby
   3579      1   2 -1.050000     8.433486640    40.243996667    19.131249517   0   0   0 # oby
   3580      1   2 -1.050000     4.629561064    42.586670000    19.769839517   0   0   0 # oby
   3581      1   2 -1.050000     5.978488690    38.985336667    21.134795927   0   0   0 # oby
   3582      1   2 -1.050000     4.121937951    40.786003333    21.620523314   0   0   0 # oby
   3583      1   3  2.100000     6.090311579    37.814000000    20.051298853   0   0   0 # sty
   3584      1   3  2.100000     3.635313628    41.415333333    20.214746592   0   0   0 # sty
   3585      1   3  2.100000     7.459360448    39.614666667    18.006932131   0   0   0 # sty
   3586      1   2 -1.050000     4.121937951    38.443330000    22.897703314   0   0   0 # oby
   3587      1   2 -1.050000     4.629561064    42.044663333    24.748387110   0   0   0 # oby
   3588      1   2 -1.050000     5.978488690    40.243996667    23.383430700   0   0   0 # oby
   3589      1   2 -1.050000     2.174563113    42.586670000    24.022020700   0   0   0 # oby
   3590      1   2 -1.050000     3.523490739    38.985336667    25.386977110   0   0   0 # oby
   3591      1   2 -1.050000     1.666940000    40.786003333    25.872704497   0   0   0 # oby
   3592      1   3  2.100000     3.635313628    37.814000000    24.303480036   0   0   0 # sty
   3593      1   3  2.100000     1.180315677    41.415333333    24.466927775   0   0   0 # sty
   3594      1   3  2.100000     5.004362497    39.614666667    22.259113314   0   0   0 # sty
   3595      1   1 -0.950000    21.306923606    38.443330000     1.636797398   0   0   0 # ohy
   3596      1   2 -1.050000    21.814546719    42.044663333     3.487481195   0   0   0 # oby
   3597      1   1 -0.950000    23.163474345    40.243996667     2.122524785   0   0   0 # ohy
   3598      1   2 -1.050000    19.359548768    42.586670000     2.761114785   0   0   0 # oby
   3599      1   2 -1.050000    20.708476394    38.985336667     4.126071195   0   0   0 # oby
   3600      1   2 -1.050000    18.851925655    40.786003333     4.611798581   0   0   0 # oby
   3601      1   3  2.100000    20.820299283    37.814000000     3.042574120   0   0   0 # sty
   3602      1   3  2.100000    18.365301332    41.415333333     3.206021859   0   0   0 # sty
   3603      1   3  2.100000     7.459360448    39.614666667    26.511294497   0   0   0 # sty
   3604      1   2 -1.050000    18.851925655    38.443330000     5.888978581   0   0   0 # oby
   3605      1   2 -1.050000    19.359548768    42.044663333     7.739662378   0   0   0 # oby
   3606      1   2 -1.050000    20.708476394    40.243996667     6.374705968   0   0   0 # oby
   3607      1   2 -1.050000    16.904550818    42.586670000     7.013295968   0   0   0 # oby
   3608      1   2 -1.050000    18.253478443    38.985336667     8.378252378   0   0   0 # oby
   3609      1   2 -1.050000    16.396927704    40.786003333     8.863979764   0   0   0 # oby
   3610      1   3  2.100000    18.365301332    37.814000000     7.294755303   0   0   0 # sty
   3611      1   3  2.100000    15.910303382    41.415333333     7.458203042   0   0   0 # sty
   3612      1   3  2.100000    19.734350202    39.614666667     5.250388581   0   0   0 # sty
   3613      1   2 -1.050000    16.396927704    38.443330000    10.141159764   0   0   0 # oby
   3614      1   2 -1.050000    16.904550818    42.044663333    11.991843561   0   0   0 # oby
   3615      1   2 -1.050000    18.253478443    40.243996667    10.626887151   0   0   0 # oby
   3616      1   2 -1.050000    14.449552867    42.586670000    11.265477151   0   0   0 # oby
   3617      1   2 -1.050000    15.798480493    38.985336667    12.630433561   0   0   0 # oby
   3618      1   2 -1.050000    13.941929754    40.786003333    13.116160948   0   0   0 # oby
   3619      1   3  2.100000    15.910303382    37.814000000    11.546936487   0   0   0 # sty
   3620      1   3  2.100000    13.455305431    41.415333333    11.710384225   0   0   0 # sty
   3621      1   3  2.100000    17.279352251    39.614666667     9.502569764   0   0   0 # sty
   3622      1   2 -1.050000    13.941929754    38.443330000    14.393340948   0   0   0 # oby
   3623      1   2 -1.050000    14.449552867    42.044663333    16.244024744   0   0   0 # oby
   3624      1   2 -1.050000    15.798480493    40.243996667    14.879068334   0   0   0 # oby
   3625      1   2 -1.050000    11.994554916    42.586670000    15.517658334   0   0   0 # oby
   3626      1   2 -1.050000    13.343482542    38.985336667    16.882614744   0   0   0 # oby
   3627      1   2 -1.050000    11.486931803    40.786003333    17.368342131   0   0   0 # oby
   3628      1   3  2.100000    13.455305431    37.814000000    15.799117670   0   0   0 # sty
   3629      1   3  2.100000    11.000307480    41.415333333    15.962565409   0   0   0 # sty
   3630      1   3  2.100000    14.824354300    39.614666667    13.754750948   0   0   0 # sty
   3631      1   2 -1.050000    11.486931803    38.443330000    18.645522131   0   0   0 # oby
   3632      1   2 -1.050000    11.994554916    42.044663333    20.496205927   0   0   0 # oby
   3633      1   2 -1.050000    13.343482542    40.243996667    19.131249517   0   0   0 # oby
   3634      1   2 -1.050000     9.539556966    42.586670000    19.769839517   0   0   0 # oby
   3635      1   2 -1.050000    10.888484591    38.985336667    21.134795927   0   0   0 # oby
   3636      1   2 -1.050000     9.031933852    40.786003333    21.620523314   0   0   0 # oby
   3637      1   3  2.100000    11.000307480    37.814000000    20.051298853   0   0   0 # sty
   3638      1   3  2.100000     8.545309530    41.415333333    20.214746592   0   0   0 # sty
   3639      1   3  2.100000    12.369356350    39.614666667    18.006932131   0   0   0 # sty
   3640      1   2 -1.050000     9.031933852    38.443330000    22.897703314   0   0   0 # oby
   3641      1   2 -1.050000     9.539556966    42.044663333    24.748387110   0   0   0 # oby
   3642      1   2 -1.050000    10.888484591    40.243996667    23.383430700   0   0   0 # oby
   3643      1   2 -1.050000     7.084559015    42.586670000    24.022020700   0   0   0 # oby
   3644      1   2 -1.050000     8.433486640    38.985336667    25.386977110   0   0   0 # oby
   3645      1   2 -1.050000     6.576935901    40.786003333    25.872704497   0   0   0 # oby
   3646      1   3  2.100000     8.545309530    37.814000000    24.303480036   0   0   0 # sty
   3647      1   3  2.100000     6.090311579    41.415333333    24.466927775   0   0   0 # sty
   3648      1   3  2.100000     9.914358399    39.614666667    22.259113314   0   0   0 # sty
   3649      1   1 -0.950000     1.666940000    38.443330000     1.636797398   0   0   0 # ohy
   3650      1   2 -1.050000     2.174563113    42.044663333     3.487481195   0   0   0 # oby
   3651      1   1 -0.950000     3.523490739    40.243996667     2.122524785   0   0   0 # ohy
   3652      1   2 -1.050000    24.269544670    42.586670000     2.761114785   0   0   0 # oby
   3653      1   2 -1.050000     1.068492788    38.985336667     4.126071195   0   0   0 # oby
   3654      1   2 -1.050000    23.761921557    40.786003333     4.611798581   0   0   0 # oby
   3655      1   3  2.100000     1.180315677    37.814000000     3.042574120   0   0   0 # sty
   3656      1   3  2.100000    23.275297234    41.415333333     3.206021859   0   0   0 # sty
   3657      1   3  2.100000    12.369356350    39.614666667    26.511294497   0   0   0 # sty
   3658      1   2 -1.050000    23.761921557    38.443330000     5.888978581   0   0   0 # oby
   3659      1   2 -1.050000    24.269544670    42.044663333     7.739662378   0   0   0 # oby
   3660      1   2 -1.050000     1.068492788    40.243996667     6.374705968   0   0   0 # oby
   3661      1   2 -1.050000    21.814546719    42.586670000     7.013295968   0   0   0 # oby
   3662      1   2 -1.050000    23.163474345    38.985336667     8.378252378   0   0   0 # oby
   3663      1   2 -1.050000    21.306923606    40.786003333     8.863979764   0   0   0 # oby
   3664      1   3  2.100000    23.275297234    37.814000000     7.294755303   0   0   0 # sty
   3665      1   3  2.100000    20.820299283    41.415333333     7.458203042   0   0   0 # sty
   3666      1   3  2.100000    49.194366596    39.614666667     5.250388581  -1   0   0 # sty
   3667      1   2 -1.050000    21.306923606    38.443330000    10.141159764   0   0   0 # oby
   3668      1   2 -1.050000    21.814546719    42.044663333    11.991843561   0   0   0 # oby
   3669      1   2 -1.050000    23.163474345    40.243996667    10.626887151   0   0   0 # oby
   3670      1   2 -1.050000    19.359548768    42.586670000    11.265477151   0   0   0 # oby
   3671      1   2 -1.050000    20.708476394    38.985336667    12.630433561   0   0   0 # oby
   3672      1   2 -1.050000    18.851925655    40.786003333    13.116160948   0   0   0 # oby
   3673      1   3  2.100000    20.820299283    37.814000000    11.546936487   0   0   0 # sty
   3674      1   3  2.100000    18.365301332    41.415333333    11.710384225   0   0   0 # sty
   3675      1   3  2.100000    22.189348153    39.614666667     9.502569764   0   0   0 # sty
   3676      1   2 -1.050000    18.851925655    38.443330000    14.393340948   0   0   0 # oby
   3677      1   2 -1.050000    19.359548768    42.044663333    16.244024744   0   0   0 # oby
   3678      1   2 -1.050000    20.708476394    40.243996667    14.879068334   0   0   0 # oby
   3679      1   2 -1.050000    16.904550818    42.586670000    15.517658334   0   0   0 # oby
   3680      1   2 -1.050000    18.253478443    38.985336667    16.882614744   0   0   0 # oby
   3681      1   2 -1.050000    16.396927704    40.786003333    17.368342131   0   0   0 # oby
   3682      1   3  2.100000    18.365301332    37.814000000    15.799117670   0   0   0 # sty
   3683      1   3  2.100000    15.910303382    41.415333333    15.962565409   0   0   0 # sty
   3684      1   3  2.100000    19.734350202    39.614666667    13.754750948   0   0   0 # sty
   3685      1   2 -1.050000    16.396927704    38.443330000    18.645522131   0   0   0 # oby
   3686      1   2 -1.050000    16.904550818    42.044663333    20.496205927   0   0   0 # oby
   3687      1   2 -1.050000    18.253478443    40.243996667    19.131249517   0   0   0 # oby
   3688      1   2 -1.050000    14.449552867    42.586670000    19.769839517   0   0   0 # oby
   3689      1   2 -1.050000    15.798480493    38.985336667    21.134795927   0   0   0 # oby
   3690      1   2 -1.050000    13.941929754    40.786003333    21.620523314   0   0   0 # oby
   3691      1   3  2.100000    15.910303382    37.814000000    20.051298853   0   0   0 # sty
   3692      1   3  2.100000    13.455305431    41.415333333    20.214746592   0   0   0 # sty
   3693      1   3  2.100000    17.279352251    39.614666667    18.006932131   0   0   0 # sty
   3694      1   2 -1.050000    13.941929754    38.443330000    22.897703314   0   0   0 # oby
   3695      1   2 -1.050000    14.449552867    42.044663333    24.748387110   0   0   0 # oby
   3696      1   2 -1.050000    15.798480493    40.243996667    23.383430700   0   0   0 # oby
   3697      1   2 -1.050000    11.994554916    42.586670000    24.022020700   0   0   0 # oby
   3698      1   2 -1.050000    13.343482542    38.985336667    25.386977110   0   0   0 # oby
   3699      1   2 -1.050000    11.486931803    40.786003333    25.872704497   0   0   0 # oby
   3700      1   3  2.100000    13.455305431    37.814000000    24.303480036   0   0   0 # sty
   3701      1   3  2.100000    11.000307480    41.415333333    24.466927775   0   0   0 # sty
   3702      1   3  2.100000    14.824354300    39.614666667    22.259113314   0   0   0 # sty
   3703      1   1 -0.950000     6.576935901    38.443330000     1.636797398   0   0   0 # ohy
   3704      1   2 -1.050000     7.084559015    42.044663333     3.487481195   0   0   0 # oby
   3705      1   1 -0.950000     8.433486640    40.243996667     2.122524785   0   0   0 # ohy
   3706      1   2 -1.050000     4.629561064    42.586670000     2.761114785   0   0   0 # oby
   3707      1   2 -1.050000     5.978488690    38.985336667     4.126071195   0   0   0 # oby
   3708      1   2 -1.050000     4.121937951    40.786003333     4.611798581   0   0   0 # oby
   3709      1   3  2.100000     6.090311579    37.814000000     3.042574120   0   0   0 # sty
   3710      1   3  2.100000     3.635313628    41.415333333     3.206021859   0   0   0 # sty
   3711      1   3  2.100000    17.279352251    39.614666667    26.511294497   0   0   0 # sty
   3712      1   2 -1.050000     4.121937951    38.443330000     5.888978581   0   0   0 # oby
   3713      1   2 -1.050000     4.629561064    42.044663333     7.739662378   0   0   0 # oby
   3714      1   2 -1.050000     5.978488690    40.243996667     6.374705968   0   0   0 # oby
   3715      1   2 -1.050000     2.174563113    42.586670000     7.013295968   0   0   0 # oby
   3716      1   2 -1.050000     3.523490739    38.985336667     8.378252378   0   0   0 # oby
   3717      1   2 -1.050000     1.666940000    40.786003333     8.863979764   0   0   0 # oby
   3718      1   3  2.100000     3.635313628    37.814000000     7.294755303   0   0   0 # sty
   3719      1   3  2.100000     1.180315677    41.415333333     7.458203042   0   0   0 # sty
   3720      1   3  2.100000     5.004362497    39.614666667     5.250388581   0   0   0 # sty
   3721      1   2 -1.050000     1.666940000    38.443330000    10.141159764   0   0   0 # oby
   3722      1   2 -1.050000     2.174563113    42.044663333    11.991843561   0   0   0 # oby
   3723      1   2 -1.050000     3.523490739    40.243996667    10.626887151   0   0   0 # oby
   3724      1   2 -1.050000    24.269544670    42.586670000    11.265477151   0   0   0 # oby
   3725      1   2 -1.050000     1.068492788    38.985336667    12.630433561   0   0   0 # oby
   3726      1   2 -1.050000    23.761921557    40.786003333    13.116160948   0   0   0 # oby
   3727      1   3  2.100000     1.180315677    37.814000000    11.546936487   0   0   0 # sty
   3728      1   3  2.100000    23.275297234    41.415333333    11.710384225   0   0   0 # sty
   3729      1   3  2.100000     2.549364547    39.614666667     9.502569764   0   0   0 # sty
   3730      1   2 -1.050000    23.761921557    38.443330000    14.393340948   0   0   0 # oby
   3731      1   2 -1.050000    24.269544670    42.044663333    16.244024744   0   0   0 # oby
   3732      1   2 -1.050000     1.068492788    40.243996667    14.879068334   0   0   0 # oby
   3733      1   2 -1.050000    21.814546719    42.586670000    15.517658334   0   0   0 # oby
   3734      1   2 -1.050000    23.163474345    38.985336667    16.882614744   0   0   0 # oby
   3735      1   2 -1.050000    21.306923606    40.786003333    17.368342131   0   0   0 # oby
   3736      1   3  2.100000    23.275297234    37.814000000    15.799117670   0   0   0 # sty
   3737      1   3  2.100000    20.820299283    41.415333333    15.962565409   0   0   0 # sty
   3738      1   3  2.100000    49.194366596    39.614666667    13.754750948  -1   0   0 # sty
   3739      1   2 -1.050000    21.306923606    38.443330000    18.645522131   0   0   0 # oby
   3740      1   2 -1.050000    21.814546719    42.044663333    20.496205927   0   0   0 # oby
   3741      1   2 -1.050000    23.163474345    40.243996667    19.131249517   0   0   0 # oby
   3742      1   2 -1.050000    19.359548768    42.586670000    19.769839517   0   0   0 # oby
   3743      1   2 -1.050000    20.708476394    38.985336667    21.134795927   0   0   0 # oby
   3744      1   2 -1.050000    18.851925655    40.786003333    21.620523314   0   0   0 # oby
   3745      1   3  2.100000    20.820299283    37.814000000    20.051298853   0   0   0 # sty
   3746      1   3  2.100000    18.365301332    41.415333333    20.214746592   0   0   0 # sty
   3747      1   3  2.100000    22.189348153    39.614666667    18.006932131   0   0   0 # sty
   3748      1   2 -1.050000    18.851925655    38.443330000    22.897703314   0   0   0 # oby
   3749      1   2 -1.050000    19.359548768    42.044663333    24.748387110   0   0   0 # oby
   3750      1   2 -1.050000    20.708476394    40.243996667    23.383430700   0   0   0 # oby
   3751      1   2 -1.050000    16.904550818    42.586670000    24.022020700   0   0   0 # oby
   3752      1   2 -1.050000    18.253478443    38.985336667    25.386977110   0   0   0 # oby
   3753      1   2 -1.050000    16.396927704    40.786003333    25.872704497   0   0   0 # oby
   3754      1   3  2.100000    18.365301332    37.814000000    24.303480036   0   0   0 # sty
   3755      1   3  2.100000    15.910303382    41.415333333    24.466927775   0   0   0 # sty
   3756      1   3  2.100000    19.734350202    39.614666667    22.259113314   0   0   0 # sty
   3757      1   1 -0.950000    11.486931803    38.443330000     1.636797398   0   0   0 # ohy
   3758      1   2 -1.050000    11.994554916    42.044663333     3.487481195   0   0   0 # oby
   3759      1   1 -0.950000    13.343482542    40.243996667     2.122524785   0   0   0 # ohy
   3760      1   2 -1.050000     9.539556966    42.586670000     2.761114785   0   0   0 # oby
   3761      1   2 -1.050000    10.888484591    38.985336667     4.126071195   0   0   0 # oby
   3762      1   2 -1.050000     9.031933852    40.786003333     4.611798581   0   0   0 # oby
   3763      1   3  2.100000    11.000307480    37.814000000     3.042574120   0   0   0 # sty
   3764      1   3  2.100000     8.545309530    41.415333333     3.206021859   0   0   0 # sty
   3765      1   3  2.100000    22.189348153    39.614666667    26.511294497   0   0   0 # sty
   3766      1   2 -1.050000     9.031933852    38.443330000     5.888978581   0   0   0 # oby
   3767      1   2 -1.050000     9.539556966    42.044663333     7.739662378   0   0   0 # oby
   3768      1   2 -1.050000    10.888484591    40.243996667     6.374705968   0   0   0 # oby
   3769      1   2 -1.050000     7.084559015    42.586670000     7.013295968   0   0   0 # oby
   3770      1   2 -1.050000     8.433486640    38.985336667     8.378252378   0   0   0 # oby
   3771      1   2 -1.050000     6.576935901    40.786003333     8.863979764   0   0   0 # oby
   3772      1   3  2.100000     8.545309530    37.814000000     7.294755303   0   0   0 # sty
   3773      1   3  2.100000     6.090311579    41.415333333     7.458203042   0   0   0 # sty
   3774      1   3  2.100000     9.914358399    39.614666667     5.250388581   0   0   0 # sty
   3775      1   2 -1.050000     6.576935901    38.443330000    10.141159764   0   0   0 # oby
   3776      1   2 -1.050000     7.084559015    42.044663333    11.991843561   0   0   0 # oby
   3777      1   2 -1.050000     8.433486640    40.243996667    10.626887151   0   0   0 # oby
   3778      1   2 -1.050000     4.629561064    42.586670000    11.265477151   0   0   0 # oby
   3779      1   2 -1.050000     5.978488690    38.985336667    12.630433561   0   0   0 # oby
   3780      1   2 -1.050000     4.121937951    40.786003333    13.116160948   0   0   0 # oby
   3781      1   3  2.100000     6.090311579    37.814000000    11.546936487   0   0   0 # sty
   3782      1   3  2.100000     3.635313628    41.415333333    11.710384225   0   0   0 # sty
   3783      1   3  2.100000     7.459360448    39.614666667     9.502569764   0   0   0 # sty
   3784      1   2 -1.050000     4.121937951    38.443330000    14.393340948   0   0   0 # oby
   3785      1   2 -1.050000     4.629561064    42.044663333    16.244024744   0   0   0 # oby
   3786      1   2 -1.050000     5.978488690    40.243996667    14.879068334   0   0   0 # oby
   3787      1   2 -1.050000     2.174563113    42.586670000    15.517658334   0   0   0 # oby
   3788      1   2 -1.050000     3.523490739    38.985336667    16.882614744   0   0   0 # oby
   3789      1   2 -1.050000     1.666940000    40.786003333    17.368342131   0   0   0 # oby
   3790      1   3  2.100000     3.635313628    37.814000000    15.799117670   0   0   0 # sty
   3791      1   3  2.100000     1.180315677    41.415333333    15.962565409   0   0   0 # sty
   3792      1   3  2.100000     5.004362497    39.614666667    13.754750948   0   0   0 # sty
   3793      1   2 -1.050000     1.666940000    38.443330000    18.645522131   0   0   0 # oby
   3794      1   2 -1.050000     2.174563113    42.044663333    20.496205927   0   0   0 # oby
   3795      1   2 -1.050000     3.523490739    40.243996667    19.131249517   0   0   0 # oby
   3796      1   2 -1.050000    24.269544670    42.586670000    19.769839517   0   0   0 # oby
   3797      1   2 -1.050000     1.068492788    38.985336667    21.134795927   0   0   0 # oby
   3798      1   2 -1.050000    23.761921557    40.786003333    21.620523314   0   0   0 # oby
   3799      1   3  2.100000     1.180315677    37.814000000    20.051298853   0   0   0 # sty
   3800      1   3  2.100000    23.275297234    41.415333333    20.214746592   0   0   0 # sty
   3801      1   3  2.100000     2.549364547    39.614666667    18.006932131   0   0   0 # sty
   3802      1   2 -1.050000    23.761921557    38.443330000    22.897703314   0   0   0 # oby
   3803      1   2 -1.050000    24.269544670    42.044663333    24.748387110   0   0   0 # oby
   3804      1   2 -1.050000     1.068492788    40.243996667    23.383430700   0   0   0 # oby
   3805      1   2 -1.050000    21.814546719    42.586670000    24.022020700   0   0   0 # oby
   3806      1   2 -1.050000    23.163474345    38.985336667    25.386977110   0   0   0 # oby
   3807      1   2 -1.050000    21.306923606    40.786003333    25.872704497   0   0   0 # oby
   3808      1   3  2.100000    23.275297234    37.814000000    24.303480036   0   0   0 # sty
   3809      1   3  2.100000    20.820299283    41.415333333    24.466927775   0   0   0 # sty
   3810      1   3  2.100000    49.194366596    39.614666667    22.259113314  -1   0   0 # sty
   3811      1   1 -0.950000    16.396927704    43.845330000     1.636797398   0   0   0 # ohy
   3812      1   2 -1.050000    16.904550818    47.446663333     3.487481195   0   0   0 # oby
   3813      1   1 -0.950000    18.253478443    45.645996667     2.122524785   0   0   0 # ohy
   3814      1   2 -1.050000    14.449552867    47.988670000     2.761114785   0   0   0 # oby
   3815      1   2 -1.050000    15.798480493    44.387336667     4.126071195   0   0   0 # oby
   3816      1   2 -1.050000    13.941929754    46.188003333     4.611798581   0   0   0 # oby
   3817      1   3  2.100000    15.910303382    43.216000000     3.042574120   0   0   0 # sty
   3818      1   3  2.100000    13.455305431    46.817333333     3.206021859   0   0   0 # sty
   3819      1   3  2.100000     2.549364547    45.016666667    26.511294497   0   0   0 # sty
   3820      1   2 -1.050000    13.941929754    43.845330000     5.888978581   0   0   0 # oby
   3821      1   2 -1.050000    14.449552867    47.446663333     7.739662378   0   0   0 # oby
   3822      1   2 -1.050000    15.798480493    45.645996667     6.374705968   0   0   0 # oby
   3823      1   2 -1.050000    11.994554916    47.988670000     7.013295968   0   0   0 # oby
   3824      1   2 -1.050000    13.343482542    44.387336667     8.378252378   0   0   0 # oby
   3825      1   2 -1.050000    11.486931803    46.188003333     8.863979764   0   0   0 # oby
   3826      1   3  2.100000    13.455305431    43.216000000     7.294755303   0   0   0 # sty
   3827      1   3  2.100000    11.000307480    46.817333333     7.458203042   0   0   0 # sty
   3828      1   3  2.100000    14.824354300    45.016666667     5.250388581   0   0   0 # sty
   3829      1   2 -1.050000    11.486931803    43.845330000    10.141159764   0   0   0 # oby
   3830      1   2 -1.050000    11.994554916    47.446663333    11.991843561   0   0   0 # oby
   3831      1   2 -1.050000    13.343482542    45.645996667    10.626887151   0   0   0 # oby
   3832      1   2 -1.050000     9.539556966    47.988670000    11.265477151   0   0   0 # oby
   3833      1   2 -1.050000    10.888484591    44.387336667    12.630433561   0   0   0 # oby
   3834      1   2 -1.050000     9.031933852    46.188003333    13.116160948   0   0   0 # oby
   3835      1   3  2.100000    11.000307480    43.216000000    11.546936487   0   0   0 # sty
   3836      1   3  2.100000     8.545309530    46.817333333    11.710384225   0   0   0 # sty
   3837      1   3  2.100000    12.369356350    45.016666667     9.502569764   0   0   0 # sty
   3838      1   2 -1.050000     9.031933852    43.845330000    14.393340948   0   0   0 # oby
   3839      1   2 -1.050000     9.539556966    47.446663333    16.244024744   0   0   0 # oby
   3840      1   2 -1.050000    10.888484591    45.645996667    14.879068334   0   0   0 # oby
   3841      1   2 -1.050000     7.084559015    47.988670000    15.517658334   0   0   0 # oby
   3842      1   2 -1.050000     8.433486640    44.387336667    16.882614744   0   0   0 # oby
   3843      1   2 -1.050000     6.576935901    46.188003333    17.368342131   0   0   0 # oby
   3844      1   3  2.100000     8.545309530    43.216000000    15.799117670   0   0   0 # sty
   3845      1   3  2.100000     6.090311579    46.817333333    15.962565409   0   0   0 # sty
   3846      1   3  2.100000     9.914358399    45.016666667    13.754750948   0   0   0 # sty
   3847      1   2 -1.050000     6.576935901    43.845330000    18.645522131   0   0   0 # oby
   3848      1   2 -1.050000     7.084559015    47.446663333    20.496205927   0   0   0 # oby
   3849      1   2 -1.050000     8.433486640    45.645996667    19.131249517   0   0   0 # oby
   3850      1   2 -1.050000     4.629561064    47.988670000    19.769839517   0   0   0 # oby
   3851      1   2 -1.050000     5.978488690    44.387336667    21.134795927   0   0   0 # oby
   3852      1   2 -1.050000     4.121937951    46.188003333    21.620523314   0   0   0 # oby
   3853      1   3  2.100000     6.090311579    43.216000000    20.051298853   0   0   0 # sty
   3854      1   3  2.100000     3.635313628    46.817333333    20.214746592   0   0   0 # sty
   3855      1   3  2.100000     7.459360448    45.016666667    18.006932131   0   0   0 # sty
   3856      1   2 -1.050000     4.121937951    43.845330000    22.897703314   0   0   0 # oby
   3857      1   2 -1.050000     4.629561064    47.446663333    24.748387110   0   0   0 # oby
   3858      1   2 -1.050000     5.978488690    45.645996667    23.383430700   0   0   0 # oby
   3859      1   2 -1.050000     2.174563113    47.988670000    24.022020700   0   0   0 # oby
   3860      1   2 -1.050000     3.523490739    44.387336667    25.386977110   0   0   0 # oby
   3861      1   2 -1.050000     1.666940000    46.188003333    25.872704497   0   0   0 # oby
   3862      1   3  2.100000     3.635313628    43.216000000    24.303480036   0   0   0 # sty
   3863      1   3  2.100000     1.180315677    46.817333333    24.466927775   0   0   0 # sty
   3864      1   3  2.100000     5.004362497    45.016666667    22.259113314   0   0   0 # sty
   3865      1   1 -0.950000    21.306923606    43.845330000     1.636797398   0   0   0 # ohy
   3866      1   2 -1.050000    21.814546719    47.446663333     3.487481195   0   0   0 # oby
   3867      1   1 -0.950000    23.163474345    45.645996667     2.122524785   0   0   0 # ohy
   3868      1   2 -1.050000    19.359548768    47.988670000     2.761114785   0   0   0 # oby
   3869      1   2 -1.050000    20.708476394    44.387336667     4.126071195   0   0   0 # oby
   3870      1   2 -1.050000    18.851925655    46.188003333     4.611798581   0   0   0 # oby
   3871      1   3  2.100000    20.820299283    43.216000000     3.042574120   0   0   0 # sty
   3872      1   3  2.100000    18.365301332    46.817333333     3.206021859   0   0   0 # sty
   3873      1   3  2.100000     7.459360448    45.016666667    26.511294497   0   0   0 # sty
   3874      1   2 -1.050000    18.851925655    43.845330000     5.888978581   0   0   0 # oby
   3875      1   2 -1.050000    19.359548768    47.446663333     7.739662378   0   0   0 # oby
   3876      1   2 -1.050000    20.708476394    45.645996667     6.374705968   0   0   0 # oby
   3877      1   2 -1.050000    16.904550818    47.988670000     7.013295968   0   0   0 # oby
   3878      1   2 -1.050000    18.253478443    44.387336667     8.378252378   0   0   0 # oby
   3879      1   2 -1.050000    16.396927704    46.188003333     8.863979764   0   0   0 # oby
   3880      1   3  2.100000    18.365301332    43.216000000     7.294755303   0   0   0 # sty
   3881      1   3  2.100000    15.910303382    46.817333333     7.458203042   0   0   0 # sty
   3882      1   3  2.100000    19.734350202    45.016666667     5.250388581   0   0   0 # sty
   3883      1   2 -1.050000    16.396927704    43.845330000    10.141159764   0   0   0 # oby
   3884      1   2 -1.050000    16.904550818    47.446663333    11.991843561   0   0   0 # oby
   3885      1   2 -1.050000    18.253478443    45.645996667    10.626887151   0   0   0 # oby
   3886      1   2 -1.050000    14.449552867    47.988670000    11.265477151   0   0   0 # oby
   3887      1   2 -1.050000    15.798480493    44.387336667    12.630433561   0   0   0 # oby
   3888      1   2 -1.050000    13.941929754    46.188003333    13.116160948   0   0   0 # oby
   3889      1   3  2.100000    15.910303382    43.216000000    11.546936487   0   0   0 # sty
   3890      1   3  2.100000    13.455305431    46.817333333    11.710384225   0   0   0 # sty
   3891      1   3  2.100000    17.279352251    45.016666667     9.502569764   0   0   0 # sty
   3892      1   2 -1.050000    13.941929754    43.845330000    14.393340948   0   0   0 # oby
   3893      1   2 -1.050000    14.449552867    47.446663333    16.244024744   0   0   0 # oby
   3894      1   2 -1.050000    15.798480493    45.645996667    14.879068334   0   0   0 # oby
   3895      1   2 -1.050000    11.994554916    47.988670000    15.517658334   0   0   0 # oby
   3896      1   2 -1.050000    13.343482542    44.387336667    16.882614744   0   0   0 # oby
   3897      1   2 -1.050000    11.486931803    46.188003333    17.368342131   0   0   0 # oby
   3898      1   3  2.100000    13.455305431    43.216000000    15.799117670   0   0   0 # sty
   3899      1   3  2.100000    11.000307480    46.817333333    15.962565409   0   0   0 # sty
   3900      1   3  2.100000    14.824354300    45.016666667    13.754750948   0   0   0 # sty
   3901      1   2 -1.050000    11.486931803    43.845330000    18.645522131   0   0   0 # oby
   3902      1   2 -1.050000    11.994554916    47.446663333    20.496205927   0   0   0 # oby
   3903      1   2 -1.050000    13.343482542    45.645996667    19.131249517   0   0   0 # oby
   3904      1   2 -1.050000     9.539556966    47.988670000    19.769839517   0   0   0 # oby
   3905      1   2 -1.050000    10.888484591    44.387336667    21.134795927   0   0   0 # oby
   3906      1   2 -1.050000     9.031933852    46.188003333    21.620523314   0   0   0 # oby
   3907      1   3  2.100000    11.000307480    43.216000000    20.051298853   0   0   0 # sty
   3908      1   3  2.100000     8.545309530    46.817333333    20.214746592   0   0   0 # sty
   3909      1   3  2.100000    12.369356350    45.016666667    18.006932131   0   0   0 # sty
   3910      1   2 -1.050000     9.031933852    43.845330000    22.897703314   0   0   0 # oby
   3911      1   2 -1.050000     9.539556966    47.446663333    24.748387110   0   0   0 # oby
   3912      1   2 -1.050000    10.888484591    45.645996667    23.383430700   0   0   0 # oby
   3913      1   2 -1.050000     7.084559015    47.988670000    24.022020700   0   0   0 # oby
   3914      1   2 -1.050000     8.433486640    44.387336667    25.386977110   0   0   0 # oby
   3915      1   2 -1.050000     6.576935901    46.188003333    25.872704497   0   0   0 # oby
   3916      1   3  2.100000     8.545309530    43.216000000    24.303480036   0   0   0 # sty
   3917      1   3  2.100000     6.090311579    46.817333333    24.466927775   0   0   0 # sty
   3918      1   3  2.100000     9.914358399    45.016666667    22.259113314   0   0   0 # sty
   3919      1   1 -0.950000     1.666940000    43.845330000     1.636797398   0   0   0 # ohy
   3920      1   2 -1.050000     2.174563113    47.446663333     3.487481195   0   0   0 # oby
   3921      1   1 -0.950000     3.523490739    45.645996667     2.122524785   0   0   0 # ohy
   3922      1   2 -1.050000    24.269544670    47.988670000     2.761114785   0   0   0 # oby
   3923      1   2 -1.050000     1.068492788    44.387336667     4.126071195   0   0   0 # oby
   3924      1   2 -1.050000    23.761921557    46.188003333     4.611798581   0   0   0 # oby
   3925      1   3  2.100000     1.180315677    43.216000000     3.042574120   0   0   0 # sty
   3926      1   3  2.100000    23.275297234    46.817333333     3.206021859   0   0   0 # sty
   3927      1   3  2.100000    12.369356350    45.016666667    26.511294497   0   0   0 # sty
   3928      1   2 -1.050000    23.761921557    43.845330000     5.888978581   0   0   0 # oby
   3929      1   2 -1.050000    24.269544670    47.446663333     7.739662378   0   0   0 # oby
   3930      1   2 -1.050000     1.068492788    45.645996667     6.374705968   0   0   0 # oby
   3931      1   2 -1.050000    21.814546719    47.988670000     7.013295968   0   0   0 # oby
   3932      1   2 -1.050000    23.163474345    44.387336667     8.378252378   0   0   0 # oby
   3933      1   2 -1.050000    21.306923606    46.188003333     8.863979764   0   0   0 # oby
   3934      1   3  2.100000    23.275297234    43.216000000     7.294755303   0   0   0 # sty
   3935      1   3  2.100000    20.820299283    46.817333333     7.458203042   0   0   0 # sty
   3936      1   3  2.100000    49.194366596    45.016666667     5.250388581  -1   0   0 # sty
   3937      1   2 -1.050000    21.306923606    43.845330000    10.141159764   0   0   0 # oby
   3938      1   2 -1.050000    21.814546719    47.446663333    11.991843561   0   0   0 # oby
   3939      1   2 -1.050000    23.163474345    45.645996667    10.626887151   0   0   0 # oby
   3940      1   2 -1.050000    19.359548768    47.988670000    11.265477151   0   0   0 # oby
   3941      1   2 -1.050000    20.708476394    44.387336667    12.630433561   0   0   0 # oby
   3942      1   2 -1.050000    18.851925655    46.188003333    13.116160948   0   0   0 # oby
   3943      1   3  2.100000    20.820299283    43.216000000    11.546936487   0   0   0 # sty
   3944      1   3  2.100000    18.365301332    46.817333333    11.710384225   0   0   0 # sty
   3945      1   3  2.100000    22.189348153    45.016666667     9.502569764   0   0   0 # sty
   3946      1   2 -1.050000    18.851925655    43.845330000    14.393340948   0   0   0 # oby
   3947      1   2 -1.050000    19.359548768    47.446663333    16.244024744   0   0   0 # oby
   3948      1   2 -1.050000    20.708476394    45.645996667    14.879068334   0   0   0 # oby
   3949      1   2 -1.050000    16.904550818    47.988670000    15.517658334   0   0   0 # oby
   3950      1   2 -1.050000    18.253478443    44.387336667    16.882614744   0   0   0 # oby
   3951      1   2 -1.050000    16.396927704    46.188003333    17.368342131   0   0   0 # oby
   3952      1   3  2.100000    18.365301332    43.216000000    15.799117670   0   0   0 # sty
   3953      1   3  2.100000    15.910303382    46.817333333    15.962565409   0   0   0 # sty
   3954      1   3  2.100000    19.734350202    45.016666667    13.754750948   0   0   0 # sty
   3955      1   2 -1.050000    16.396927704    43.845330000    18.645522131   0   0   0 # oby
   3956      1   2 -1.050000    16.904550818    47.446663333    20.496205927   0   0   0 # oby
   3957      1   2 -1.050000    18.253478443    45.645996667    19.131249517   0   0   0 # oby
   3958      1   2 -1.050000    14.449552867    47.988670000    19.769839517   0   0   0 # oby
   3959      1   2 -1.050000    15.798480493    44.387336667    21.134795927   0   0   0 # oby
   3960      1   2 -1.050000    13.941929754    46.188003333    21.620523314   0   0   0 # oby
   3961      1   3  2.100000    15.910303382    43.216000000    20.051298853   0   0   0 # sty
   3962      1   3  2.100000    13.455305431    46.817333333    20.214746592   0   0   0 # sty
   3963      1   3  2.100000    17.279352251    45.016666667    18.006932131   0   0   0 # sty
   3964      1   2 -1.050000    13.941929754    43.845330000    22.897703314   0   0   0 # oby
   3965      1   2 -1.050000    14.449552867    47.446663333    24.748387110   0   0   0 # oby
   3966      1   2 -1.050000    15.798480493    45.645996667    23.383430700   0   0   0 # oby
   3967      1   2 -1.050000    11.994554916    47.988670000    24.022020700   0   0   0 # oby
   3968      1   2 -1.050000    13.343482542    44.387336667    25.386977110   0   0   0 # oby
   3969      1   2 -1.050000    11.486931803    46.188003333    25.872704497   0   0   0 # oby
   3970      1   3  2.100000    13.455305431    43.216000000    24.303480036   0   0   0 # sty
   3971      1   3  2.100000    11.000307480    46.817333333    24.466927775   0   0   0 # sty
   3972      1   3  2.100000    14.824354300    45.016666667    22.259113314   0   0   0 # sty
   3973      1   1 -0.950000     6.576935901    43.845330000     1.636797398   0   0   0 # ohy
   3974      1   2 -1.050000     7.084559015    47.446663333     3.487481195   0   0   0 # oby
   3975      1   1 -0.950000     8.433486640    45.645996667     2.122524785   0   0   0 # ohy
   3976      1   2 -1.050000     4.629561064    47.988670000     2.761114785   0   0   0 # oby
   3977      1   2 -1.050000     5.978488690    44.387336667     4.126071195   0   0   0 # oby
   3978      1   2 -1.050000     4.121937951    46.188003333     4.611798581   0   0   0 # oby
   3979      1   3  2.100000     6.090311579    43.216000000     3.042574120   0   0   0 # sty
   3980      1   3  2.100000     3.635313628    46.817333333     3.206021859   0   0   0 # sty
   3981      1   3  2.100000    17.279352251    45.016666667    26.511294497   0   0   0 # sty
   3982      1   2 -1.050000     4.121937951    43.845330000     5.888978581   0   0   0 # oby
   3983      1   2 -1.050000     4.629561064    47.446663333     7.739662378   0   0   0 # oby
   3984      1   2 -1.050000     5.978488690    45.645996667     6.374705968   0   0   0 # oby
   3985      1   2 -1.050000     2.174563113    47.988670000     7.013295968   0   0   0 # oby
   3986      1   2 -1.050000     3.523490739    44.387336667     8.378252378   0   0   0 # oby
   3987      1   2 -1.050000     1.666940000    46.188003333     8.863979764   0   0   0 # oby
   3988      1   3  2.100000     3.635313628    43.216000000     7.294755303   0   0   0 # sty
   3989      1   3  2.100000     1.180315677    46.817333333     7.458203042   0   0   0 # sty
   3990      1   3  2.100000     5.004362497    45.016666667     5.250388581   0   0   0 # sty
   3991      1   2 -1.050000     1.666940000    43.845330000    10.141159764   0   0   0 # oby
   3992      1   2 -1.050000     2.174563113    47.446663333    11.991843561   0   0   0 # oby
   3993      1   2 -1.050000     3.523490739    45.645996667    10.626887151   0   0   0 # oby
   3994      1   2 -1.050000    24.269544670    47.988670000    11.265477151   0   0   0 # oby
   3995      1   2 -1.050000     1.068492788    44.387336667    12.630433561   0   0   0 # oby
   3996      1   2 -1.050000    23.761921557    46.188003333    13.116160948   0   0   0 # oby
   3997      1   3  2.100000     1.180315677    43.216000000    11.546936487   0   0   0 # sty
   3998      1   3  2.100000    23.275297234    46.817333333    11.710384225   0   0   0 # sty
   3999      1   3  2.100000     2.549364547    45.016666667     9.502569764   0   0   0 # sty
   4000      1   2 -1.050000    23.761921557    43.845330000    14.393340948   0   0   0 # oby
   4001      1   2 -1.050000    24.269544670    47.446663333    16.244024744   0   0   0 # oby
   4002      1   2 -1.050000     1.068492788    45.645996667    14.879068334   0   0   0 # oby
   4003      1   2 -1.050000    21.814546719    47.988670000    15.517658334   0   0   0 # oby
   4004      1   2 -1.050000    23.163474345    44.387336667    16.882614744   0   0   0 # oby
   4005      1   2 -1.050000    21.306923606    46.188003333    17.368342131   0   0   0 # oby
   4006      1   3  2.100000    23.275297234    43.216000000    15.799117670   0   0   0 # sty
   4007      1   3  2.100000    20.820299283    46.817333333    15.962565409   0   0   0 # sty
   4008      1   3  2.100000    49.194366596    45.016666667    13.754750948  -1   0   0 # sty
   4009      1   2 -1.050000    21.306923606    43.845330000    18.645522131   0   0   0 # oby
   4010      1   2 -1.050000    21.814546719    47.446663333    20.496205927   0   0   0 # oby
   4011      1   2 -1.050000    23.163474345    45.645996667    19.131249517   0   0   0 # oby
   4012      1   2 -1.050000    19.359548768    47.988670000    19.769839517   0   0   0 # oby
   4013      1   2 -1.050000    20.708476394    44.387336667    21.134795927   0   0   0 # oby
   4014      1   2 -1.050000    18.851925655    46.188003333    21.620523314   0   0   0 # oby
   4015      1   3  2.100000    20.820299283    43.216000000    20.051298853   0   0   0 # sty
   4016      1   3  2.100000    18.365301332    46.817333333    20.214746592   0   0   0 # sty
   4017      1   3  2.100000    22.189348153    45.016666667    18.006932131   0   0   0 # sty
   4018      1   2 -1.050000    18.851925655    43.845330000    22.897703314   0   0   0 # oby
   4019      1   2 -1.050000    19.359548768    47.446663333    24.748387110   0   0   0 # oby
   4020      1   2 -1.050000    20.708476394    45.645996667    23.383430700   0   0   0 # oby
   4021      1   2 -1.050000    16.904550818    47.988670000    24.022020700   0   0   0 # oby
   4022      1   2 -1.050000    18.253478443    44.387336667    25.386977110   0   0   0 # oby
   4023      1   2 -1.050000    16.396927704    46.188003333    25.872704497   0   0   0 # oby
   4024      1   3  2.100000    18.365301332    43.216000000    24.303480036   0   0   0 # sty
   4025      1   3  2.100000    15.910303382    46.817333333    24.466927775   0   0   0 # sty
   4026      1   3  2.100000    19.734350202    45.016666667    22.259113314   0   0   0 # sty
   4027      1   1 -0.950000    11.486931803    43.845330000     1.636797398   0   0   0 # ohy
   4028      1   2 -1.050000    11.994554916    47.446663333     3.487481195   0   0   0 # oby
   4029      1   1 -0.950000    13.343482542    45.645996667     2.122524785   0   0   0 # ohy
   4030      1   2 -1.050000     9.539556966    47.988670000     2.761114785   0   0   0 # oby
   4031      1   2 -1.050000    10.888484591    44.387336667     4.126071195   0   0   0 # oby
   4032      1   2 -1.050000     9.031933852    46.188003333     4.611798581   0   0   0 # oby
   4033      1   3  2.100000    11.000307480    43.216000000     3.042574120   0   0   0 # sty
   4034      1   3  2.100000     8.545309530    46.817333333     3.206021859   0   0   0 # sty
   4035      1   3  2.100000    22.189348153    45.016666667    26.511294497   0   0   0 # sty
   4036      1   2 -1.050000     9.031933852    43.845330000     5.888978581   0   0   0 # oby
   4037      1   2 -1.050000     9.539556966    47.446663333     7.739662378   0   0   0 # oby
   4038      1   2 -1.050000    10.888484591    45.645996667     6.374705968   0   0   0 # oby
   4039      1   2 -1.050000     7.084559015    47.988670000     7.013295968   0   0   0 # oby
   4040      1   2 -1.050000     8.433486640    44.387336667     8.378252378   0   0   0 # oby
   4041      1   2 -1.050000     6.576935901    46.188003333     8.863979764   0   0   0 # oby
   4042      1   3  2.100000     8.545309530    43.216000000     7.294755303   0   0   0 # sty
   4043      1   3  2.100000     6.090311579    46.817333333     7.458203042   0   0   0 # sty
   4044      1   3  2.100000     9.914358399    45.016666667     5.250388581   0   0   0 # sty
   4045      1   2 -1.050000     6.576935901    43.845330000    10.141159764   0   0   0 # oby
   4046      1   2 -1.050000     7.084559015    47.446663333    11.991843561   0   0   0 # oby
   4047      1   2 -1.050000     8.433486640    45.645996667    10.626887151   0   0   0 # oby
   4048      1   2 -1.050000     4.629561064    47.988670000    11.265477151   0   0   0 # oby
   4049      1   2 -1.050000     5.978488690    44.387336667    12.630433561   0   0   0 # oby
   4050      1   2 -1.050000     4.121937951    46.188003333    13.116160948   0   0   0 # oby
   4051      1   3  2.100000     6.090311579    43.216000000    11.546936487   0   0   0 # sty
   4052      1   3  2.100000     3.635313628    46.817333333    11.710384225   0   0   0 # sty
   4053      1   3  2.100000     7.459360448    45.016666667     9.502569764   0   0   0 # sty
   4054      1   2 -1.050000     4.121937951    43.845330000    14.393340948   0   0   0 # oby
   4055      1   2 -1.050000     4.629561064    47.446663333    16.244024744   0   0   0 # oby
   4056      1   2 -1.050000     5.978488690    45.645996667    14.879068334   0   0   0 # oby
   4057      1   2 -1.050000     2.174563113    47.988670000    15.517658334   0   0   0 # oby
   4058      1   2 -1.050000     3.523490739    44.387336667    16.882614744   0   0   0 # oby
   4059      1   2 -1.050000     1.666940000    46.188003333    17.368342131   0   0   0 # oby
   4060      1   3  2.100000     3.635313628    43.216000000    15.799117670   0   0   0 # sty
   4061      1   3  2.100000     1.180315677    46.817333333    15.962565409   0   0   0 # sty
   4062      1   3  2.100000     5.004362497    45.016666667    13.754750948   0   0   0 # sty
   4063      1   2 -1.050000     1.666940000    43.845330000    18.645522131   0   0   0 # oby
   4064      1   2 -1.050000     2.174563113    47.446663333    20.496205927   0   0   0 # oby
   4065      1   2 -1.050000     3.523490739    45.645996667    19.131249517   0   0   0 # oby
   4066      1   2 -1.050000    24.269544670    47.988670000    19.769839517   0   0   0 # oby
   4067      1   2 -1.050000     1.068492788    44.387336667    21.134795927   0   0   0 # oby
   4068      1   2 -1.050000    23.761921557    46.188003333    21.620523314   0   0   0 # oby
   4069      1   3  2.100000     1.180315677    43.216000000    20.051298853   0   0   0 # sty
   4070      1   3  2.100000    23.275297234    46.817333333    20.214746592   0   0   0 # sty
   4071      1   3  2.100000     2.549364547    45.016666667    18.006932131   0   0   0 # sty
   4072      1   2 -1.050000    23.761921557    43.845330000    22.897703314   0   0   0 # oby
   4073      1   2 -1.050000    24.269544670    47.446663333    24.748387110   0   0   0 # oby
   4074      1   2 -1.050000     1.068492788    45.645996667    23.383430700   0   0   0 # oby
   4075      1   2 -1.050000    21.814546719    47.988670000    24.022020700   0   0   0 # oby
   4076      1   2 -1.050000    23.163474345    44.387336667    25.386977110   0   0   0 # oby
   4077      1   2 -1.050000    21.306923606    46.188003333    25.872704497   0   0   0 # oby
   4078      1   3  2.100000    23.275297234    43.216000000    24.303480036   0   0   0 # sty
   4079      1   3  2.100000    20.820299283    46.817333333    24.466927775   0   0   0 # sty
   4080      1   3  2.100000    49.194366596    45.016666667    22.259113314  -1   0   0 # sty
   4081      1   1 -0.950000    16.396927704    49.247330000     1.636797398   0   0   0 # ohy
   4082      1   2 -1.050000    16.904550818    52.848663333     3.487481195   0   0   0 # oby
   4083      1   1 -0.950000    18.253478443    51.047996667     2.122524785   0   0   0 # ohy
   4084      1   2 -1.050000    14.449552867    53.390670000     2.761114785   0   0   0 # oby
   4085      1   2 -1.050000    15.798480493    49.789336667     4.126071195   0   0   0 # oby
   4086      1   2 -1.050000    13.941929754    51.590003333     4.611798581   0   0   0 # oby
   4087      1   3  2.100000    15.910303382    48.618000000     3.042574120   0   0   0 # sty
   4088      1   3  2.100000    13.455305431    52.219333333     3.206021859   0   0   0 # sty
   4089      1   3  2.100000     2.549364547    50.418666667    26.511294497   0   0   0 # sty
   4090      1   2 -1.050000    13.941929754    49.247330000     5.888978581   0   0   0 # oby
   4091      1   2 -1.050000    14.449552867    52.848663333     7.739662378   0   0   0 # oby
   4092      1   2 -1.050000    15.798480493    51.047996667     6.374705968   0   0   0 # oby
   4093      1   2 -1.050000    11.994554916    53.390670000     7.013295968   0   0   0 # oby
   4094      1   2 -1.050000    13.343482542    49.789336667     8.378252378   0   0   0 # oby
   4095      1   2 -1.050000    11.486931803    51.590003333     8.863979764   0   0   0 # oby
   4096      1   3  2.100000    13.455305431    48.618000000     7.294755303   0   0   0 # sty
   4097      1   3  2.100000    11.000307480    52.219333333     7.458203042   0   0   0 # sty
   4098      1   3  2.100000    14.824354300    50.418666667     5.250388581   0   0   0 # sty
   4099      1   2 -1.050000    11.486931803    49.247330000    10.141159764   0   0   0 # oby
   4100      1   2 -1.050000    11.994554916    52.848663333    11.991843561   0   0   0 # oby
   4101      1   2 -1.050000    13.343482542    51.047996667    10.626887151   0   0   0 # oby
   4102      1   2 -1.050000     9.539556966    53.390670000    11.265477151   0   0   0 # oby
   4103      1   2 -1.050000    10.888484591    49.789336667    12.630433561   0   0   0 # oby
   4104      1   2 -1.050000     9.031933852    51.590003333    13.116160948   0   0   0 # oby
   4105      1   3  2.100000    11.000307480    48.618000000    11.546936487   0   0   0 # sty
   4106      1   3  2.100000     8.545309530    52.219333333    11.710384225   0   0   0 # sty
   4107      1   3  2.100000    12.369356350    50.418666667     9.502569764   0   0   0 # sty
   4108      1   2 -1.050000     9.031933852    49.247330000    14.393340948   0   0   0 # oby
   4109      1   2 -1.050000     9.539556966    52.848663333    16.244024744   0   0   0 # oby
   4110      1   2 -1.050000    10.888484591    51.047996667    14.879068334   0   0   0 # oby
   4111      1   2 -1.050000     7.084559015    53.390670000    15.517658334   0   0   0 # oby
   4112      1   2 -1.050000     8.433486640    49.789336667    16.882614744   0   0   0 # oby
   4113      1   2 -1.050000     6.576935901    51.590003333    17.368342131   0   0   0 # oby
   4114      1   3  2.100000     8.545309530    48.618000000    15.799117670   0   0   0 # sty
   4115      1   3  2.100000     6.090311579    52.219333333    15.962565409   0   0   0 # sty
   4116      1   3  2.100000     9.914358399    50.418666667    13.754750948   0   0   0 # sty
   4117      1   2 -1.050000     6.576935901    49.247330000    18.645522131   0   0   0 # oby
   4118      1   2 -1.050000     7.084559015    52.848663333    20.496205927   0   0   0 # oby
   4119      1   2 -1.050000     8.433486640    51.047996667    19.131249517   0   0   0 # oby
   4120      1   2 -1.050000     4.629561064    53.390670000    19.769839517   0   0   0 # oby
   4121      1   2 -1.050000     5.978488690    49.789336667    21.134795927   0   0   0 # oby
   4122      1   2 -1.050000     4.121937951    51.590003333    21.620523314   0   0   0 # oby
   4123      1   3  2.100000     6.090311579    48.618000000    20.051298853   0   0   0 # sty
   4124      1   3  2.100000     3.635313628    52.219333333    20.214746592   0   0   0 # sty
   4125      1   3  2.100000     7.459360448    50.418666667    18.006932131   0   0   0 # sty
   4126      1   2 -1.050000     4.121937951    49.247330000    22.897703314   0   0   0 # oby
   4127      1   2 -1.050000     4.629561064    52.848663333    24.748387110   0   0   0 # oby
   4128      1   2 -1.050000     5.978488690    51.047996667    23.383430700   0   0   0 # oby
   4129      1   2 -1.050000     2.174563113    53.390670000    24.022020700   0   0   0 # oby
   4130      1   2 -1.050000     3.523490739    49.789336667    25.386977110   0   0   0 # oby
   4131      1   2 -1.050000     1.666940000    51.590003333    25.872704497   0   0   0 # oby
   4132      1   3  2.100000     3.635313628    48.618000000    24.303480036   0   0   0 # sty
   4133      1   3  2.100000     1.180315677    52.219333333    24.466927775   0   0   0 # sty
   4134      1   3  2.100000     5.004362497    50.418666667    22.259113314   0   0   0 # sty
   4135      1   1 -0.950000    21.306923606    49.247330000     1.636797398   0   0   0 # ohy
   4136      1   2 -1.050000    21.814546719    52.848663333     3.487481195   0   0   0 # oby
   4137      1   1 -0.950000    23.163474345    51.047996667     2.122524785   0   0   0 # ohy
   4138      1   2 -1.050000    19.359548768    53.390670000     2.761114785   0   0   0 # oby
   4139      1   2 -1.050000    20.708476394    49.789336667     4.126071195   0   0   0 # oby
   4140      1   2 -1.050000    18.851925655    51.590003333     4.611798581   0   0   0 # oby
   4141      1   3  2.100000    20.820299283    48.618000000     3.042574120   0   0   0 # sty
   4142      1   3  2.100000    18.365301332    52.219333333     3.206021859   0   0   0 # sty
   4143      1   3  2.100000     7.459360448    50.418666667    26.511294497   0   0   0 # sty
   4144      1   2 -1.050000    18.851925655    49.247330000     5.888978581   0   0   0 # oby
   4145      1   2 -1.050000    19.359548768    52.848663333     7.739662378   0   0   0 # oby
   4146      1   2 -1.050000    20.708476394    51.047996667     6.374705968   0   0   0 # oby
   4147      1   2 -1.050000    16.904550818    53.390670000     7.013295968   0   0   0 # oby
   4148      1   2 -1.050000    18.253478443    49.789336667     8.378252378   0   0   0 # oby
   4149      1   2 -1.050000    16.396927704    51.590003333     8.863979764   0   0   0 # oby
   4150      1   3  2.100000    18.365301332    48.618000000     7.294755303   0   0   0 # sty
   4151      1   3  2.100000    15.910303382    52.219333333     7.458203042   0   0   0 # sty
   4152      1   3  2.100000    19.734350202    50.418666667     5.250388581   0   0   0 # sty
   4153      1   2 -1.050000    16.396927704    49.247330000    10.141159764   0   0   0 # oby
   4154      1   2 -1.050000    16.904550818    52.848663333    11.991843561   0   0   0 # oby
   4155      1   2 -1.050000    18.253478443    51.047996667    10.626887151   0   0   0 # oby
   4156      1   2 -1.050000    14.449552867    53.390670000    11.265477151   0   0   0 # oby
   4157      1   2 -1.050000    15.798480493    49.789336667    12.630433561   0   0   0 # oby
   4158      1   2 -1.050000    13.941929754    51.590003333    13.116160948   0   0   0 # oby
   4159      1   3  2.100000    15.910303382    48.618000000    11.546936487   0   0   0 # sty
   4160      1   3  2.100000    13.455305431    52.219333333    11.710384225   0   0   0 # sty
   4161      1   3  2.100000    17.279352251    50.418666667     9.502569764   0   0   0 # sty
   4162      1   2 -1.050000    13.941929754    49.247330000    14.393340948   0   0   0 # oby
   4163      1   2 -1.050000    14.449552867    52.848663333    16.244024744   0   0   0 # oby
   4164      1   2 -1.050000    15.798480493    51.047996667    14.879068334   0   0   0 # oby
   4165      1   2 -1.050000    11.994554916    53.390670000    15.517658334   0   0   0 # oby
   4166      1   2 -1.050000    13.343482542    49.789336667    16.882614744   0   0   0 # oby
   4167      1   2 -1.050000    11.486931803    51.590003333    17.368342131   0   0   0 # oby
   4168      1   3  2.100000    13.455305431    48.618000000    15.799117670   0   0   0 # sty
   4169      1   3  2.100000    11.000307480    52.219333333    15.962565409   0   0   0 # sty
   4170      1   3  2.100000    14.824354300    50.418666667    13.754750948   0   0   0 # sty
   4171      1   2 -1.050000    11.486931803    49.247330000    18.645522131   0   0   0 # oby
   4172      1   2 -1.050000    11.994554916    52.848663333    20.496205927   0   0   0 # oby
   4173      1   2 -1.050000    13.343482542    51.047996667    19.131249517   0   0   0 # oby
   4174      1   2 -1.050000     9.539556966    53.390670000    19.769839517   0   0   0 # oby
   4175      1   2 -1.050000    10.888484591    49.789336667    21.134795927   0   0   0 # oby
   4176      1   2 -1.050000     9.031933852    51.590003333    21.620523314   0   0   0 # oby
   4177      1   3  2.100000    11.000307480    48.618000000    20.051298853   0   0   0 # sty
   4178      1   3  2.100000     8.545309530    52.219333333    20.214746592   0   0   0 # sty
   4179      1   3  2.100000    12.369356350    50.418666667    18.006932131   0   0   0 # sty
   4180      1   2 -1.050000     9.031933852    49.247330000    22.897703314   0   0   0 # oby
   4181      1   2 -1.050000     9.539556966    52.848663333    24.748387110   0   0   0 # oby
   4182      1   2 -1.050000    10.888484591    51.047996667    23.383430700   0   0   0 # oby
   4183      1   2 -1.050000     7.084559015    53.390670000    24.022020700   0   0   0 # oby
   4184      1   2 -1.050000     8.433486640    49.789336667    25.386977110   0   0   0 # oby
   4185      1   2 -1.050000     6.576935901    51.590003333    25.872704497   0   0   0 # oby
   4186      1   3  2.100000     8.545309530    48.618000000    24.303480036   0   0   0 # sty
   4187      1   3  2.100000     6.090311579    52.219333333    24.466927775   0   0   0 # sty
   4188      1   3  2.100000     9.914358399    50.418666667    22.259113314   0   0   0 # sty
   4189      1   1 -0.950000     1.666940000    49.247330000     1.636797398   0   0   0 # ohy
   4190      1   2 -1.050000     2.174563113    52.848663333     3.487481195   0   0   0 # oby
   4191      1   1 -0.950000     3.523490739    51.047996667     2.122524785   0   0   0 # ohy
   4192      1   2 -1.050000    24.269544670    53.390670000     2.761114785   0   0   0 # oby
   4193      1   2 -1.050000     1.068492788    49.789336667     4.126071195   0   0   0 # oby
   4194      1   2 -1.050000    23.761921557    51.590003333     4.611798581   0   0   0 # oby
   4195      1   3  2.100000     1.180315677    48.618000000     3.042574120   0   0   0 # sty
   4196      1   3  2.100000    23.275297234    52.219333333     3.206021859   0   0   0 # sty
   4197      1   3  2.100000    12.369356350    50.418666667    26.511294497   0   0   0 # sty
   4198      1   2 -1.050000    23.761921557    49.247330000     5.888978581   0   0   0 # oby
   4199      1   2 -1.050000    24.269544670    52.848663333     7.739662378   0   0   0 # oby
   4200      1   2 -1.050000     1.068492788    51.047996667     6.374705968   0   0   0 # oby
   4201      1   2 -1.050000    21.814546719    53.390670000     7.013295968   0   0   0 # oby
   4202      1   2 -1.050000    23.163474345    49.789336667     8.378252378   0   0   0 # oby
   4203      1   2 -1.050000    21.306923606    51.590003333     8.863979764   0   0   0 # oby
   4204      1   3  2.100000    23.275297234    48.618000000     7.294755303   0   0   0 # sty
   4205      1   3  2.100000    20.820299283    52.219333333     7.458203042   0   0   0 # sty
   4206      1   3  2.100000    49.194366596    50.418666667     5.250388581  -1   0   0 # sty
   4207      1   2 -1.050000    21.306923606    49.247330000    10.141159764   0   0   0 # oby
   4208      1   2 -1.050000    21.814546719    52.848663333    11.991843561   0   0   0 # oby
   4209      1   2 -1.050000    23.163474345    51.047996667    10.626887151   0   0   0 # oby
   4210      1   2 -1.050000    19.359548768    53.390670000    11.265477151   0   0   0 # oby
   4211      1   2 -1.050000    20.708476394    49.789336667    12.630433561   0   0   0 # oby
   4212      1   2 -1.050000    18.851925655    51.590003333    13.116160948   0   0   0 # oby
   4213      1   3  2.100000    20.820299283    48.618000000    11.546936487   0   0   0 # sty
   4214      1   3  2.100000    18.365301332    52.219333333    11.710384225   0   0   0 # sty
   4215      1   3  2.100000    22.189348153    50.418666667     9.502569764   0   0   0 # sty
   4216      1   2 -1.050000    18.851925655    49.247330000    14.393340948   0   0   0 # oby
   4217      1   2 -1.050000    19.359548768    52.848663333    16.244024744   0   0   0 # oby
   4218      1   2 -1.050000    20.708476394    51.047996667    14.879068334   0   0   0 # oby
   4219      1   2 -1.050000    16.904550818    53.390670000    15.517658334   0   0   0 # oby
   4220      1   2 -1.050000    18.253478443    49.789336667    16.882614744   0   0   0 # oby
   4221      1   2 -1.050000    16.396927704    51.590003333    17.368342131   0   0   0 # oby
   4222      1   3  2.100000    18.365301332    48.618000000    15.799117670   0   0   0 # sty
   4223      1   3  2.100000    15.910303382    52.219333333    15.962565409   0   0   0 # sty
   4224      1   3  2.100000    19.734350202    50.418666667    13.754750948   0   0   0 # sty
   4225      1   2 -1.050000    16.396927704    49.247330000    18.645522131   0   0   0 # oby
   4226      1   2 -1.050000    16.904550818    52.848663333    20.496205927   0   0   0 # oby
   4227      1   2 -1.050000    18.253478443    51.047996667    19.131249517   0   0   0 # oby
   4228      1   2 -1.050000    14.449552867    53.390670000    19.769839517   0   0   0 # oby
   4229      1   2 -1.050000    15.798480493    49.789336667    21.134795927   0   0   0 # oby
   4230      1   2 -1.050000    13.941929754    51.590003333    21.620523314   0   0   0 # oby
   4231      1   3  2.100000    15.910303382    48.618000000    20.051298853   0   0   0 # sty
   4232      1   3  2.100000    13.455305431    52.219333333    20.214746592   0   0   0 # sty
   4233      1   3  2.100000    17.279352251    50.418666667    18.006932131   0   0   0 # sty
   4234      1   2 -1.050000    13.941929754    49.247330000    22.897703314   0   0   0 # oby
   4235      1   2 -1.050000    14.449552867    52.848663333    24.748387110   0   0   0 # oby
   4236      1   2 -1.050000    15.798480493    51.047996667    23.383430700   0   0   0 # oby
   4237      1   2 -1.050000    11.994554916    53.390670000    24.022020700   0   0   0 # oby
   4238      1   2 -1.050000    13.343482542    49.789336667    25.386977110   0   0   0 # oby
   4239      1   2 -1.050000    11.486931803    51.590003333    25.872704497   0   0   0 # oby
   4240      1   3  2.100000    13.455305431    48.618000000    24.303480036   0   0   0 # sty
   4241      1   3  2.100000    11.000307480    52.219333333    24.466927775   0   0   0 # sty
   4242      1   3  2.100000    14.824354300    50.418666667    22.259113314   0   0   0 # sty
   4243      1   1 -0.950000     6.576935901    49.247330000     1.636797398   0   0   0 # ohy
   4244      1   2 -1.050000     7.084559015    52.848663333     3.487481195   0   0   0 # oby
   4245      1   1 -0.950000     8.433486640    51.047996667     2.122524785   0   0   0 # ohy
   4246      1   2 -1.050000     4.629561064    53.390670000     2.761114785   0   0   0 # oby
   4247      1   2 -1.050000     5.978488690    49.789336667     4.126071195   0   0   0 # oby
   4248      1   2 -1.050000     4.121937951    51.590003333     4.611798581   0   0   0 # oby
   4249      1   3  2.100000     6.090311579    48.618000000     3.042574120   0   0   0 # sty
   4250      1   3  2.100000     3.635313628    52.219333333     3.206021859   0   0   0 # sty
   4251      1   3  2.100000    17.279352251    50.418666667    26.511294497   0   0   0 # sty
   4252      1   2 -1.050000     4.121937951    49.247330000     5.888978581   0   0   0 # oby
   4253      1   2 -1.050000     4.629561064    52.848663333     7.739662378   0   0   0 # oby
   4254      1   2 -1.050000     5.978488690    51.047996667     6.374705968   0   0   0 # oby
   4255      1   2 -1.050000     2.174563113    53.390670000     7.013295968   0   0   0 # oby
   4256      1   2 -1.050000     3.523490739    49.789336667     8.378252378   0   0   0 # oby
   4257      1   2 -1.050000     1.666940000    51.590003333     8.863979764   0   0   0 # oby
   4258      1   3  2.100000     3.635313628    48.618000000     7.294755303   0   0   0 # sty
   4259      1   3  2.100000     1.180315677    52.219333333     7.458203042   0   0   0 # sty
   4260      1   3  2.100000     5.004362497    50.418666667     5.250388581   0   0   0 # sty
   4261      1   2 -1.050000     1.666940000    49.247330000    10.141159764   0   0   0 # oby
   4262      1   2 -1.050000     2.174563113    52.848663333    11.991843561   0   0   0 # oby
   4263      1   2 -1.050000     3.523490739    51.047996667    10.626887151   0   0   0 # oby
   4264      1   2 -1.050000    24.269544670    53.390670000    11.265477151   0   0   0 # oby
   4265      1   2 -1.050000     1.068492788    49.789336667    12.630433561   0   0   0 # oby
   4266      1   2 -1.050000    23.761921557    51.590003333    13.116160948   0   0   0 # oby
   4267      1   3  2.100000     1.180315677    48.618000000    11.546936487   0   0   0 # sty
   4268      1   3  2.100000    23.275297234    52.219333333    11.710384225   0   0   0 # sty
   4269      1   3  2.100000     2.549364547    50.418666667     9.502569764   0   0   0 # sty
   4270      1   2 -1.050000    23.761921557    49.247330000    14.393340948   0   0   0 # oby
   4271      1   2 -1.050000    24.269544670    52.848663333    16.244024744   0   0   0 # oby
   4272      1   2 -1.050000     1.068492788    51.047996667    14.879068334   0   0   0 # oby
   4273      1   2 -1.050000    21.814546719    53.390670000    15.517658334   0   0   0 # oby
   4274      1   2 -1.050000    23.163474345    49.789336667    16.882614744   0   0   0 # oby
   4275      1   2 -1.050000    21.306923606    51.590003333    17.368342131   0   0   0 # oby
   4276      1   3  2.100000    23.275297234    48.618000000    15.799117670   0   0   0 # sty
   4277      1   3  2.100000    20.820299283    52.219333333    15.962565409   0   0   0 # sty
   4278      1   3  2.100000    49.194366596    50.418666667    13.754750948  -1   0   0 # sty
   4279      1   2 -1.050000    21.306923606    49.247330000    18.645522131   0   0   0 # oby
   4280      1   2 -1.050000    21.814546719    52.848663333    20.496205927   0   0   0 # oby
   4281      1   2 -1.050000    23.163474345    51.047996667    19.131249517   0   0   0 # oby
   4282      1   2 -1.050000    19.359548768    53.390670000    19.769839517   0   0   0 # oby
   4283      1   2 -1.050000    20.708476394    49.789336667    21.134795927   0   0   0 # oby
   4284      1   2 -1.050000    18.851925655    51.590003333    21.620523314   0   0   0 # oby
   4285      1   3  2.100000    20.820299283    48.618000000    20.051298853   0   0   0 # sty
   4286      1   3  2.100000    18.365301332    52.219333333    20.214746592   0   0   0 # sty
   4287      1   3  2.100000    22.189348153    50.418666667    18.006932131   0   0   0 # sty
   4288      1   2 -1.050000    18.851925655    49.247330000    22.897703314   0   0   0 # oby
   4289      1   2 -1.050000    19.359548768    52.848663333    24.748387110   0   0   0 # oby
   4290      1   2 -1.050000    20.708476394    51.047996667    23.383430700   0   0   0 # oby
   4291      1   2 -1.050000    16.904550818    53.390670000    24.022020700   0   0   0 # oby
   4292      1   2 -1.050000    18.253478443    49.789336667    25.386977110   0   0   0 # oby
   4293      1   2 -1.050000    16.396927704    51.590003333    25.872704497   0   0   0 # oby
   4294      1   3  2.100000    18.365301332    48.618000000    24.303480036   0   0   0 # sty
   4295      1   3  2.100000    15.910303382    52.219333333    24.466927775   0   0   0 # sty
   4296      1   3  2.100000    19.734350202    50.418666667    22.259113314   0   0   0 # sty
   4297      1   1 -0.950000    11.486931803    49.247330000     1.636797398   0   0   0 # ohy
   4298      1   2 -1.050000    11.994554916    52.848663333     3.487481195   0   0   0 # oby
   4299      1   1 -0.950000    13.343482542    51.047996667     2.122524785   0   0   0 # ohy
   4300      1   2 -1.050000     9.539556966    53.390670000     2.761114785   0   0   0 # oby
   4301      1   2 -1.050000    10.888484591    49.789336667     4.126071195   0   0   0 # oby
   4302      1   2 -1.050000     9.031933852    51.590003333     4.611798581   0   0   0 # oby
   4303      1   3  2.100000    11.000307480    48.618000000     3.042574120   0   0   0 # sty
   4304      1   3  2.100000     8.545309530    52.219333333     3.206021859   0   0   0 # sty
   4305      1   3  2.100000    22.189348153    50.418666667    26.511294497   0   0   0 # sty
   4306      1   2 -1.050000     9.031933852    49.247330000     5.888978581   0   0   0 # oby
   4307      1   2 -1.050000     9.539556966    52.848663333     7.739662378   0   0   0 # oby
   4308      1   2 -1.050000    10.888484591    51.047996667     6.374705968   0   0   0 # oby
   4309      1   2 -1.050000     7.084559015    53.390670000     7.013295968   0   0   0 # oby
   4310      1   2 -1.050000     8.433486640    49.789336667     8.378252378   0   0   0 # oby
   4311      1   2 -1.050000     6.576935901    51.590003333     8.863979764   0   0   0 # oby
   4312      1   3  2.100000     8.545309530    48.618000000     7.294755303   0   0   0 # sty
   4313      1   3  2.100000     6.090311579    52.219333333     7.458203042   0   0   0 # sty
   4314      1   3  2.100000     9.914358399    50.418666667     5.250388581   0   0   0 # sty
   4315      1   2 -1.050000     6.576935901    49.247330000    10.141159764   0   0   0 # oby
   4316      1   2 -1.050000     7.084559015    52.848663333    11.991843561   0   0   0 # oby
   4317      1   2 -1.050000     8.433486640    51.047996667    10.626887151   0   0   0 # oby
   4318      1   2 -1.050000     4.629561064    53.390670000    11.265477151   0   0   0 # oby
   4319      1   2 -1.050000     5.978488690    49.789336667    12.630433561   0   0   0 # oby
   4320      1   2 -1.050000     4.121937951    51.590003333    13.116160948   0   0   0 # oby
   4321      1   3  2.100000     6.090311579    48.618000000    11.546936487   0   0   0 # sty
   4322      1   3  2.100000     3.635313628    52.219333333    11.710384225   0   0   0 # sty
   4323      1   3  2.100000     7.459360448    50.418666667     9.502569764   0   0   0 # sty
   4324      1   2 -1.050000     4.121937951    49.247330000    14.393340948   0   0   0 # oby
   4325      1   2 -1.050000     4.629561064    52.848663333    16.244024744   0   0   0 # oby
   4326      1   2 -1.050000     5.978488690    51.047996667    14.879068334   0   0   0 # oby
   4327      1   2 -1.050000     2.174563113    53.390670000    15.517658334   0   0   0 # oby
   4328      1   2 -1.050000     3.523490739    49.789336667    16.882614744   0   0   0 # oby
   4329      1   2 -1.050000     1.666940000    51.590003333    17.368342131   0   0   0 # oby
   4330      1   3  2.100000     3.635313628    48.618000000    15.799117670   0   0   0 # sty
   4331      1   3  2.100000     1.180315677    52.219333333    15.962565409   0   0   0 # sty
   4332      1   3  2.100000     5.004362497    50.418666667    13.754750948   0   0   0 # sty
   4333      1   2 -1.050000     1.666940000    49.247330000    18.645522131   0   0   0 # oby
   4334      1   2 -1.050000     2.174563113    52.848663333    20.496205927   0   0   0 # oby
   4335      1   2 -1.050000     3.523490739    51.047996667    19.131249517   0   0   0 # oby
   4336      1   2 -1.050000    24.269544670    53.390670000    19.769839517   0   0   0 # oby
   4337      1   2 -1.050000     1.068492788    49.789336667    21.134795927   0   0   0 # oby
   4338      1   2 -1.050000    23.761921557    51.590003333    21.620523314   0   0   0 # oby
   4339      1   3  2.100000     1.180315677    48.618000000    20.051298853   0   0   0 # sty
   4340      1   3  2.100000    23.275297234    52.219333333    20.214746592   0   0   0 # sty
   4341      1   3  2.100000     2.549364547    50.418666667    18.006932131   0   0   0 # sty
   4342      1   2 -1.050000    23.761921557    49.247330000    22.897703314   0   0   0 # oby
   4343      1   2 -1.050000    24.269544670    52.848663333    24.748387110   0   0   0 # oby
   4344      1   2 -1.050000     1.068492788    51.047996667    23.383430700   0   0   0 # oby
   4345      1   2 -1.050000    21.814546719    53.390670000    24.022020700   0   0   0 # oby
   4346      1   2 -1.050000    23.163474345    49.789336667    25.386977110   0   0   0 # oby
   4347      1   2 -1.050000    21.306923606    51.590003333    25.872704497   0   0   0 # oby
   4348      1   3  2.100000    23.275297234    48.618000000    24.303480036   0   0   0 # sty
   4349      1   3  2.100000    20.820299283    52.219333333    24.466927775   0   0   0 # sty
   4350      1   3  2.100000    49.194366596    50.418666667    22.259113314  -1   0   0 # sty
   4351      1   4  0.425000    17.153685742    28.428776904     1.827036406   0   0   0 # hoy
   4352      1   4  0.425000    18.794956671    29.736390762     1.200000048   0   0   0 # hoy
   4353      1   4  0.425000    22.063681643    28.428776904     1.827036406   0   0   0 # hoy
   4354      1   4  0.425000    23.704952573    29.736390762     1.200000048   0   0   0 # hoy
   4355      1   4  0.425000     2.423698037    28.428776904     1.827036406   0   0   0 # hoy
   4356      1   4  0.425000     4.064968967    29.736390762     1.200000048   0   0   0 # hoy
   4357      1   4  0.425000     7.333693939    28.428776904     1.827036406   0   0   0 # hoy
   4358      1   4  0.425000     8.974964868    29.736390762     1.200000048   0   0   0 # hoy
   4359      1   4  0.425000    12.243689840    28.428776904     1.827036406   0   0   0 # hoy
   4360      1   4  0.425000    13.884960770    29.736390762     1.200000048   0   0   0 # hoy
   4361      1   4  0.425000    17.153685742    33.830776904     1.827036406   0   0   0 # hoy
   4362      1   4  0.425000    18.794956671    35.138390762     1.200000048   0   0   0 # hoy
   4363      1   4  0.425000    22.063681643    33.830776904     1.827036406   0   0   0 # hoy
   4364      1   4  0.425000    23.704952573    35.138390762     1.200000048   0   0   0 # hoy
   4365      1   4  0.425000     2.423698037    33.830776904     1.827036406   0   0   0 # hoy
   4366      1   4  0.425000     4.064968967    35.138390762     1.200000048   0   0   0 # hoy
   4367      1   4  0.425000     7.333693939    33.830776904     1.827036406   0   0   0 # hoy
   4368      1   4  0.425000     8.974964868    35.138390762     1.200000048   0   0   0 # hoy
   4369      1   4  0.425000    12.243689840    33.830776904     1.827036406   0   0   0 # hoy
   4370      1   4  0.425000    13.884960770    35.138390762     1.200000048   0   0   0 # hoy
   4371      1   4  0.425000    17.153685742    39.232776904     1.827036406   0   0   0 # hoy
   4372      1   4  0.425000    18.794956671    40.540390762     1.200000048   0   0   0 # hoy
   4373      1   4  0.425000    22.063681643    39.232776904     1.827036406   0   0   0 # hoy
   4374      1   4  0.425000    23.704952573    40.540390762     1.200000048   0   0   0 # hoy
   4375      1   4  0.425000     2.423698037    39.232776904     1.827036406   0   0   0 # hoy
   4376      1   4  0.425000     4.064968967    40.540390762     1.200000048   0   0   0 # hoy
   4377      1   4  0.425000     7.333693939    39.232776904     1.827036406   0   0   0 # hoy
   4378      1   4  0.425000     8.974964868    40.540390762     1.200000048   0   0   0 # hoy
   4379      1   4  0.425000    12.243689840    39.232776904     1.827036406   0   0   0 # hoy
   4380      1   4  0.425000    13.884960770    40.540390762     1.200000048   0   0   0 # hoy
   4381      1   4  0.425000    17.153685742    44.634776904     1.827036406   0   0   0 # hoy
   4382      1   4  0.425000    18.794956671    45.942390762     1.200000048   0   0   0 # hoy
   4383      1   4  0.425000    22.063681643    44.634776904     1.827036406   0   0   0 # hoy
   4384      1   4  0.425000    23.704952573    45.942390762     1.200000048   0   0   0 # hoy
   4385      1   4  0.425000     2.423698037    44.634776904     1.827036406   0   0   0 # hoy
   4386      1   4  0.425000     4.064968967    45.942390762     1.200000048   0   0   0 # hoy
   4387      1   4  0.425000     7.333693939    44.634776904     1.827036406   0   0   0 # hoy
   4388      1   4  0.425000     8.974964868    45.942390762     1.200000048   0   0   0 # hoy
   4389      1   4  0.425000    12.243689840    44.634776904     1.827036406   0   0   0 # hoy
   4390      1   4  0.425000    13.884960770    45.942390762     1.200000048   0   0   0 # hoy
   4391      1   4  0.425000    17.153685742    50.036776904     1.827036406   0   0   0 # hoy
   4392      1   4  0.425000    18.794956671    51.344390762     1.200000048   0   0   0 # hoy
   4393      1   4  0.425000    22.063681643    50.036776904     1.827036406   0   0   0 # hoy
   4394      1   4  0.425000    23.704952573    51.344390762     1.200000048   0   0   0 # hoy
   4395      1   4  0.425000     2.423698037    50.036776904     1.827036406   0   0   0 # hoy
   4396      1   4  0.425000     4.064968967    51.344390762     1.200000048   0   0   0 # hoy
   4397      1   4  0.425000     7.333693939    50.036776904     1.827036406   0   0   0 # hoy
   4398      1   4  0.425000     8.974964868    51.344390762     1.200000048   0   0   0 # hoy
   4399      1   4  0.425000    12.243689840    50.036776904     1.827036406   0   0   0 # hoy
   4400      1   4  0.425000    13.884960770    51.344390762     1.200000048   0   0   0 # hoy
   4401      1   1 -0.950000     3.398307639    29.379672611    27.663304796   0   0   0 # ohy
   4402      1   1 -0.950000     1.617769391    27.712248870    27.056462984   0   0   0 # ohy
   4403      1   1 -0.950000     8.308303540    29.379672611    27.663304796   0   0   0 # ohy
   4404      1   1 -0.950000     6.527765293    27.712248870    27.056462984   0   0   0 # ohy
   4405      1   1 -0.950000    13.218299442    29.379672611    27.663304796   0   0   0 # ohy
   4406      1   1 -0.950000    11.437761194    27.712248870    27.056462984   0   0   0 # ohy
   4407      1   1 -0.950000    18.128295343    29.379672611    27.663304796   0   0   0 # ohy
   4408      1   1 -0.950000    16.347757096    27.712248870    27.056462984   0   0   0 # ohy
   4409      1   1 -0.950000    23.038291245    29.379672611    27.663304796   0   0   0 # ohy
   4410      1   1 -0.950000    21.257752997    27.712248870    27.056462984   0   0   0 # ohy
   4411      1   1 -0.950000     3.398307639    34.781672611    27.663304796   0   0   0 # ohy
   4412      1   1 -0.950000     1.617769391    33.114248870    27.056462984   0   0   0 # ohy
   4413      1   1 -0.950000     8.308303540    34.781672611    27.663304796   0   0   0 # ohy
   4414      1   1 -0.950000     6.527765293    33.114248870    27.056462984   0   0   0 # ohy
   4415      1   1 -0.950000    13.218299442    34.781672611    27.663304796   0   0   0 # ohy
   4416      1   1 -0.950000    11.437761194    33.114248870    27.056462984   0   0   0 # ohy
   4417      1   1 -0.950000    18.128295343    34.781672611    27.663304796   0   0   0 # ohy
   4418      1   1 -0.950000    16.347757096    33.114248870    27.056462984   0   0   0 # ohy
   4419      1   1 -0.950000    23.038291245    34.781672611    27.663304796   0   0   0 # ohy
   4420      1   1 -0.950000    21.257752997    33.114248870    27.056462984   0   0   0 # ohy
   4421      1   1 -0.950000     3.398307639    40.183672611    27.663304796   0   0   0 # ohy
   4422      1   1 -0.950000     1.617769391    38.516248870    27.056462984   0   0   0 # ohy
   4423      1   1 -0.950000     8.308303540    40.183672611    27.663304796   0   0   0 # ohy
   4424      1   1 -0.950000     6.527765293    38.516248870    27.056462984   0   0   0 # ohy
   4425      1   1 -0.950000    13.218299442    40.183672611    27.663304796   0   0   0 # ohy
   4426      1   1 -0.950000    11.437761194    38.516248870    27.056462984   0   0   0 # ohy
   4427      1   1 -0.950000    18.128295343    40.183672611    27.663304796   0   0   0 # ohy
   4428      1   1 -0.950000    16.347757096    38.516248870    27.056462984   0   0   0 # ohy
   4429      1   1 -0.950000    23.038291245    40.183672611    27.663304796   0   0   0 # ohy
   4430      1   1 -0.950000    21.257752997    38.516248870    27.056462984   0   0   0 # ohy
   4431      1   1 -0.950000     3.398307639    45.585672611    27.663304796   0   0   0 # ohy
   4432      1   1 -0.950000     1.617769391    43.918248870    27.056462984   0   0   0 # ohy
   4433      1   1 -0.950000     8.308303540    45.585672611    27.663304796   0   0   0 # ohy
   4434      1   1 -0.950000     6.527765293    43.918248870    27.056462984   0   0   0 # ohy
   4435      1   1 -0.950000    13.218299442    45.585672611    27.663304796   0   0   0 # ohy
   4436      1   1 -0.950000    11.437761194    43.918248870    27.056462984   0   0   0 # ohy
   4437      1   1 -0.950000    18.128295343    45.585672611    27.663304796   0   0   0 # ohy
   4438      1   1 -0.950000    16.347757096    43.918248870    27.056462984   0   0   0 # ohy
   4439      1   1 -0.950000    23.038291245    45.585672611    27.663304796   0   0   0 # ohy
   4440      1   1 -0.950000    21.257752997    43.918248870    27.056462984   0   0   0 # ohy
   4441      1   1 -0.950000     3.398307639    50.987672611    27.663304796   0   0   0 # ohy
   4442      1   1 -0.950000     1.617769391    49.320248870    27.056462984   0   0   0 # ohy
   4443      1   1 -0.950000     8.308303540    50.987672611    27.663304796   0   0   0 # ohy
   4444      1   1 -0.950000     6.527765293    49.320248870    27.056462984   0   0   0 # ohy
   4445      1   1 -0.950000    13.218299442    50.987672611    27.663304796   0   0   0 # ohy
   4446      1   1 -0.950000    11.437761194    49.320248870    27.056462984   0   0   0 # ohy
   4447      1   1 -0.950000    18.128295343    50.987672611    27.663304796   0   0   0 # ohy
   4448      1   1 -0.950000    16.347757096    49.320248870    27.056462984   0   0   0 # ohy
   4449      1   1 -0.950000    23.038291245    50.987672611    27.663304796   0   0   0 # ohy
   4450      1   1 -0.950000    21.257752997    49.320248870    27.056462984   0   0   0 # ohy
   4451      1   4  0.425000     4.160468072    30.074575484    27.253034774   0   0   0 # hoy
   4452      1   4  0.425000     1.656680832    27.711079586    28.165780141   0   0   0 # hoy
   4453      1   4  0.425000     9.070463974    30.074575484    27.253034774   0   0   0 # hoy
   4454      1   4  0.425000     6.566676734    27.711079586    28.165780141   0   0   0 # hoy
   4455      1   4  0.425000    13.980459875    30.074575484    27.253034774   0   0   0 # hoy
   4456      1   4  0.425000    11.476672635    27.711079586    28.165780141   0   0   0 # hoy
   4457      1   4  0.425000    18.890455777    30.074575484    27.253034774   0   0   0 # hoy
   4458      1   4  0.425000    16.386668537    27.711079586    28.165780141   0   0   0 # hoy
   4459      1   4  0.425000    23.800451678    30.074575484    27.253034774   0   0   0 # hoy
   4460      1   4  0.425000    21.296664438    27.711079586    28.165780141   0   0   0 # hoy
   4461      1   4  0.425000     4.160468072    35.476575484    27.253034774   0   0   0 # hoy
   4462      1   4  0.425000     1.656680832    33.113079586    28.165780141   0   0   0 # hoy
   4463      1   4  0.425000     9.070463974    35.476575484    27.253034774   0   0   0 # hoy
   4464      1   4  0.425000     6.566676734    33.113079586    28.165780141   0   0   0 # hoy
   4465      1   4  0.425000    13.980459875    35.476575484    27.253034774   0   0   0 # hoy
   4466      1   4  0.425000    11.476672635    33.113079586    28.165780141   0   0   0 # hoy
   4467      1   4  0.425000    18.890455777    35.476575484    27.253034774   0   0   0 # hoy
   4468      1   4  0.425000    16.386668537    33.113079586    28.165780141   0   0   0 # hoy
   4469      1   4  0.425000    23.800451678    35.476575484    27.253034774   0   0   0 # hoy
   4470      1   4  0.425000    21.296664438    33.113079586    28.165780141   0   0   0 # hoy
   4471      1   4  0.425000     4.160468072    40.878575484    27.253034774   0   0   0 # hoy
   4472      1   4  0.425000     1.656680832    38.515079586    28.165780141   0   0   0 # hoy
   4473      1   4  0.425000     9.070463974    40.878575484    27.253034774   0   0   0 # hoy
   4474      1   4  0.425000     6.566676734    38.515079586    28.165780141   0   0   0 # hoy
   4475      1   4  0.425000    13.980459875    40.878575484    27.253034774   0   0   0 # hoy
   4476      1   4  0.425000    11.476672635    38.515079586    28.165780141   0   0   0 # hoy
   4477      1   4  0.425000    18.890455777    40.878575484    27.253034774   0   0   0 # hoy
   4478      1   4  0.425000    16.386668537    38.515079586    28.165780141   0   0   0 # hoy
   4479      1   4  0.425000    23.800451678    40.878575484    27.253034774   0   0   0 # hoy
   4480      1   4  0.425000    21.296664438    38.515079586    28.165780141   0   0   0 # hoy
   4481      1   4  0.425000     4.160468072    46.280575484    27.253034774   0   0   0 # hoy
   4482      1   4  0.425000     1.656680832    43.917079586    28.165780141   0   0   0 # hoy
   4483      1   4  0.425000     9.070463974    46.280575484    27.253034774   0   0   0 # hoy
   4484      1   4  0.425000     6.566676734    43.917079586    28.165780141   0   0   0 # hoy
   4485      1   4  0.425000    13.980459875    46.280575484    27.253034774   0   0   0 # hoy
   4486      1   4  0.425000    11.476672635    43.917079586    28.165780141   0   0   0 # hoy
   4487      1   4  0.425000    18.890455777    46.280575484    27.253034774   0   0   0 # hoy
   4488      1   4  0.425000    16.386668537    43.917079586    28.165780141   0   0   0 # hoy
   4489      1   4  0.425000    23.800451678    46.280575484    27.253034774   0   0   0 # hoy
   4490      1   4  0.425000    21.296664438    43.917079586    28.165780141   0   0   0 # hoy
   4491      1   4  0.425000     4.160468072    51.682575484    27.253034774   0   0   0 # hoy
   4492      1   4  0.425000     1.656680832    49.319079586    28.165780141   0   0   0 # hoy
   4493      1   4  0.425000     9.070463974    51.682575484    27.253034774   0   0   0 # hoy
   4494      1   4  0.425000     6.566676734    49.319079586    28.165780141   0   0   0 # hoy
   4495      1   4  0.425000    13.980459875    51.682575484    27.253034774   0   0   0 # hoy
   4496      1   4  0.425000    11.476672635    49.319079586    28.165780141   0   0   0 # hoy
   4497      1   4  0.425000    18.890455777    51.682575484    27.253034774   0   0   0 # hoy
   4498      1   4  0.425000    16.386668537    49.319079586    28.165780141   0   0   0 # hoy
   4499      1   4  0.425000    23.800451678    51.682575484    27.253034774   0   0   0 # hoy
   4500      1   4  0.425000    21.296664438    49.319079586    28.165780141   0   0   0 # hoy
   4501      1   1 -0.950000    40.946927704    27.639330000     1.636797398   0   0   0 # ohy
   4502      1   2 -1.050000    41.454550818    31.240663333     3.487481195   0   0   0 # oby
   4503      1   1 -0.950000    42.803478443    29.439996667     2.122524785   0   0   0 # ohy
   4504      1   2 -1.050000    38.999552867    31.782670000     2.761114785   0   0   0 # oby
   4505      1   2 -1.050000    40.348480493    28.181336667     4.126071195   0   0   0 # oby
   4506      1   2 -1.050000    38.491929754    29.982003333     4.611798581   0   0   0 # oby
   4507      1   3  2.100000    40.460303382    27.010000000     3.042574120   0   0   0 # sty
   4508      1   3  2.100000    38.005305431    30.611333333     3.206021859   0   0   0 # sty
   4509      1   3  2.100000    27.099364547    28.810666667    26.511294497   0   0   0 # sty
   4510      1   2 -1.050000    38.491929754    27.639330000     5.888978581   0   0   0 # oby
   4511      1   2 -1.050000    38.999552867    31.240663333     7.739662378   0   0   0 # oby
   4512      1   2 -1.050000    40.348480493    29.439996667     6.374705968   0   0   0 # oby
   4513      1   2 -1.050000    36.544554916    31.782670000     7.013295968   0   0   0 # oby
   4514      1   2 -1.050000    37.893482542    28.181336667     8.378252378   0   0   0 # oby
   4515      1   2 -1.050000    36.036931803    29.982003333     8.863979764   0   0   0 # oby
   4516      1   3  2.100000    38.005305431    27.010000000     7.294755303   0   0   0 # sty
   4517      1   3  2.100000    35.550307480    30.611333333     7.458203042   0   0   0 # sty
   4518      1   3  2.100000    39.374354300    28.810666667     5.250388581   0   0   0 # sty
   4519      1   2 -1.050000    36.036931803    27.639330000    10.141159764   0   0   0 # oby
   4520      1   2 -1.050000    36.544554916    31.240663333    11.991843561   0   0   0 # oby
   4521      1   2 -1.050000    37.893482542    29.439996667    10.626887151   0   0   0 # oby
   4522      1   2 -1.050000    34.089556966    31.782670000    11.265477151   0   0   0 # oby
   4523      1   2 -1.050000    35.438484591    28.181336667    12.630433561   0   0   0 # oby
   4524      1   2 -1.050000    33.581933852    29.982003333    13.116160948   0   0   0 # oby
   4525      1   3  2.100000    35.550307480    27.010000000    11.546936487   0   0   0 # sty
   4526      1   3  2.100000    33.095309530    30.611333333    11.710384225   0   0   0 # sty
   4527      1   3  2.100000    36.919356350    28.810666667     9.502569764   0   0   0 # sty
   4528      1   2 -1.050000    33.581933852    27.639330000    14.393340948   0   0   0 # oby
   4529      1   2 -1.050000    34.089556966    31.240663333    16.244024744   0   0   0 # oby
   4530      1   2 -1.050000    35.438484591    29.439996667    14.879068334   0   0   0 # oby
   4531      1   2 -1.050000    31.634559015    31.782670000    15.517658334   0   0   0 # oby
   4532      1   2 -1.050000    32.983486640    28.181336667    16.882614744   0   0   0 # oby
   4533      1   2 -1.050000    31.126935901    29.982003333    17.368342131   0   0   0 # oby
   4534      1   3  2.100000    33.095309530    27.010000000    15.799117670   0   0   0 # sty
   4535      1   3  2.100000    30.640311579    30.611333333    15.962565409   0   0   0 # sty
   4536      1   3  2.100000    34.464358399    28.810666667    13.754750948   0   0   0 # sty
   4537      1   2 -1.050000    31.126935901    27.639330000    18.645522131   0   0   0 # oby
   4538      1   2 -1.050000    31.634559015    31.240663333    20.496205927   0   0   0 # oby
   4539      1   2 -1.050000    32.983486640    29.439996667    19.131249517   0   0   0 # oby
   4540      1   2 -1.050000    29.179561064    31.782670000    19.769839517   0   0   0 # oby
   4541      1   2 -1.050000    30.528488690    28.181336667    21.134795927   0   0   0 # oby
   4542      1   2 -1.050000    28.671937951    29.982003333    21.620523314   0   0   0 # oby
   4543      1   3  2.100000    30.640311579    27.010000000    20.051298853   0   0   0 # sty
   4544      1   3  2.100000    28.185313628    30.611333333    20.214746592   0   0   0 # sty
   4545      1   3  2.100000    32.009360448    28.810666667    18.006932131   0   0   0 # sty
   4546      1   2 -1.050000    28.671937951    27.639330000    22.897703314   0   0   0 # oby
   4547      1   2 -1.050000    29.179561064    31.240663333    24.748387110   0   0   0 # oby
   4548      1   2 -1.050000    30.528488690    29.439996667    23.383430700   0   0   0 # oby
   4549      1   2 -1.050000    26.724563113    31.782670000    24.022020700   0   0   0 # oby
   4550      1   2 -1.050000    28.073490739    28.181336667    25.386977110   0   0   0 # oby
   4551      1   2 -1.050000    26.216940000    29.982003333    25.872704497   0   0   0 # oby
   4552      1   3  2.100000    28.185313628    27.010000000    24.303480036   0   0   0 # sty
   4553      1   3  2.100000    25.730315677    30.611333333    24.466927775   0   0   0 # sty
   4554      1   3  2.100000    29.554362497    28.810666667    22.259113314   0   0   0 # sty
   4555      1   1 -0.950000    45.856923606    27.639330000     1.636797398   0   0   0 # ohy
   4556      1   2 -1.050000    46.364546719    31.240663333     3.487481195   0   0   0 # oby
   4557      1   1 -0.950000    47.713474345    29.439996667     2.122524785   0   0   0 # ohy
   4558      1   2 -1.050000    43.909548768    31.782670000     2.761114785   0   0   0 # oby
   4559      1   2 -1.050000    45.258476394    28.181336667     4.126071195   0   0   0 # oby
   4560      1   2 -1.050000    43.401925655    29.982003333     4.611798581   0   0   0 # oby
   4561      1   3  2.100000    45.370299283    27.010000000     3.042574120   0   0   0 # sty
   4562      1   3  2.100000    42.915301332    30.611333333     3.206021859   0   0   0 # sty
   4563      1   3  2.100000    32.009360448    28.810666667    26.511294497   0   0   0 # sty
   4564      1   2 -1.050000    43.401925655    27.639330000     5.888978581   0   0   0 # oby
   4565      1   2 -1.050000    43.909548768    31.240663333     7.739662378   0   0   0 # oby
   4566      1   2 -1.050000    45.258476394    29.439996667     6.374705968   0   0   0 # oby
   4567      1   2 -1.050000    41.454550818    31.782670000     7.013295968   0   0   0 # oby
   4568      1   2 -1.050000    42.803478443    28.181336667     8.378252378   0   0   0 # oby
   4569      1   2 -1.050000    40.946927704    29.982003333     8.863979764   0   0   0 # oby
   4570      1   3  2.100000    42.915301332    27.010000000     7.294755303   0   0   0 # sty
   4571      1   3  2.100000    40.460303382    30.611333333     7.458203042   0   0   0 # sty
   4572      1   3  2.100000    44.284350202    28.810666667     5.250388581   0   0   0 # sty
   4573      1   2 -1.050000    40.946927704    27.639330000    10.141159764   0   0   0 # oby
   4574      1   2 -1.050000    41.454550818    31.240663333    11.991843561   0   0   0 # oby
   4575      1   2 -1.050000    42.803478443    29.439996667    10.626887151   0   0   0 # oby
   4576      1   2 -1.050000    38.999552867    31.782670000    11.265477151   0   0   0 # oby
   4577      1   2 -1.050000    40.348480493    28.181336667    12.630433561   0   0   0 # oby
   4578      1   2 -1.050000    38.491929754    29.982003333    13.116160948   0   0   0 # oby
   4579      1   3  2.100000    40.460303382    27.010000000    11.546936487   0   0   0 # sty
   4580      1   3  2.100000    38.005305431    30.611333333    11.710384225   0   0   0 # sty
   4581      1   3  2.100000    41.829352251    28.810666667     9.502569764   0   0   0 # sty
   4582      1   2 -1.050000    38.491929754    27.639330000    14.393340948   0   0   0 # oby
   4583      1   2 -1.050000    38.999552867    31.240663333    16.244024744   0   0   0 # oby
   4584      1   2 -1.050000    40.348480493    29.439996667    14.879068334   0   0   0 # oby
   4585      1   2 -1.050000    36.544554916    31.782670000    15.517658334   0   0   0 # oby
   4586      1   2 -1.050000    37.893482542    28.181336667    16.882614744   0   0   0 # oby
   4587      1   2 -1.050000    36.036931803    29.982003333    17.368342131   0   0   0 # oby
   4588      1   3  2.100000    38.005305431    27.010000000    15.799117670   0   0   0 # sty
   4589      1   3  2.100000    35.550307480    30.611333333    15.962565409   0   0   0 # sty
   4590      1   3  2.100000    39.374354300    28.810666667    13.754750948   0   0   0 # sty
   4591      1   2 -1.050000    36.036931803    27.639330000    18.645522131   0   0   0 # oby
   4592      1   2 -1.050000    36.544554916    31.240663333    20.496205927   0   0   0 # oby
   4593      1   2 -1.050000    37.893482542    29.439996667    19.131249517   0   0   0 # oby
   4594      1   2 -1.050000    34.089556966    31.782670000    19.769839517   0   0   0 # oby
   4595      1   2 -1.050000    35.438484591    28.181336667    21.134795927   0   0   0 # oby
   4596      1   2 -1.050000    33.581933852    29.982003333    21.620523314   0   0   0 # oby
   4597      1   3  2.100000    35.550307480    27.010000000    20.051298853   0   0   0 # sty
   4598      1   3  2.100000    33.095309530    30.611333333    20.214746592   0   0   0 # sty
   4599      1   3  2.100000    36.919356350    28.810666667    18.006932131   0   0   0 # sty
   4600      1   2 -1.050000    33.581933852    27.639330000    22.897703314   0   0   0 # oby
   4601      1   2 -1.050000    34.089556966    31.240663333    24.748387110   0   0   0 # oby
   4602      1   2 -1.050000    35.438484591    29.439996667    23.383430700   0   0   0 # oby
   4603      1   2 -1.050000    31.634559015    31.782670000    24.022020700   0   0   0 # oby
   4604      1   2 -1.050000    32.983486640    28.181336667    25.386977110   0   0   0 # oby
   4605      1   2 -1.050000    31.126935901    29.982003333    25.872704497   0   0   0 # oby
   4606      1   3  2.100000    33.095309530    27.010000000    24.303480036   0   0   0 # sty
   4607      1   3  2.100000    30.640311579    30.611333333    24.466927775   0   0   0 # sty
   4608      1   3  2.100000    34.464358399    28.810666667    22.259113314   0   0   0 # sty
   4609      1   1 -0.950000    26.216940000    27.639330000     1.636797398   0   0   0 # ohy
   4610      1   2 -1.050000    26.724563113    31.240663333     3.487481195   0   0   0 # oby
   4611      1   1 -0.950000    28.073490739    29.439996667     2.122524785   0   0   0 # ohy
   4612      1   2 -1.050000    48.819544670    31.782670000     2.761114785   0   0   0 # oby
   4613      1   2 -1.050000    25.618492788    28.181336667     4.126071195   0   0   0 # oby
   4614      1   2 -1.050000    48.311921557    29.982003333     4.611798581   0   0   0 # oby
   4615      1   3  2.100000    25.730315677    27.010000000     3.042574120   0   0   0 # sty
   4616      1   3  2.100000    47.825297234    30.611333333     3.206021859   0   0   0 # sty
   4617      1   3  2.100000    36.919356350    28.810666667    26.511294497   0   0   0 # sty
   4618      1   2 -1.050000    48.311921557    27.639330000     5.888978581   0   0   0 # oby
   4619      1   2 -1.050000    48.819544670    31.240663333     7.739662378   0   0   0 # oby
   4620      1   2 -1.050000    25.618492788    29.439996667     6.374705968   0   0   0 # oby
   4621      1   2 -1.050000    46.364546719    31.782670000     7.013295968   0   0   0 # oby
   4622      1   2 -1.050000    47.713474345    28.181336667     8.378252378   0   0   0 # oby
   4623      1   2 -1.050000    45.856923606    29.982003333     8.863979764   0   0   0 # oby
   4624      1   3  2.100000    47.825297234    27.010000000     7.294755303   0   0   0 # sty
   4625      1   3  2.100000    45.370299283    30.611333333     7.458203042   0   0   0 # sty
   4626      1   3  2.100000    24.644366596    28.810666667     5.250388581   0   0   0 # sty
   4627      1   2 -1.050000    45.856923606    27.639330000    10.141159764   0   0   0 # oby
   4628      1   2 -1.050000    46.364546719    31.240663333    11.991843561   0   0   0 # oby
   4629      1   2 -1.050000    47.713474345    29.439996667    10.626887151   0   0   0 # oby
   4630      1   2 -1.050000    43.909548768    31.782670000    11.265477151   0   0   0 # oby
   4631      1   2 -1.050000    45.258476394    28.181336667    12.630433561   0   0   0 # oby
   4632      1   2 -1.050000    43.401925655    29.982003333    13.116160948   0   0   0 # oby
   4633      1   3  2.100000    45.370299283    27.010000000    11.546936487   0   0   0 # sty
   4634      1   3  2.100000    42.915301332    30.611333333    11.710384225   0   0   0 # sty
   4635      1   3  2.100000    46.739348153    28.810666667     9.502569764   0   0   0 # sty
   4636      1   2 -1.050000    43.401925655    27.639330000    14.393340948   0   0   0 # oby
   4637      1   2 -1.050000    43.909548768    31.240663333    16.244024744   0   0   0 # oby
   4638      1   2 -1.050000    45.258476394    29.439996667    14.879068334   0   0   0 # oby
   4639      1   2 -1.050000    41.454550818    31.782670000    15.517658334   0   0   0 # oby
   4640      1   2 -1.050000    42.803478443    28.181336667    16.882614744   0   0   0 # oby
   4641      1   2 -1.050000    40.946927704    29.982003333    17.368342131   0   0   0 # oby
   4642      1   3  2.100000    42.915301332    27.010000000    15.799117670   0   0   0 # sty
   4643      1   3  2.100000    40.460303382    30.611333333    15.962565409   0   0   0 # sty
   4644      1   3  2.100000    44.284350202    28.810666667    13.754750948   0   0   0 # sty
   4645      1   2 -1.050000    40.946927704    27.639330000    18.645522131   0   0   0 # oby
   4646      1   2 -1.050000    41.454550818    31.240663333    20.496205927   0   0   0 # oby
   4647      1   2 -1.050000    42.803478443    29.439996667    19.131249517   0   0   0 # oby
   4648      1   2 -1.050000    38.999552867    31.782670000    19.769839517   0   0   0 # oby
   4649      1   2 -1.050000    40.348480493    28.181336667    21.134795927   0   0   0 # oby
   4650      1   2 -1.050000    38.491929754    29.982003333    21.620523314   0   0   0 # oby
   4651      1   3  2.100000    40.460303382    27.010000000    20.051298853   0   0   0 # sty
   4652      1   3  2.100000    38.005305431    30.611333333    20.214746592   0   0   0 # sty
   4653      1   3  2.100000    41.829352251    28.810666667    18.006932131   0   0   0 # sty
   4654      1   2 -1.050000    38.491929754    27.639330000    22.897703314   0   0   0 # oby
   4655      1   2 -1.050000    38.999552867    31.240663333    24.748387110   0   0   0 # oby
   4656      1   2 -1.050000    40.348480493    29.439996667    23.383430700   0   0   0 # oby
   4657      1   2 -1.050000    36.544554916    31.782670000    24.022020700   0   0   0 # oby
   4658      1   2 -1.050000    37.893482542    28.181336667    25.386977110   0   0   0 # oby
   4659      1   2 -1.050000    36.036931803    29.982003333    25.872704497   0   0   0 # oby
   4660      1   3  2.100000    38.005305431    27.010000000    24.303480036   0   0   0 # sty
   4661      1   3  2.100000    35.550307480    30.611333333    24.466927775   0   0   0 # sty
   4662      1   3  2.100000    39.374354300    28.810666667    22.259113314   0   0   0 # sty
   4663      1   1 -0.950000    31.126935901    27.639330000     1.636797398   0   0   0 # ohy
   4664      1   2 -1.050000    31.634559015    31.240663333     3.487481195   0   0   0 # oby
   4665      1   1 -0.950000    32.983486640    29.439996667     2.122524785   0   0   0 # ohy
   4666      1   2 -1.050000    29.179561064    31.782670000     2.761114785   0   0   0 # oby
   4667      1   2 -1.050000    30.528488690    28.181336667     4.126071195   0   0   0 # oby
   4668      1   2 -1.050000    28.671937951    29.982003333     4.611798581   0   0   0 # oby
   4669      1   3  2.100000    30.640311579    27.010000000     3.042574120   0   0   0 # sty
   4670      1   3  2.100000    28.185313628    30.611333333     3.206021859   0   0   0 # sty
   4671      1   3  2.100000    41.829352251    28.810666667    26.511294497   0   0   0 # sty
   4672      1   2 -1.050000    28.671937951    27.639330000     5.888978581   0   0   0 # oby
   4673      1   2 -1.050000    29.179561064    31.240663333     7.739662378   0   0   0 # oby
   4674      1   2 -1.050000    30.528488690    29.439996667     6.374705968   0   0   0 # oby
   4675      1   2 -1.050000    26.724563113    31.782670000     7.013295968   0   0   0 # oby
   4676      1   2 -1.050000    28.073490739    28.181336667     8.378252378   0   0   0 # oby
   4677      1   2 -1.050000    26.216940000    29.982003333     8.863979764   0   0   0 # oby
   4678      1   3  2.100000    28.185313628    27.010000000     7.294755303   0   0   0 # sty
   4679      1   3  2.100000    25.730315677    30.611333333     7.458203042   0   0   0 # sty
   4680      1   3  2.100000    29.554362497    28.810666667     5.250388581   0   0   0 # sty
   4681      1   2 -1.050000    26.216940000    27.639330000    10.141159764   0   0   0 # oby
   4682      1   2 -1.050000    26.724563113    31.240663333    11.991843561   0   0   0 # oby
   4683      1   2 -1.050000    28.073490739    29.439996667    10.626887151   0   0   0 # oby
   4684      1   2 -1.050000    48.819544670    31.782670000    11.265477151   0   0   0 # oby
   4685      1   2 -1.050000    25.618492788    28.181336667    12.630433561   0   0   0 # oby
   4686      1   2 -1.050000    48.311921557    29.982003333    13.116160948   0   0   0 # oby
   4687      1   3  2.100000    25.730315677    27.010000000    11.546936487   0   0   0 # sty
   4688      1   3  2.100000    47.825297234    30.611333333    11.710384225   0   0   0 # sty
   4689      1   3  2.100000    27.099364547    28.810666667     9.502569764   0   0   0 # sty
   4690      1   2 -1.050000    48.311921557    27.639330000    14.393340948   0   0   0 # oby
   4691      1   2 -1.050000    48.819544670    31.240663333    16.244024744   0   0   0 # oby
   4692      1   2 -1.050000    25.618492788    29.439996667    14.879068334   0   0   0 # oby
   4693      1   2 -1.050000    46.364546719    31.782670000    15.517658334   0   0   0 # oby
   4694      1   2 -1.050000    47.713474345    28.181336667    16.882614744   0   0   0 # oby
   4695      1   2 -1.050000    45.856923606    29.982003333    17.368342131   0   0   0 # oby
   4696      1   3  2.100000    47.825297234    27.010000000    15.799117670   0   0   0 # sty
   4697      1   3  2.100000    45.370299283    30.611333333    15.962565409   0   0   0 # sty
   4698      1   3  2.100000    24.644366596    28.810666667    13.754750948   0   0   0 # sty
   4699      1   2 -1.050000    45.856923606    27.639330000    18.645522131   0   0   0 # oby
   4700      1   2 -1.050000    46.364546719    31.240663333    20.496205927   0   0   0 # oby
   4701      1   2 -1.050000    47.713474345    29.439996667    19.131249517   0   0   0 # oby
   4702      1   2 -1.050000    43.909548768    31.782670000    19.769839517   0   0   0 # oby
   4703      1   2 -1.050000    45.258476394    28.181336667    21.134795927   0   0   0 # oby
   4704      1   2 -1.050000    43.401925655    29.982003333    21.620523314   0   0   0 # oby
   4705      1   3  2.100000    45.370299283    27.010000000    20.051298853   0   0   0 # sty
   4706      1   3  2.100000    42.915301332    30.611333333    20.214746592   0   0   0 # sty
   4707      1   3  2.100000    46.739348153    28.810666667    18.006932131   0   0   0 # sty
   4708      1   2 -1.050000    43.401925655    27.639330000    22.897703314   0   0   0 # oby
   4709      1   2 -1.050000    43.909548768    31.240663333    24.748387110   0   0   0 # oby
   4710      1   2 -1.050000    45.258476394    29.439996667    23.383430700   0   0   0 # oby
   4711      1   2 -1.050000    41.454550818    31.782670000    24.022020700   0   0   0 # oby
   4712      1   2 -1.050000    42.803478443    28.181336667    25.386977110   0   0   0 # oby
   4713      1   2 -1.050000    40.946927704    29.982003333    25.872704497   0   0   0 # oby
   4714      1   3  2.100000    42.915301332    27.010000000    24.303480036   0   0   0 # sty
   4715      1   3  2.100000    40.460303382    30.611333333    24.466927775   0   0   0 # sty
   4716      1   3  2.100000    44.284350202    28.810666667    22.259113314   0   0   0 # sty
   4717      1   1 -0.950000    36.036931803    27.639330000     1.636797398   0   0   0 # ohy
   4718      1   2 -1.050000    36.544554916    31.240663333     3.487481195   0   0   0 # oby
   4719      1   1 -0.950000    37.893482542    29.439996667     2.122524785   0   0   0 # ohy
   4720      1   2 -1.050000    34.089556966    31.782670000     2.761114785   0   0   0 # oby
   4721      1   2 -1.050000    35.438484591    28.181336667     4.126071195   0   0   0 # oby
   4722      1   2 -1.050000    33.581933852    29.982003333     4.611798581   0   0   0 # oby
   4723      1   3  2.100000    35.550307480    27.010000000     3.042574120   0   0   0 # sty
   4724      1   3  2.100000    33.095309530    30.611333333     3.206021859   0   0   0 # sty
   4725      1   3  2.100000    46.739348153    28.810666667    26.511294497   0   0   0 # sty
   4726      1   2 -1.050000    33.581933852    27.639330000     5.888978581   0   0   0 # oby
   4727      1   2 -1.050000    34.089556966    31.240663333     7.739662378   0   0   0 # oby
   4728      1   2 -1.050000    35.438484591    29.439996667     6.374705968   0   0   0 # oby
   4729      1   2 -1.050000    31.634559015    31.782670000     7.013295968   0   0   0 # oby
   4730      1   2 -1.050000    32.983486640    28.181336667     8.378252378   0   0   0 # oby
   4731      1   2 -1.050000    31.126935901    29.982003333     8.863979764   0   0   0 # oby
   4732      1   3  2.100000    33.095309530    27.010000000     7.294755303   0   0   0 # sty
   4733      1   3  2.100000    30.640311579    30.611333333     7.458203042   0   0   0 # sty
   4734      1   3  2.100000    34.464358399    28.810666667     5.250388581   0   0   0 # sty
   4735      1   2 -1.050000    31.126935901    27.639330000    10.141159764   0   0   0 # oby
   4736      1   2 -1.050000    31.634559015    31.240663333    11.991843561   0   0   0 # oby
   4737      1   2 -1.050000    32.983486640    29.439996667    10.626887151   0   0   0 # oby
   4738      1   2 -1.050000    29.179561064    31.782670000    11.265477151   0   0   0 # oby
   4739      1   2 -1.050000    30.528488690    28.181336667    12.630433561   0   0   0 # oby
   4740      1   2 -1.050000    28.671937951    29.982003333    13.116160948   0   0   0 # oby
   4741      1   3  2.100000    30.640311579    27.010000000    11.546936487   0   0   0 # sty
   4742      1   3  2.100000    28.185313628    30.611333333    11.710384225   0   0   0 # sty
   4743      1   3  2.100000    32.009360448    28.810666667     9.502569764   0   0   0 # sty
   4744      1   2 -1.050000    28.671937951    27.639330000    14.393340948   0   0   0 # oby
   4745      1   2 -1.050000    29.179561064    31.240663333    16.244024744   0   0   0 # oby
   4746      1   2 -1.050000    30.528488690    29.439996667    14.879068334   0   0   0 # oby
   4747      1   2 -1.050000    26.724563113    31.782670000    15.517658334   0   0   0 # oby
   4748      1   2 -1.050000    28.073490739    28.181336667    16.882614744   0   0   0 # oby
   4749      1   2 -1.050000    26.216940000    29.982003333    17.368342131   0   0   0 # oby
   4750      1   3  2.100000    28.185313628    27.010000000    15.799117670   0   0   0 # sty
   4751      1   3  2.100000    25.730315677    30.611333333    15.962565409   0   0   0 # sty
   4752      1   3  2.100000    29.554362497    28.810666667    13.754750948   0   0   0 # sty
   4753      1   2 -1.050000    26.216940000    27.639330000    18.645522131   0   0   0 # oby
   4754      1   2 -1.050000    26.724563113    31.240663333    20.496205927   0   0   0 # oby
   4755      1   2 -1.050000    28.073490739    29.439996667    19.131249517   0   0   0 # oby
   4756      1   2 -1.050000    48.819544670    31.782670000    19.769839517   0   0   0 # oby
   4757      1   2 -1.050000    25.618492788    28.181336667    21.134795927   0   0   0 # oby
   4758      1   2 -1.050000    48.311921557    29.982003333    21.620523314   0   0   0 # oby
   4759      1   3  2.100000    25.730315677    27.010000000    20.051298853   0   0   0 # sty
   4760      1   3  2.100000    47.825297234    30.611333333    20.214746592   0   0   0 # sty
   4761      1   3  2.100000    27.099364547    28.810666667    18.006932131   0   0   0 # sty
   4762      1   2 -1.050000    48.311921557    27.639330000    22.897703314   0   0   0 # oby
   4763      1   2 -1.050000    48.819544670    31.240663333    24.748387110   0   0   0 # oby
   4764      1   2 -1.050000    25.618492788    29.439996667    23.383430700   0   0   0 # oby
   4765      1   2 -1.050000    46.364546719    31.782670000    24.022020700   0   0   0 # oby
   4766      1   2 -1.050000    47.713474345    28.181336667    25.386977110   0   0   0 # oby
   4767      1   2 -1.050000    45.856923606    29.982003333    25.872704497   0   0   0 # oby
   4768      1   3  2.100000    47.825297234    27.010000000    24.303480036   0   0   0 # sty
   4769      1   3  2.100000    45.370299283    30.611333333    24.466927775   0   0   0 # sty
   4770      1   3  2.100000    24.644366596    28.810666667    22.259113314   0   0   0 # sty
   4771      1   1 -0.950000    40.946927704    33.041330000     1.636797398   0   0   0 # ohy
   4772      1   2 -1.050000    41.454550818    36.642663333     3.487481195   0   0   0 # oby
   4773      1   1 -0.950000    42.803478443    34.841996667     2.122524785   0   0   0 # ohy
   4774      1   2 -1.050000    38.999552867    37.184670000     2.761114785   0   0   0 # oby
   4775      1   2 -1.050000    40.348480493    33.583336667     4.126071195   0   0   0 # oby
   4776      1   2 -1.050000    38.491929754    35.384003333     4.611798581   0   0   0 # oby
   4777      1   3  2.100000    40.460303382    32.412000000     3.042574120   0   0   0 # sty
   4778      1   3  2.100000    38.005305431    36.013333333     3.206021859   0   0   0 # sty
   4779      1   3  2.100000    27.099364547    34.212666667    26.511294497   0   0   0 # sty
   4780      1   2 -1.050000    38.491929754    33.041330000     5.888978581   0   0   0 # oby
   4781      1   2 -1.050000    38.999552867    36.642663333     7.739662378   0   0   0 # oby
   4782      1   2 -1.050000    40.348480493    34.841996667     6.374705968   0   0   0 # oby
   4783      1   2 -1.050000    36.544554916    37.184670000     7.013295968   0   0   0 # oby
   4784      1   2 -1.050000    37.893482542    33.583336667     8.378252378   0   0   0 # oby
   4785      1   2 -1.050000    36.036931803    35.384003333     8.863979764   0   0   0 # oby
   4786      1   3  2.100000    38.005305431    32.412000000     7.294755303   0   0   0 # sty
   4787      1   3  2.100000    35.550307480    36.013333333     7.458203042   0   0   0 # sty
   4788      1   3  2.100000    39.374354300    34.212666667     5.250388581   0   0   0 # sty
   4789      1   2 -1.050000    36.036931803    33.041330000    10.141159764   0   0   0 # oby
   4790      1   2 -1.050000    36.544554916    36.642663333    11.991843561   0   0   0 # oby
   4791      1   2 -1.050000    37.893482542    34.841996667    10.626887151   0   0   0 # oby
   4792      1   2 -1.050000    34.089556966    37.184670000    11.265477151   0   0   0 # oby
   4793      1   2 -1.050000    35.438484591    33.583336667    12.630433561   0   0   0 # oby
   4794      1   2 -1.050000    33.581933852    35.384003333    13.116160948   0   0   0 # oby
   4795      1   3  2.100000    35.550307480    32.412000000    11.546936487   0   0   0 # sty
   4796      1   3  2.100000    33.095309530    36.013333333    11.710384225   0   0   0 # sty
   4797      1   3  2.100000    36.919356350    34.212666667     9.502569764   0   0   0 # sty
   4798      1   2 -1.050000    33.581933852    33.041330000    14.393340948   0   0   0 # oby
   4799      1   2 -1.050000    34.089556966    36.642663333    16.244024744   0   0   0 # oby
   4800      1   2 -1.050000    35.438484591    34.841996667    14.879068334   0   0   0 # oby
   4801      1   2 -1.050000    31.634559015    37.184670000    15.517658334   0   0   0 # oby
   4802      1   2 -1.050000    32.983486640    33.583336667    16.882614744   0   0   0 # oby
   4803      1   2 -1.050000    31.126935901    35.384003333    17.368342131   0   0   0 # oby
   4804      1   3  2.100000    33.095309530    32.412000000    15.799117670   0   0   0 # sty
   4805      1   3  2.100000    30.640311579    36.013333333    15.962565409   0   0   0 # sty
   4806      1   3  2.100000    34.464358399    34.212666667    13.754750948   0   0   0 # sty
   4807      1   2 -1.050000    31.126935901    33.041330000    18.645522131   0   0   0 # oby
   4808      1   2 -1.050000    31.634559015    36.642663333    20.496205927   0   0   0 # oby
   4809      1   2 -1.050000    32.983486640    34.841996667    19.131249517   0   0   0 # oby
   4810      1   2 -1.050000    29.179561064    37.184670000    19.769839517   0   0   0 # oby
   4811      1   2 -1.050000    30.528488690    33.583336667    21.134795927   0   0   0 # oby
   4812      1   2 -1.050000    28.671937951    35.384003333    21.620523314   0   0   0 # oby
   4813      1   3  2.100000    30.640311579    32.412000000    20.051298853   0   0   0 # sty
   4814      1   3  2.100000    28.185313628    36.013333333    20.214746592   0   0   0 # sty
   4815      1   3  2.100000    32.009360448    34.212666667    18.006932131   0   0   0 # sty
   4816      1   2 -1.050000    28.671937951    33.041330000    22.897703314   0   0   0 # oby
   4817      1   2 -1.050000    29.179561064    36.642663333    24.748387110   0   0   0 # oby
   4818      1   2 -1.050000    30.528488690    34.841996667    23.383430700   0   0   0 # oby
   4819      1   2 -1.050000    26.724563113    37.184670000    24.022020700   0   0   0 # oby
   4820      1   2 -1.050000    28.073490739    33.583336667    25.386977110   0   0   0 # oby
   4821      1   2 -1.050000    26.216940000    35.384003333    25.872704497   0   0   0 # oby
   4822      1   3  2.100000    28.185313628    32.412000000    24.303480036   0   0   0 # sty
   4823      1   3  2.100000    25.730315677    36.013333333    24.466927775   0   0   0 # sty
   4824      1   3  2.100000    29.554362497    34.212666667    22.259113314   0   0   0 # sty
   4825      1   1 -0.950000    45.856923606    33.041330000     1.636797398   0   0   0 # ohy
   4826      1   2 -1.050000    46.364546719    36.642663333     3.487481195   0   0   0 # oby
   4827      1   1 -0.950000    47.713474345    34.841996667     2.122524785   0   0   0 # ohy
   4828      1   2 -1.050000    43.909548768    37.184670000     2.761114785   0   0   0 # oby
   4829      1   2 -1.050000    45.258476394    33.583336667     4.126071195   0   0   0 # oby
   4830      1   2 -1.050000    43.401925655    35.384003333     4.611798581   0   0   0 # oby
   4831      1   3  2.100000    45.370299283    32.412000000     3.042574120   0   0   0 # sty
   4832      1   3  2.100000    42.915301332    36.013333333     3.206021859   0   0   0 # sty
   4833      1   3  2.100000    32.009360448    34.212666667    26.511294497   0   0   0 # sty
   4834      1   2 -1.050000    43.401925655    33.041330000     5.888978581   0   0   0 # oby
   4835      1   2 -1.050000    43.909548768    36.642663333     7.739662378   0   0   0 # oby
   4836      1   2 -1.050000    45.258476394    34.841996667     6.374705968   0   0   0 # oby
   4837      1   2 -1.050000    41.454550818    37.184670000     7.013295968   0   0   0 # oby
   4838      1   2 -1.050000    42.803478443    33.583336667     8.378252378   0   0   0 # oby
   4839      1   2 -1.050000    40.946927704    35.384003333     8.863979764   0   0   0 # oby
   4840      1   3  2.100000    42.915301332    32.412000000     7.294755303   0   0   0 # sty
   4841      1   3  2.100000    40.460303382    36.013333333     7.458203042   0   0   0 # sty
   4842      1   3  2.100000    44.284350202    34.212666667     5.250388581   0   0   0 # sty
   4843      1   2 -1.050000    40.946927704    33.041330000    10.141159764   0   0   0 # oby
   4844      1   2 -1.050000    41.454550818    36.642663333    11.991843561   0   0   0 # oby
   4845      1   2 -1.050000    42.803478443    34.841996667    10.626887151   0   0   0 # oby
   4846      1   2 -1.050000    38.999552867    37.184670000    11.265477151   0   0   0 # oby
   4847      1   2 -1.050000    40.348480493    33.583336667    12.630433561   0   0   0 # oby
   4848      1   2 -1.050000    38.491929754    35.384003333    13.116160948   0   0   0 # oby
   4849      1   3  2.100000    40.460303382    32.412000000    11.546936487   0   0   0 # sty
   4850      1   3  2.100000    38.005305431    36.013333333    11.710384225   0   0   0 # sty
   4851      1   3  2.100000    41.829352251    34.212666667     9.502569764   0   0   0 # sty
   4852      1   2 -1.050000    38.491929754    33.041330000    14.393340948   0   0   0 # oby
   4853      1   2 -1.050000    38.999552867    36.642663333    16.244024744   0   0   0 # oby
   4854      1   2 -1.050000    40.348480493    34.841996667    14.879068334   0   0   0 # oby
   4855      1   2 -1.050000    36.544554916    37.184670000    15.517658334   0   0   0 # oby
   4856      1   2 -1.050000    37.893482542    33.583336667    16.882614744   0   0   0 # oby
   4857      1   2 -1.050000    36.036931803    35.384003333    17.368342131   0   0   0 # oby
   4858      1   3  2.100000    38.005305431    32.412000000    15.799117670   0   0   0 # sty
   4859      1   3  2.100000    35.550307480    36.013333333    15.962565409   0   0   0 # sty
   4860      1   3  2.100000    39.374354300    34.212666667    13.754750948   0   0   0 # sty
   4861      1   2 -1.050000    36.036931803    33.041330000    18.645522131   0   0   0 # oby
   4862      1   2 -1.050000    36.544554916    36.642663333    20.496205927   0   0   0 # oby
   4863      1   2 -1.050000    37.893482542    34.841996667    19.131249517   0   0   0 # oby
   4864      1   2 -1.050000    34.089556966    37.184670000    19.769839517   0   0   0 # oby
   4865      1   2 -1.050000    35.438484591    33.583336667    21.134795927   0   0   0 # oby
   4866      1   2 -1.050000    33.581933852    35.384003333    21.620523314   0   0   0 # oby
   4867      1   3  2.100000    35.550307480    32.412000000    20.051298853   0   0   0 # sty
   4868      1   3  2.100000    33.095309530    36.013333333    20.214746592   0   0   0 # sty
   4869      1   3  2.100000    36.919356350    34.212666667    18.006932131   0   0   0 # sty
   4870      1   2 -1.050000    33.581933852    33.041330000    22.897703314   0   0   0 # oby
   4871      1   2 -1.050000    34.089556966    36.642663333    24.748387110   0   0   0 # oby
   4872      1   2 -1.050000    35.438484591    34.841996667    23.383430700   0   0   0 # oby
   4873      1   2 -1.050000    31.634559015    37.184670000    24.022020700   0   0   0 # oby
   4874      1   2 -1.050000    32.983486640    33.583336667    25.386977110   0   0   0 # oby
   4875      1   2 -1.050000    31.126935901    35.384003333    25.872704497   0   0   0 # oby
   4876      1   3  2.100000    33.095309530    32.412000000    24.303480036   0   0   0 # sty
   4877      1   3  2.100000    30.640311579    36.013333333    24.466927775   0   0   0 # sty
   4878      1   3  2.100000    34.464358399    34.212666667    22.259113314   0   0   0 # sty
   4879      1   1 -0.950000    26.216940000    33.041330000     1.636797398   0   0   0 # ohy
   4880      1   2 -1.050000    26.724563113    36.642663333     3.487481195   0   0   0 # oby
   4881      1   1 -0.950000    28.073490739    34.841996667     2.122524785   0   0   0 # ohy
   4882      1   2 -1.050000    48.819544670    37.184670000     2.761114785   0   0   0 # oby
   4883      1   2 -1.050000    25.618492788    33.583336667     4.126071195   0   0   0 # oby
   4884      1   2 -1.050000    48.311921557    35.384003333     4.611798581   0   0   0 # oby
   4885      1   3  2.100000    25.730315677    32.412000000     3.042574120   0   0   0 # sty
   4886      1   3  2.100000    47.825297234    36.013333333     3.206021859   0   0   0 # sty
   4887      1   3  2.100000    36.919356350    34.212666667    26.511294497   0   0   0 # sty
   4888      1   2 -1.050000    48.311921557    33.041330000     5.888978581   0   0   0 # oby
   4889      1   2 -1.050000    48.819544670    36.642663333     7.739662378   0   0   0 # oby
   4890      1   2 -1.050000    25.618492788    34.841996667     6.374705968   0   0   0 # oby
   4891      1   2 -1.050000    46.364546719    37.184670000     7.013295968   0   0   0 # oby
   4892      1   2 -1.050000    47.713474345    33.583336667     8.378252378   0   0   0 # oby
   4893      1   2 -1.050000    45.856923606    35.384003333     8.863979764   0   0   0 # oby
   4894      1   3  2.100000    47.825297234    32.412000000     7.294755303   0   0   0 # sty
   4895      1   3  2.100000    45.370299283    36.013333333     7.458203042   0   0   0 # sty
   4896      1   3  2.100000    24.644366596    34.212666667     5.250388581   0   0   0 # sty
   4897      1   2 -1.050000    45.856923606    33.041330000    10.141159764   0   0   0 # oby
   4898      1   2 -1.050000    46.364546719    36.642663333    11.991843561   0   0   0 # oby
   4899      1   2 -1.050000    47.713474345    34.841996667    10.626887151   0   0   0 # oby
   4900      1   2 -1.050000    43.909548768    37.184670000    11.265477151   0   0   0 # oby
   4901      1   2 -1.050000    45.258476394    33.583336667    12.630433561   0   0   0 # oby
   4902      1   2 -1.050000    43.401925655    35.384003333    13.116160948   0   0   0 # oby
   4903      1   3  2.100000    45.370299283    32.412000000    11.546936487   0   0   0 # sty
   4904      1   3  2.100000    42.915301332    36.013333333    11.710384225   0   0   0 # sty
   4905      1   3  2.100000    46.739348153    34.212666667     9.502569764   0   0   0 # sty
   4906      1   2 -1.050000    43.401925655    33.041330000    14.393340948   0   0   0 # oby
   4907      1   2 -1.050000    43.909548768    36.642663333    16.244024744   0   0   0 # oby
   4908      1   2 -1.050000    45.258476394    34.841996667    14.879068334   0   0   0 # oby
   4909      1   2 -1.050000    41.454550818    37.184670000    15.517658334   0   0   0 # oby
   4910      1   2 -1.050000    42.803478443    33.583336667    16.882614744   0   0   0 # oby
   4911      1   2 -1.050000    40.946927704    35.384003333    17.368342131   0   0   0 # oby
   4912      1   3  2.100000    42.915301332    32.412000000    15.799117670   0   0   0 # sty
   4913      1   3  2.100000    40.460303382    36.013333333    15.962565409   0   0   0 # sty
   4914      1   3  2.100000    44.284350202    34.212666667    13.754750948   0   0   0 # sty
   4915      1   2 -1.050000    40.946927704    33.041330000    18.645522131   0   0   0 # oby
   4916      1   2 -1.050000    41.454550818    36.642663333    20.496205927   0   0   0 # oby
   4917      1   2 -1.050000    42.803478443    34.841996667    19.131249517   0   0   0 # oby
   4918      1   2 -1.050000    38.999552867    37.184670000    19.769839517   0   0   0 # oby
   4919      1   2 -1.050000    40.348480493    33.583336667    21.134795927   0   0   0 # oby
   4920      1   2 -1.050000    38.491929754    35.384003333    21.620523314   0   0   0 # oby
   4921      1   3  2.100000    40.460303382    32.412000000    20.051298853   0   0   0 # sty
   4922      1   3  2.100000    38.005305431    36.013333333    20.214746592   0   0   0 # sty
   4923      1   3  2.100000    41.829352251    34.212666667    18.006932131   0   0   0 # sty
   4924      1   2 -1.050000    38.491929754    33.041330000    22.897703314   0   0   0 # oby
   4925      1   2 -1.050000    38.999552867    36.642663333    24.748387110   0   0   0 # oby
   4926      1   2 -1.050000    40.348480493    34.841996667    23.383430700   0   0   0 # oby
   4927      1   2 -1.050000    36.544554916    37.184670000    24.022020700   0   0   0 # oby
   4928      1   2 -1.050000    37.893482542    33.583336667    25.386977110   0   0   0 # oby
   4929      1   2 -1.050000    36.036931803    35.384003333    25.872704497   0   0   0 # oby
   4930      1   3  2.100000    38.005305431    32.412000000    24.303480036   0   0   0 # sty
   4931      1   3  2.100000    35.550307480    36.013333333    24.466927775   0   0   0 # sty
   4932      1   3  2.100000    39.374354300    34.212666667    22.259113314   0   0   0 # sty
   4933      1   1 -0.950000    31.126935901    33.041330000     1.636797398   0   0   0 # ohy
   4934      1   2 -1.050000    31.634559015    36.642663333     3.487481195   0   0   0 # oby
   4935      1   1 -0.950000    32.983486640    34.841996667     2.122524785   0   0   0 # ohy
   4936      1   2 -1.050000    29.179561064    37.184670000     2.761114785   0   0   0 # oby
   4937      1   2 -1.050000    30.528488690    33.583336667     4.126071195   0   0   0 # oby
   4938      1   2 -1.050000    28.671937951    35.384003333     4.611798581   0   0   0 # oby
   4939      1   3  2.100000    30.640311579    32.412000000     3.042574120   0   0   0 # sty
   4940      1   3  2.100000    28.185313628    36.013333333     3.206021859   0   0   0 # sty
   4941      1   3  2.100000    41.829352251    34.212666667    26.511294497   0   0   0 # sty
   4942      1   2 -1.050000    28.671937951    33.041330000     5.888978581   0   0   0 # oby
   4943      1   2 -1.050000    29.179561064    36.642663333     7.739662378   0   0   0 # oby
   4944      1   2 -1.050000    30.528488690    34.841996667     6.374705968   0   0   0 # oby
   4945      1   2 -1.050000    26.724563113    37.184670000     7.013295968   0   0   0 # oby
   4946      1   2 -1.050000    28.073490739    33.583336667     8.378252378   0   0   0 # oby
   4947      1   2 -1.050000    26.216940000    35.384003333     8.863979764   0   0   0 # oby
   4948      1   3  2.100000    28.185313628    32.412000000     7.294755303   0   0   0 # sty
   4949      1   3  2.100000    25.730315677    36.013333333     7.458203042   0   0   0 # sty
   4950      1   3  2.100000    29.554362497    34.212666667     5.250388581   0   0   0 # sty
   4951      1   2 -1.050000    26.216940000    33.041330000    10.141159764   0   0   0 # oby
   4952      1   2 -1.050000    26.724563113    36.642663333    11.991843561   0   0   0 # oby
   4953      1   2 -1.050000    28.073490739    34.841996667    10.626887151   0   0   0 # oby
   4954      1   2 -1.050000    48.819544670    37.184670000    11.265477151   0   0   0 # oby
   4955      1   2 -1.050000    25.618492788    33.583336667    12.630433561   0   0   0 # oby
   4956      1   2 -1.050000    48.311921557    35.384003333    13.116160948   0   0   0 # oby
   4957      1   3  2.100000    25.730315677    32.412000000    11.546936487   0   0   0 # sty
   4958      1   3  2.100000    47.825297234    36.013333333    11.710384225   0   0   0 # sty
   4959      1   3  2.100000    27.099364547    34.212666667     9.502569764   0   0   0 # sty
   4960      1   2 -1.050000    48.311921557    33.041330000    14.393340948   0   0   0 # oby
   4961      1   2 -1.050000    48.819544670    36.642663333    16.244024744   0   0   0 # oby
   4962      1   2 -1.050000    25.618492788    34.841996667    14.879068334   0   0   0 # oby
   4963      1   2 -1.050000    46.364546719    37.184670000    15.517658334   0   0   0 # oby
   4964      1   2 -1.050000    47.713474345    33.583336667    16.882614744   0   0   0 # oby
   4965      1   2 -1.050000    45.856923606    35.384003333    17.368342131   0   0   0 # oby
   4966      1   3  2.100000    47.825297234    32.412000000    15.799117670   0   0   0 # sty
   4967      1   3  2.100000    45.370299283    36.013333333    15.962565409   0   0   0 # sty
   4968      1   3  2.100000    24.644366596    34.212666667    13.754750948   0   0   0 # sty
   4969      1   2 -1.050000    45.856923606    33.041330000    18.645522131   0   0   0 # oby
   4970      1   2 -1.050000    46.364546719    36.642663333    20.496205927   0   0   0 # oby
   4971      1   2 -1.050000    47.713474345    34.841996667    19.131249517   0   0   0 # oby
   4972      1   2 -1.050000    43.909548768    37.184670000    19.769839517   0   0   0 # oby
   4973      1   2 -1.050000    45.258476394    33.583336667    21.134795927   0   0   0 # oby
   4974      1   2 -1.050000    43.401925655    35.384003333    21.620523314   0   0   0 # oby
   4975      1   3  2.100000    45.370299283    32.412000000    20.051298853   0   0   0 # sty
   4976      1   3  2.100000    42.915301332    36.013333333    20.214746592   0   0   0 # sty
   4977      1   3  2.100000    46.739348153    34.212666667    18.006932131   0   0   0 # sty
   4978      1   2 -1.050000    43.401925655    33.041330000    22.897703314   0   0   0 # oby
   4979      1   2 -1.050000    43.909548768    36.642663333    24.748387110   0   0   0 # oby
   4980      1   2 -1.050000    45.258476394    34.841996667    23.383430700   0   0   0 # oby
   4981      1   2 -1.050000    41.454550818    37.184670000    24.022020700   0   0   0 # oby
   4982      1   2 -1.050000    42.803478443    33.583336667    25.386977110   0   0   0 # oby
   4983      1   2 -1.050000    40.946927704    35.384003333    25.872704497   0   0   0 # oby
   4984      1   3  2.100000    42.915301332    32.412000000    24.303480036   0   0   0 # sty
   4985      1   3  2.100000    40.460303382    36.013333333    24.466927775   0   0   0 # sty
   4986      1   3  2.100000    44.284350202    34.212666667    22.259113314   0   0   0 # sty
   4987      1   1 -0.950000    36.036931803    33.041330000     1.636797398   0   0   0 # ohy
   4988      1   2 -1.050000    36.544554916    36.642663333     3.487481195   0   0   0 # oby
   4989      1   1 -0.950000    37.893482542    34.841996667     2.122524785   0   0   0 # ohy
   4990      1   2 -1.050000    34.089556966    37.184670000     2.761114785   0   0   0 # oby
   4991      1   2 -1.050000    35.438484591    33.583336667     4.126071195   0   0   0 # oby
   4992      1   2 -1.050000    33.581933852    35.384003333     4.611798581   0   0   0 # oby
   4993      1   3  2.100000    35.550307480    32.412000000     3.042574120   0   0   0 # sty
   4994      1   3  2.100000    33.095309530    36.013333333     3.206021859   0   0   0 # sty
   4995      1   3  2.100000    46.739348153    34.212666667    26.511294497   0   0   0 # sty
   4996      1   2 -1.050000    33.581933852    33.041330000     5.888978581   0   0   0 # oby
   4997      1   2 -1.050000    34.089556966    36.642663333     7.739662378   0   0   0 # oby
   4998      1   2 -1.050000    35.438484591    34.841996667     6.374705968   0   0   0 # oby
   4999      1   2 -1.050000    31.634559015    37.184670000     7.013295968   0   0   0 # oby
   5000      1   2 -1.050000    32.983486640    33.583336667     8.378252378   0   0   0 # oby
   5001      1   2 -1.050000    31.126935901    35.384003333     8.863979764   0   0   0 # oby
   5002      1   3  2.100000    33.095309530    32.412000000     7.294755303   0   0   0 # sty
   5003      1   3  2.100000    30.640311579    36.013333333     7.458203042   0   0   0 # sty
   5004      1   3  2.100000    34.464358399    34.212666667     5.250388581   0   0   0 # sty
   5005      1   2 -1.050000    31.126935901    33.041330000    10.141159764   0   0   0 # oby
   5006      1   2 -1.050000    31.634559015    36.642663333    11.991843561   0   0   0 # oby
   5007      1   2 -1.050000    32.983486640    34.841996667    10.626887151   0   0   0 # oby
   5008      1   2 -1.050000    29.179561064    37.184670000    11.265477151   0   0   0 # oby
   5009      1   2 -1.050000    30.528488690    33.583336667    12.630433561   0   0   0 # oby
   5010      1   2 -1.050000    28.671937951    35.384003333    13.116160948   0   0   0 # oby
   5011      1   3  2.100000    30.640311579    32.412000000    11.546936487   0   0   0 # sty
   5012      1   3  2.100000    28.185313628    36.013333333    11.710384225   0   0   0 # sty
   5013      1   3  2.100000    32.009360448    34.212666667     9.502569764   0   0   0 # sty
   5014      1   2 -1.050000    28.671937951    33.041330000    14.393340948   0   0   0 # oby
   5015      1   2 -1.050000    29.179561064    36.642663333    16.244024744   0   0   0 # oby
   5016      1   2 -1.050000    30.528488690    34.841996667    14.879068334   0   0   0 # oby
   5017      1   2 -1.050000    26.724563113    37.184670000    15.517658334   0   0   0 # oby
   5018      1   2 -1.050000    28.073490739    33.583336667    16.882614744   0   0   0 # oby
   5019      1   2 -1.050000    26.216940000    35.384003333    17.368342131   0   0   0 # oby
   5020      1   3  2.100000    28.185313628    32.412000000    15.799117670   0   0   0 # sty
   5021      1   3  2.100000    25.730315677    36.013333333    15.962565409   0   0   0 # sty
   5022      1   3  2.100000    29.554362497    34.212666667    13.754750948   0   0   0 # sty
   5023      1   2 -1.050000    26.216940000    33.041330000    18.645522131   0   0   0 # oby
   5024      1   2 -1.050000    26.724563113    36.642663333    20.496205927   0   0   0 # oby
   5025      1   2 -1.050000    28.073490739    34.841996667    19.131249517   0   0   0 # oby
   5026      1   2 -1.050000    48.819544670    37.184670000    19.769839517   0   0   0 # oby
   5027      1   2 -1.050000    25.618492788    33.583336667    21.134795927   0   0   0 # oby
   5028      1   2 -1.050000    48.311921557    35.384003333    21.620523314   0   0   0 # oby
   5029      1   3  2.100000    25.730315677    32.412000000    20.051298853   0   0   0 # sty
   5030      1   3  2.100000    47.825297234    36.013333333    20.214746592   0   0   0 # sty
   5031      1   3  2.100000    27.099364547    34.212666667    18.006932131   0   0   0 # sty
   5032      1   2 -1.050000    48.311921557    33.041330000    22.897703314   0   0   0 # oby
   5033      1   2 -1.050000    48.819544670    36.642663333    24.748387110   0   0   0 # oby
   5034      1   2 -1.050000    25.618492788    34.841996667    23.383430700   0   0   0 # oby
   5035      1   2 -1.050000    46.364546719    37.184670000    24.022020700   0   0   0 # oby
   5036      1   2 -1.050000    47.713474345    33.583336667    25.386977110   0   0   0 # oby
   5037      1   2 -1.050000    45.856923606    35.384003333    25.872704497   0   0   0 # oby
   5038      1   3  2.100000    47.825297234    32.412000000    24.303480036   0   0   0 # sty
   5039      1   3  2.100000    45.370299283    36.013333333    24.466927775   0   0   0 # sty
   5040      1   3  2.100000    24.644366596    34.212666667    22.259113314   0   0   0 # sty
   5041      1   1 -0.950000    40.946927704    38.443330000     1.636797398   0   0   0 # ohy
   5042      1   2 -1.050000    41.454550818    42.044663333     3.487481195   0   0   0 # oby
   5043      1   1 -0.950000    42.803478443    40.243996667     2.122524785   0   0   0 # ohy
   5044      1   2 -1.050000    38.999552867    42.586670000     2.761114785   0   0   0 # oby
   5045      1   2 -1.050000    40.348480493    38.985336667     4.126071195   0   0   0 # oby
   5046      1   2 -1.050000    38.491929754    40.786003333     4.611798581   0   0   0 # oby
   5047      1   3  2.100000    40.460303382    37.814000000     3.042574120   0   0   0 # sty
   5048      1   3  2.100000    38.005305431    41.415333333     3.206021859   0   0   0 # sty
   5049      1   3  2.100000    27.099364547    39.614666667    26.511294497   0   0   0 # sty
   5050      1   2 -1.050000    38.491929754    38.443330000     5.888978581   0   0   0 # oby
   5051      1   2 -1.050000    38.999552867    42.044663333     7.739662378   0   0   0 # oby
   5052      1   2 -1.050000    40.348480493    40.243996667     6.374705968   0   0   0 # oby
   5053      1   2 -1.050000    36.544554916    42.586670000     7.013295968   0   0   0 # oby
   5054      1   2 -1.050000    37.893482542    38.985336667     8.378252378   0   0   0 # oby
   5055      1   2 -1.050000    36.036931803    40.786003333     8.863979764   0   0   0 # oby
   5056      1   3  2.100000    38.005305431    37.814000000     7.294755303   0   0   0 # sty
   5057      1   3  2.100000    35.550307480    41.415333333     7.458203042   0   0   0 # sty
   5058      1   3  2.100000    39.374354300    39.614666667     5.250388581   0   0   0 # sty
   5059      1   2 -1.050000    36.036931803    38.443330000    10.141159764   0   0   0 # oby
   5060      1   2 -1.050000    36.544554916    42.044663333    11.991843561   0   0   0 # oby
   5061      1   2 -1.050000    37.893482542    40.243996667    10.626887151   0   0   0 # oby
   5062      1   2 -1.050000    34.089556966    42.586670000    11.265477151   0   0   0 # oby
   5063      1   2 -1.050000    35.438484591    38.985336667    12.630433561   0   0   0 # oby
   5064      1   2 -1.050000    33.581933852    40.786003333    13.116160948   0   0   0 # oby
   5065      1   3  2.100000    35.550307480    37.814000000    11.546936487   0   0   0 # sty
   5066      1   3  2.100000    33.095309530    41.415333333    11.710384225   0   0   0 # sty
   5067      1   3  2.100000    36.919356350    39.614666667     9.502569764   0   0   0 # sty
   5068      1   2 -1.050000    33.581933852    38.443330000    14.393340948   0   0   0 # oby
   5069      1   2 -1.050000    34.089556966    42.044663333    16.244024744   0   0   0 # oby
   5070      1   2 -1.050000    35.438484591    40.243996667    14.879068334   0   0   0 # oby
   5071      1   2 -1.050000    31.634559015    42.586670000    15.517658334   0   0   0 # oby
   5072      1   2 -1.050000    32.983486640    38.985336667    16.882614744   0   0   0 # oby
   5073      1   2 -1.050000    31.126935901    40.786003333    17.368342131   0   0   0 # oby
   5074      1   3  2.100000    33.095309530    37.814000000    15.799117670   0   0   0 # sty
   5075      1   3  2.100000    30.640311579    41.415333333    15.962565409   0   0   0 # sty
   5076      1   3  2.100000    34.464358399    39.614666667    13.754750948   0   0   0 # sty
   5077      1   2 -1.050000    31.126935901    38.443330000    18.645522131   0   0   0 # oby
   5078      1   2 -1.050000    31.634559015    42.044663333    20.496205927   0   0   0 # oby
   5079      1   2 -1.050000    32.983486640    40.243996667    19.131249517   0   0   0 # oby
   5080      1   2 -1.050000    29.179561064    42.586670000    19.769839517   0   0   0 # oby
   5081      1   2 -1.050000    30.528488690    38.985336667    21.134795927   0   0   0 # oby
   5082      1   2 -1.050000    28.671937951    40.786003333    21.620523314   0   0   0 # oby
   5083      1   3  2.100000    30.640311579    37.814000000    20.051298853   0   0   0 # sty
   5084      1   3  2.100000    28.185313628    41.415333333    20.214746592   0   0   0 # sty
   5085      1   3  2.100000    32.009360448    39.614666667    18.006932131   0   0   0 # sty
   5086      1   2 -1.050000    28.671937951    38.443330000    22.897703314   0   0   0 # oby
   5087      1   2 -1.050000    29.179561064    42.044663333    24.748387110   0   0   0 # oby
   5088      1   2 -1.050000    30.528488690    40.243996667    23.383430700   0   0   0 # oby
   5089      1   2 -1.050000    26.724563113    42.586670000    24.022020700   0   0   0 # oby
   5090      1   2 -1.050000    28.073490739    38.985336667    25.386977110   0   0   0 # oby
   5091      1   2 -1.050000    26.216940000    40.786003333    25.872704497   0   0   0 # oby
   5092      1   3  2.100000    28.185313628    37.814000000    24.303480036   0   0   0 # sty
   5093      1   3  2.100000    25.730315677    41.415333333    24.466927775   0   0   0 # sty
   5094      1   3  2.100000    29.554362497    39.614666667    22.259113314   0   0   0 # sty
   5095      1   1 -0.950000    45.856923606    38.443330000     1.636797398   0   0   0 # ohy
   5096      1   2 -1.050000    46.364546719    42.044663333     3.487481195   0   0   0 # oby
   5097      1   1 -0.950000    47.713474345    40.243996667     2.122524785   0   0   0 # ohy
   5098      1   2 -1.050000    43.909548768    42.586670000     2.761114785   0   0   0 # oby
   5099      1   2 -1.050000    45.258476394    38.985336667     4.126071195   0   0   0 # oby
   5100      1   2 -1.050000    43.401925655    40.786003333     4.611798581   0   0   0 # oby
   5101      1   3  2.100000    45.370299283    37.814000000     3.042574120   0   0   0 # sty
   5102      1   3  2.100000    42.915301332    41.415333333     3.206021859   0   0   0 # sty
   5103      1   3  2.100000    32.009360448    39.614666667    26.511294497   0   0   0 # sty
   5104      1   2 -1.050000    43.401925655    38.443330000     5.888978581   0   0   0 # oby
   5105      1   2 -1.050000    43.909548768    42.044663333     7.739662378   0   0   0 # oby
   5106      1   2 -1.050000    45.258476394    40.243996667     6.374705968   0   0   0 # oby
   5107      1   2 -1.050000    41.454550818    42.586670000     7.013295968   0   0   0 # oby
   5108      1   2 -1.050000    42.803478443    38.985336667     8.378252378   0   0   0 # oby
   5109      1   2 -1.050000    40.946927704    40.786003333     8.863979764   0   0   0 # oby
   5110      1   3  2.100000    42.915301332    37.814000000     7.294755303   0   0   0 # sty
   5111      1   3  2.100000    40.460303382    41.415333333     7.458203042   0   0   0 # sty
   5112      1   3  2.100000    44.284350202    39.614666667     5.250388581   0   0   0 # sty
   5113      1   2 -1.050000    40.946927704    38.443330000    10.141159764   0   0   0 # oby
   5114      1   2 -1.050000    41.454550818    42.044663333    11.991843561   0   0   0 # oby
   5115      1   2 -1.050000    42.803478443    40.243996667    10.626887151   0   0   0 # oby
   5116      1   2 -1.050000    38.999552867    42.586670000    11.265477151   0   0   0 # oby
   5117      1   2 -1.050000    40.348480493    38.985336667    12.630433561   0   0   0 # oby
   5118      1   2 -1.050000    38.491929754    40.786003333    13.116160948   0   0   0 # oby
   5119      1   3  2.100000    40.460303382    37.814000000    11.546936487   0   0   0 # sty
   5120      1   3  2.100000    38.005305431    41.415333333    11.710384225   0   0   0 # sty
   5121      1   3  2.100000    41.829352251    39.614666667     9.502569764   0   0   0 # sty
   5122      1   2 -1.050000    38.491929754    38.443330000    14.393340948   0   0   0 # oby
   5123      1   2 -1.050000    38.999552867    42.044663333    16.244024744   0   0   0 # oby
   5124      1   2 -1.050000    40.348480493    40.243996667    14.879068334   0   0   0 # oby
   5125      1   2 -1.050000    36.544554916    42.586670000    15.517658334   0   0   0 # oby
   5126      1   2 -1.050000    37.893482542    38.985336667    16.882614744   0   0   0 # oby
   5127      1   2 -1.050000    36.036931803    40.786003333    17.368342131   0   0   0 # oby
   5128      1   3  2.100000    38.005305431    37.814000000    15.799117670   0   0   0 # sty
   5129      1   3  2.100000    35.550307480    41.415333333    15.962565409   0   0   0 # sty
   5130      1   3  2.100000    39.374354300    39.614666667    13.754750948   0   0   0 # sty
   5131      1   2 -1.050000    36.036931803    38.443330000    18.645522131   0   0   0 # oby
   5132      1   2 -1.050000    36.544554916    42.044663333    20.496205927   0   0   0 # oby
   5133      1   2 -1.050000    37.893482542    40.243996667    19.131249517   0   0   0 # oby
   5134      1   2 -1.050000    34.089556966    42.586670000    19.769839517   0   0   0 # oby
   5135      1   2 -1.050000    35.438484591    38.985336667    21.134795927   0   0   0 # oby
   5136      1   2 -1.050000    33.581933852    40.786003333    21.620523314   0   0   0 # oby
   5137      1   3  2.100000    35.550307480    37.814000000    20.051298853   0   0   0 # sty
   5138      1   3  2.100000    33.095309530    41.415333333    20.214746592   0   0   0 # sty
   5139      1   3  2.100000    36.919356350    39.614666667    18.006932131   0   0   0 # sty
   5140      1   2 -1.050000    33.581933852    38.443330000    22.897703314   0   0   0 # oby
   5141      1   2 -1.050000    34.089556966    42.044663333    24.748387110   0   0   0 # oby
   5142      1   2 -1.050000    35.438484591    40.243996667    23.383430700   0   0   0 # oby
   5143      1   2 -1.050000    31.634559015    42.586670000    24.022020700   0   0   0 # oby
   5144      1   2 -1.050000    32.983486640    38.985336667    25.386977110   0   0   0 # oby
   5145      1   2 -1.050000    31.126935901    40.786003333    25.872704497   0   0   0 # oby
   5146      1   3  2.100000    33.095309530    37.814000000    24.303480036   0   0   0 # sty
   5147      1   3  2.100000    30.640311579    41.415333333    24.466927775   0   0   0 # sty
   5148      1   3  2.100000    34.464358399    39.614666667    22.259113314   0   0   0 # sty
   5149      1   1 -0.950000    26.216940000    38.443330000     1.636797398   0   0   0 # ohy
   5150      1   2 -1.050000    26.724563113    42.044663333     3.487481195   0   0   0 # oby
   5151      1   1 -0.950000    28.073490739    40.243996667     2.122524785   0   0   0 # ohy
   5152      1   2 -1.050000    48.819544670    42.586670000     2.761114785   0   0   0 # oby
   5153      1   2 -1.050000    25.618492788    38.985336667     4.126071195   0   0   0 # oby
   5154      1   2 -1.050000    48.311921557    40.786003333     4.611798581   0   0   0 # oby
   5155      1   3  2.100000    25.730315677    37.814000000     3.042574120   0   0   0 # sty
   5156      1   3  2.100000    47.825297234    41.415333333     3.206021859   0   0   0 # sty
   5157      1   3  2.100000    36.919356350    39.614666667    26.511294497   0   0   0 # sty
   5158      1   2 -1.050000    48.311921557    38.443330000     5.888978581   0   0   0 # oby
   5159      1   2 -1.050000    48.819544670    42.044663333     7.739662378   0   0   0 # oby
   5160      1   2 -1.050000    25.618492788    40.243996667     6.374705968   0   0   0 # oby
   5161      1   2 -1.050000    46.364546719    42.586670000     7.013295968   0   0   0 # oby
   5162      1   2 -1.050000    47.713474345    38.985336667     8.378252378   0   0   0 # oby
   5163      1   2 -1.050000    45.856923606    40.786003333     8.863979764   0   0   0 # oby
   5164      1   3  2.100000    47.825297234    37.814000000     7.294755303   0   0   0 # sty
   5165      1   3  2.100000    45.370299283    41.415333333     7.458203042   0   0   0 # sty
   5166      1   3  2.100000    24.644366596    39.614666667     5.250388581   0   0   0 # sty
   5167      1   2 -1.050000    45.856923606    38.443330000    10.141159764   0   0   0 # oby
   5168      1   2 -1.050000    46.364546719    42.044663333    11.991843561   0   0   0 # oby
   5169      1   2 -1.050000    47.713474345    40.243996667    10.626887151   0   0   0 # oby
   5170      1   2 -1.050000    43.909548768    42.586670000    11.265477151   0   0   0 # oby
   5171      1   2 -1.050000    45.258476394    38.985336667    12.630433561   0   0   0 # oby
   5172      1   2 -1.050000    43.401925655    40.786003333    13.116160948   0   0   0 # oby
   5173      1   3  2.100000    45.370299283    37.814000000    11.546936487   0   0   0 # sty
   5174      1   3  2.100000    42.915301332    41.415333333    11.710384225   0   0   0 # sty
   5175      1   3  2.100000    46.739348153    39.614666667     9.502569764   0   0   0 # sty
   5176      1   2 -1.050000    43.401925655    38.443330000    14.393340948   0   0   0 # oby
   5177      1   2 -1.050000    43.909548768    42.044663333    16.244024744   0   0   0 # oby
   5178      1   2 -1.050000    45.258476394    40.243996667    14.879068334   0   0   0 # oby
   5179      1   2 -1.050000    41.454550818    42.586670000    15.517658334   0   0   0 # oby
   5180      1   2 -1.050000    42.803478443    38.985336667    16.882614744   0   0   0 # oby
   5181      1   2 -1.050000    40.946927704    40.786003333    17.368342131   0   0   0 # oby
   5182      1   3  2.100000    42.915301332    37.814000000    15.799117670   0   0   0 # sty
   5183      1   3  2.100000    40.460303382    41.415333333    15.962565409   0   0   0 # sty
   5184      1   3  2.100000    44.284350202    39.614666667    13.754750948   0   0   0 # sty
   5185      1   2 -1.050000    40.946927704    38.443330000    18.645522131   0   0   0 # oby
   5186      1   2 -1.050000    41.454550818    42.044663333    20.496205927   0   0   0 # oby
   5187      1   2 -1.050000    42.803478443    40.243996667    19.131249517   0   0   0 # oby
   5188      1   2 -1.050000    38.999552867    42.586670000    19.769839517   0   0   0 # oby
   5189      1   2 -1.050000    40.348480493    38.985336667    21.134795927   0   0   0 # oby
   5190      1   2 -1.050000    38.491929754    40.786003333    21.620523314   0   0   0 # oby
   5191      1   3  2.100000    40.460303382    37.814000000    20.051298853   0   0   0 # sty
   5192      1   3  2.100000    38.005305431    41.415333333    20.214746592   0   0   0 # sty
   5193      1   3  2.100000    41.829352251    39.614666667    18.006932131   0   0   0 # sty
   5194      1   2 -1.050000    38.491929754    38.443330000    22.897703314   0   0   0 # oby
   5195      1   2 -1.050000    38.999552867    42.044663333    24.748387110   0   0   0 # oby
   5196      1   2 -1.050000    40.348480493    40.243996667    23.383430700   0   0   0 # oby
   5197      1   2 -1.050000    36.544554916    42.586670000    24.022020700   0   0   0 # oby
   5198      1   2 -1.050000    37.893482542    38.985336667    25.386977110   0   0   0 # oby
   5199      1   2 -1.050000    36.036931803    40.786003333    25.872704497   0   0   0 # oby
   5200      1   3  2.100000    38.005305431    37.814000000    24.303480036   0   0   0 # sty
   5201      1   3  2.100000    35.550307480    41.415333333    24.466927775   0   0   0 # sty
   5202      1   3  2.100000    39.374354300    39.614666667    22.259113314   0   0   0 # sty
   5203      1   1 -0.950000    31.126935901    38.443330000     1.636797398   0   0   0 # ohy
   5204      1   2 -1.050000    31.634559015    42.044663333     3.487481195   0   0   0 # oby
   5205      1   1 -0.950000    32.983486640    40.243996667     2.122524785   0   0   0 # ohy
   5206      1   2 -1.050000    29.179561064    42.586670000     2.761114785   0   0   0 # oby
   5207      1   2 -1.050000    30.528488690    38.985336667     4.126071195   0   0   0 # oby
   5208      1   2 -1.050000    28.671937951    40.786003333     4.611798581   0   0   0 # oby
   5209      1   3  2.100000    30.640311579    37.814000000     3.042574120   0   0   0 # sty
   5210      1   3  2.100000    28.185313628    41.415333333     3.206021859   0   0   0 # sty
   5211      1   3  2.100000    41.829352251    39.614666667    26.511294497   0   0   0 # sty
   5212      1   2 -1.050000    28.671937951    38.443330000     5.888978581   0   0   0 # oby
   5213      1   2 -1.050000    29.179561064    42.044663333     7.739662378   0   0   0 # oby
   5214      1   2 -1.050000    30.528488690    40.243996667     6.374705968   0   0   0 # oby
   5215      1   2 -1.050000    26.724563113    42.586670000     7.013295968   0   0   0 # oby
   5216      1   2 -1.050000    28.073490739    38.985336667     8.378252378   0   0   0 # oby
   5217      1   2 -1.050000    26.216940000    40.786003333     8.863979764   0   0   0 # oby
   5218      1   3  2.100000    28.185313628    37.814000000     7.294755303   0   0   0 # sty
   5219      1   3  2.100000    25.730315677    41.415333333     7.458203042   0   0   0 # sty
   5220      1   3  2.100000    29.554362497    39.614666667     5.250388581   0   0   0 # sty
   5221      1   2 -1.050000    26.216940000    38.443330000    10.141159764   0   0   0 # oby
   5222      1   2 -1.050000    26.724563113    42.044663333    11.991843561   0   0   0 # oby
   5223      1   2 -1.050000    28.073490739    40.243996667    10.626887151   0   0   0 # oby
   5224      1   2 -1.050000    48.819544670    42.586670000    11.265477151   0   0   0 # oby
   5225      1   2 -1.050000    25.618492788    38.985336667    12.630433561   0   0   0 # oby
   5226      1   2 -1.050000    48.311921557    40.786003333    13.116160948   0   0   0 # oby
   5227      1   3  2.100000    25.730315677    37.814000000    11.546936487   0   0   0 # sty
   5228      1   3  2.100000    47.825297234    41.415333333    11.710384225   0   0   0 # sty
   5229      1   3  2.100000    27.099364547    39.614666667     9.502569764   0   0   0 # sty
   5230      1   2 -1.050000    48.311921557    38.443330000    14.393340948   0   0   0 # oby
   5231      1   2 -1.050000    48.819544670    42.044663333    16.244024744   0   0   0 # oby
   5232      1   2 -1.050000    25.618492788    40.243996667    14.879068334   0   0   0 # oby
   5233      1   2 -1.050000    46.364546719    42.586670000    15.517658334   0   0   0 # oby
   5234      1   2 -1.050000    47.713474345    38.985336667    16.882614744   0   0   0 # oby
   5235      1   2 -1.050000    45.856923606    40.786003333    17.368342131   0   0   0 # oby
   5236      1   3  2.100000    47.825297234    37.814000000    15.799117670   0   0   0 # sty
   5237      1   3  2.100000    45.370299283    41.415333333    15.962565409   0   0   0 # sty
   5238      1   3  2.100000    24.644366596    39.614666667    13.754750948   0   0   0 # sty
   5239      1   2 -1.050000    45.856923606    38.443330000    18.645522131   0   0   0 # oby
   5240      1   2 -1.050000    46.364546719    42.044663333    20.496205927   0   0   0 # oby
   5241      1   2 -1.050000    47.713474345    40.243996667    19.131249517   0   0   0 # oby
   5242      1   2 -1.050000    43.909548768    42.586670000    19.769839517   0   0   0 # oby
   5243      1   2 -1.050000    45.258476394    38.985336667    21.134795927   0   0   0 # oby
   5244      1   2 -1.050000    43.401925655    40.786003333    21.620523314   0   0   0 # oby
   5245      1   3  2.100000    45.370299283    37.814000000    20.051298853   0   0   0 # sty
   5246      1   3  2.100000    42.915301332    41.415333333    20.214746592   0   0   0 # sty
   5247      1   3  2.100000    46.739348153    39.614666667    18.006932131   0   0   0 # sty
   5248      1   2 -1.050000    43.401925655    38.443330000    22.897703314   0   0   0 # oby
   5249      1   2 -1.050000    43.909548768    42.044663333    24.748387110   0   0   0 # oby
   5250      1   2 -1.050000    45.258476394    40.243996667    23.383430700   0   0   0 # oby
   5251      1   2 -1.050000    41.454550818    42.586670000    24.022020700   0   0   0 # oby
   5252      1   2 -1.050000    42.803478443    38.985336667    25.386977110   0   0   0 # oby
   5253      1   2 -1.050000    40.946927704    40.786003333    25.872704497   0   0   0 # oby
   5254      1   3  2.100000    42.915301332    37.814000000    24.303480036   0   0   0 # sty
   5255      1   3  2.100000    40.460303382    41.415333333    24.466927775   0   0   0 # sty
   5256      1   3  2.100000    44.284350202    39.614666667    22.259113314   0   0   0 # sty
   5257      1   1 -0.950000    36.036931803    38.443330000     1.636797398   0   0   0 # ohy
   5258      1   2 -1.050000    36.544554916    42.044663333     3.487481195   0   0   0 # oby
   5259      1   1 -0.950000    37.893482542    40.243996667     2.122524785   0   0   0 # ohy
   5260      1   2 -1.050000    34.089556966    42.586670000     2.761114785   0   0   0 # oby
   5261      1   2 -1.050000    35.438484591    38.985336667     4.126071195   0   0   0 # oby
   5262      1   2 -1.050000    33.581933852    40.786003333     4.611798581   0   0   0 # oby
   5263      1   3  2.100000    35.550307480    37.814000000     3.042574120   0   0   0 # sty
   5264      1   3  2.100000    33.095309530    41.415333333     3.206021859   0   0   0 # sty
   5265      1   3  2.100000    46.739348153    39.614666667    26.511294497   0   0   0 # sty
   5266      1   2 -1.050000    33.581933852    38.443330000     5.888978581   0   0   0 # oby
   5267      1   2 -1.050000    34.089556966    42.044663333     7.739662378   0   0   0 # oby
   5268      1   2 -1.050000    35.438484591    40.243996667     6.374705968   0   0   0 # oby
   5269      1   2 -1.050000    31.634559015    42.586670000     7.013295968   0   0   0 # oby
   5270      1   2 -1.050000    32.983486640    38.985336667     8.378252378   0   0   0 # oby
   5271      1   2 -1.050000    31.126935901    40.786003333     8.863979764   0   0   0 # oby
   5272      1   3  2.100000    33.095309530    37.814000000     7.294755303   0   0   0 # sty
   5273      1   3  2.100000    30.640311579    41.415333333     7.458203042   0   0   0 # sty
   5274      1   3  2.100000    34.464358399    39.614666667     5.250388581   0   0   0 # sty
   5275      1   2 -1.050000    31.126935901    38.443330000    10.141159764   0   0   0 # oby
   5276      1   2 -1.050000    31.634559015    42.044663333    11.991843561   0   0   0 # oby
   5277      1   2 -1.050000    32.983486640    40.243996667    10.626887151   0   0   0 # oby
   5278      1   2 -1.050000    29.179561064    42.586670000    11.265477151   0   0   0 # oby
   5279      1   2 -1.050000    30.528488690    38.985336667    12.630433561   0   0   0 # oby
   5280      1   2 -1.050000    28.671937951    40.786003333    13.116160948   0   0   0 # oby
   5281      1   3  2.100000    30.640311579    37.814000000    11.546936487   0   0   0 # sty
   5282      1   3  2.100000    28.185313628    41.415333333    11.710384225   0   0   0 # sty
   5283      1   3  2.100000    32.009360448    39.614666667     9.502569764   0   0   0 # sty
   5284      1   2 -1.050000    28.671937951    38.443330000    14.393340948   0   0   0 # oby
   5285      1   2 -1.050000    29.179561064    42.044663333    16.244024744   0   0   0 # oby
   5286      1   2 -1.050000    30.528488690    40.243996667    14.879068334   0   0   0 # oby
   5287      1   2 -1.050000    26.724563113    42.586670000    15.517658334   0   0   0 # oby
   5288      1   2 -1.050000    28.073490739    38.985336667    16.882614744   0   0   0 # oby
   5289      1   2 -1.050000    26.216940000    40.786003333    17.368342131   0   0   0 # oby
   5290      1   3  2.100000    28.185313628    37.814000000    15.799117670   0   0   0 # sty
   5291      1   3  2.100000    25.730315677    41.415333333    15.962565409   0   0   0 # sty
   5292      1   3  2.100000    29.554362497    39.614666667    13.754750948   0   0   0 # sty
   5293      1   2 -1.050000    26.216940000    38.443330000    18.645522131   0   0   0 # oby
   5294      1   2 -1.050000    26.724563113    42.044663333    20.496205927   0   0   0 # oby
   5295      1   2 -1.050000    28.073490739    40.243996667    19.131249517   0   0   0 # oby
   5296      1   2 -1.050000    48.819544670    42.586670000    19.769839517   0   0   0 # oby
   5297      1   2 -1.050000    25.618492788    38.985336667    21.134795927   0   0   0 # oby
   5298      1   2 -1.050000    48.311921557    40.786003333    21.620523314   0   0   0 # oby
   5299      1   3  2.100000    25.730315677    37.814000000    20.051298853   0   0   0 # sty
   5300      1   3  2.100000    47.825297234    41.415333333    20.214746592   0   0   0 # sty
   5301      1   3  2.100000    27.099364547    39.614666667    18.006932131   0   0   0 # sty
   5302      1   2 -1.050000    48.311921557    38.443330000    22.897703314   0   0   0 # oby
   5303      1   2 -1.050000    48.819544670    42.044663333    24.748387110   0   0   0 # oby
   5304      1   2 -1.050000    25.618492788    40.243996667    23.383430700   0   0   0 # oby
   5305      1   2 -1.050000    46.364546719    42.586670000    24.022020700   0   0   0 # oby
   5306      1   2 -1.050000    47.713474345    38.985336667    25.386977110   0   0   0 # oby
   5307      1   2 -1.050000    45.856923606    40.786003333    25.872704497   0   0   0 # oby
   5308      1   3  2.100000    47.825297234    37.814000000    24.303480036   0   0   0 # sty
   5309      1   3  2.100000    45.370299283    41.415333333    24.466927775   0   0   0 # sty
   5310      1   3  2.100000    24.644366596    39.614666667    22.259113314   0   0   0 # sty
   5311      1   1 -0.950000    40.946927704    43.845330000     1.636797398   0   0   0 # ohy
   5312      1   2 -1.050000    41.454550818    47.446663333     3.487481195   0   0   0 # oby
   5313      1   1 -0.950000    42.803478443    45.645996667     2.122524785   0   0   0 # ohy
   5314      1   2 -1.050000    38.999552867    47.988670000     2.761114785   0   0   0 # oby
   5315      1   2 -1.050000    40.348480493    44.387336667     4.126071195   0   0   0 # oby
   5316      1   2 -1.050000    38.491929754    46.188003333     4.611798581   0   0   0 # oby
   5317      1   3  2.100000    40.460303382    43.216000000     3.042574120   0   0   0 # sty
   5318      1   3  2.100000    38.005305431    46.817333333     3.206021859   0   0   0 # sty
   5319      1   3  2.100000    27.099364547    45.016666667    26.511294497   0   0   0 # sty
   5320      1   2 -1.050000    38.491929754    43.845330000     5.888978581   0   0   0 # oby
   5321      1   2 -1.050000    38.999552867    47.446663333     7.739662378   0   0   0 # oby
   5322      1   2 -1.050000    40.348480493    45.645996667     6.374705968   0   0   0 # oby
   5323      1   2 -1.050000    36.544554916    47.988670000     7.013295968   0   0   0 # oby
   5324      1   2 -1.050000    37.893482542    44.387336667     8.378252378   0   0   0 # oby
   5325      1   2 -1.050000    36.036931803    46.188003333     8.863979764   0   0   0 # oby
   5326      1   3  2.100000    38.005305431    43.216000000     7.294755303   0   0   0 # sty
   5327      1   3  2.100000    35.550307480    46.817333333     7.458203042   0   0   0 # sty
   5328      1   3  2.100000    39.374354300    45.016666667     5.250388581   0   0   0 # sty
   5329      1   2 -1.050000    36.036931803    43.845330000    10.141159764   0   0   0 # oby
   5330      1   2 -1.050000    36.544554916    47.446663333    11.991843561   0   0   0 # oby
   5331      1   2 -1.050000    37.893482542    45.645996667    10.626887151   0   0   0 # oby
   5332      1   2 -1.050000    34.089556966    47.988670000    11.265477151   0   0   0 # oby
   5333      1   2 -1.050000    35.438484591    44.387336667    12.630433561   0   0   0 # oby
   5334      1   2 -1.050000    33.581933852    46.188003333    13.116160948   0   0   0 # oby
   5335      1   3  2.100000    35.550307480    43.216000000    11.546936487   0   0   0 # sty
   5336      1   3  2.100000    33.095309530    46.817333333    11.710384225   0   0   0 # sty
   5337      1   3  2.100000    36.919356350    45.016666667     9.502569764   0   0   0 # sty
   5338      1   2 -1.050000    33.581933852    43.845330000    14.393340948   0   0   0 # oby
   5339      1   2 -1.050000    34.089556966    47.446663333    16.244024744   0   0   0 # oby
   5340      1   2 -1.050000    35.438484591    45.645996667    14.879068334   0   0   0 # oby
   5341      1   2 -1.050000    31.634559015    47.988670000    15.517658334   0   0   0 # oby
   5342      1   2 -1.050000    32.983486640    44.387336667    16.882614744   0   0   0 # oby
   5343      1   2 -1.050000    31.126935901    46.188003333    17.368342131   0   0   0 # oby
   5344      1   3  2.100000    33.095309530    43.216000000    15.799117670   0   0   0 # sty
   5345      1   3  2.100000    30.640311579    46.817333333    15.962565409   0   0   0 # sty
   5346      1   3  2.100000    34.464358399    45.016666667    13.754750948   0   0   0 # sty
   5347      1   2 -1.050000    31.126935901    43.845330000    18.645522131   0   0   0 # oby
   5348      1   2 -1.050000    31.634559015    47.446663333    20.496205927   0   0   0 # oby
   5349      1   2 -1.050000    32.983486640    45.645996667    19.131249517   0   0   0 # oby
   5350      1   2 -1.050000    29.179561064    47.988670000    19.769839517   0   0   0 # oby
   5351      1   2 -1.050000    30.528488690    44.387336667    21.134795927   0   0   0 # oby
   5352      1   2 -1.050000    28.671937951    46.188003333    21.620523314   0   0   0 # oby
   5353      1   3  2.100000    30.640311579    43.216000000    20.051298853   0   0   0 # sty
   5354      1   3  2.100000    28.185313628    46.817333333    20.214746592   0   0   0 # sty
   5355      1   3  2.100000    32.009360448    45.016666667    18.006932131   0   0   0 # sty
   5356      1   2 -1.050000    28.671937951    43.845330000    22.897703314   0   0   0 # oby
   5357      1   2 -1.050000    29.179561064    47.446663333    24.748387110   0   0   0 # oby
   5358      1   2 -1.050000    30.528488690    45.645996667    23.383430700   0   0   0 # oby
   5359      1   2 -1.050000    26.724563113    47.988670000    24.022020700   0   0   0 # oby
   5360      1   2 -1.050000    28.073490739    44.387336667    25.386977110   0   0   0 # oby
   5361      1   2 -1.050000    26.216940000    46.188003333    25.872704497   0   0   0 # oby
   5362      1   3  2.100000    28.185313628    43.216000000    24.303480036   0   0   0 # sty
   5363      1   3  2.100000    25.730315677    46.817333333    24.466927775   0   0   0 # sty
   5364      1   3  2.100000    29.554362497    45.016666667    22.259113314   0   0   0 # sty
   5365      1   1 -0.950000    45.856923606    43.845330000     1.636797398   0   0   0 # ohy
   5366      1   2 -1.050000    46.364546719    47.446663333     3.487481195   0   0   0 # oby
   5367      1   1 -0.950000    47.713474345    45.645996667     2.122524785   0   0   0 # ohy
   5368      1   2 -1.050000    43.909548768    47.988670000     2.761114785   0   0   0 # oby
   5369      1   2 -1.050000    45.258476394    44.387336667     4.126071195   0   0   0 # oby
   5370      1   2 -1.050000    43.401925655    46.188003333     4.611798581   0   0   0 # oby
   5371      1   3  2.100000    45.370299283    43.216000000     3.042574120   0   0   0 # sty
   5372      1   3  2.100000    42.915301332    46.817333333     3.206021859   0   0   0 # sty
   5373      1   3  2.100000    32.009360448    45.016666667    26.511294497   0   0   0 # sty
   5374      1   2 -1.050000    43.401925655    43.845330000     5.888978581   0   0   0 # oby
   5375      1   2 -1.050000    43.909548768    47.446663333     7.739662378   0   0   0 # oby
   5376      1   2 -1.050000    45.258476394    45.645996667     6.374705968   0   0   0 # oby
   5377      1   2 -1.050000    41.454550818    47.988670000     7.013295968   0   0   0 # oby
   5378      1   2 -1.050000    42.803478443    44.387336667     8.378252378   0   0   0 # oby
   5379      1   2 -1.050000    40.946927704    46.188003333     8.863979764   0   0   0 # oby
   5380      1   3  2.100000    42.915301332    43.216000000     7.294755303   0   0   0 # sty
   5381      1   3  2.100000    40.460303382    46.817333333     7.458203042   0   0   0 # sty
   5382      1   3  2.100000    44.284350202    45.016666667     5.250388581   0   0   0 # sty
   5383      1   2 -1.050000    40.946927704    43.845330000    10.141159764   0   0   0 # oby
   5384      1   2 -1.050000    41.454550818    47.446663333    11.991843561   0   0   0 # oby
   5385      1   2 -1.050000    42.803478443    45.645996667    10.626887151   0   0   0 # oby
   5386      1   2 -1.050000    38.999552867    47.988670000    11.265477151   0   0   0 # oby
   5387      1   2 -1.050000    40.348480493    44.387336667    12.630433561   0   0   0 # oby
   5388      1   2 -1.050000    38.491929754    46.188003333    13.116160948   0   0   0 # oby
   5389      1   3  2.100000    40.460303382    43.216000000    11.546936487   0   0   0 # sty
   5390      1   3  2.100000    38.005305431    46.817333333    11.710384225   0   0   0 # sty
   5391      1   3  2.100000    41.829352251    45.016666667     9.502569764   0   0   0 # sty
   5392      1   2 -1.050000    38.491929754    43.845330000    14.393340948   0   0   0 # oby
   5393      1   2 -1.050000    38.999552867    47.446663333    16.244024744   0   0   0 # oby
   5394      1   2 -1.050000    40.348480493    45.645996667    14.879068334   0   0   0 # oby
   5395      1   2 -1.050000    36.544554916    47.988670000    15.517658334   0   0   0 # oby
   5396      1   2 -1.050000    37.893482542    44.387336667    16.882614744   0   0   0 # oby
   5397      1   2 -1.050000    36.036931803    46.188003333    17.368342131   0   0   0 # oby
   5398      1   3  2.100000    38.005305431    43.216000000    15.799117670   0   0   0 # sty
   5399      1   3  2.100000    35.550307480    46.817333333    15.962565409   0   0   0 # sty
   5400      1   3  2.100000    39.374354300    45.016666667    13.754750948   0   0   0 # sty
   5401      1   2 -1.050000    36.036931803    43.845330000    18.645522131   0   0   0 # oby
   5402      1   2 -1.050000    36.544554916    47.446663333    20.496205927   0   0   0 # oby
   5403      1   2 -1.050000    37.893482542    45.645996667    19.131249517   0   0   0 # oby
   5404      1   2 -1.050000    34.089556966    47.988670000    19.769839517   0   0   0 # oby
   5405      1   2 -1.050000    35.438484591    44.387336667    21.134795927   0   0   0 # oby
   5406      1   2 -1.050000    33.581933852    46.188003333    21.620523314   0   0   0 # oby
   5407      1   3  2.100000    35.550307480    43.216000000    20.051298853   0   0   0 # sty
   5408      1   3  2.100000    33.095309530    46.817333333    20.214746592   0   0   0 # sty
   5409      1   3  2.100000    36.919356350    45.016666667    18.006932131   0   0   0 # sty
   5410      1   2 -1.050000    33.581933852    43.845330000    22.897703314   0   0   0 # oby
   5411      1   2 -1.050000    34.089556966    47.446663333    24.748387110   0   0   0 # oby
   5412      1   2 -1.050000    35.438484591    45.645996667    23.383430700   0   0   0 # oby
   5413      1   2 -1.050000    31.634559015    47.988670000    24.022020700   0   0   0 # oby
   5414      1   2 -1.050000    32.983486640    44.387336667    25.386977110   0   0   0 # oby
   5415      1   2 -1.050000    31.126935901    46.188003333    25.872704497   0   0   0 # oby
   5416      1   3  2.100000    33.095309530    43.216000000    24.303480036   0   0   0 # sty
   5417      1   3  2.100000    30.640311579    46.817333333    24.466927775   0   0   0 # sty
   5418      1   3  2.100000    34.464358399    45.016666667    22.259113314   0   0   0 # sty
   5419      1   1 -0.950000    26.216940000    43.845330000     1.636797398   0   0   0 # ohy
   5420      1   2 -1.050000    26.724563113    47.446663333     3.487481195   0   0   0 # oby
   5421      1   1 -0.950000    28.073490739    45.645996667     2.122524785   0   0   0 # ohy
   5422      1   2 -1.050000    48.819544670    47.988670000     2.761114785   0   0   0 # oby
   5423      1   2 -1.050000    25.618492788    44.387336667     4.126071195   0   0   0 # oby
   5424      1   2 -1.050000    48.311921557    46.188003333     4.611798581   0   0   0 # oby
   5425      1   3  2.100000    25.730315677    43.216000000     3.042574120   0   0   0 # sty
   5426      1   3  2.100000    47.825297234    46.817333333     3.206021859   0   0   0 # sty
   5427      1   3  2.100000    36.919356350    45.016666667    26.511294497   0   0   0 # sty
   5428      1   2 -1.050000    48.311921557    43.845330000     5.888978581   0   0   0 # oby
   5429      1   2 -1.050000    48.819544670    47.446663333     7.739662378   0   0   0 # oby
   5430      1   2 -1.050000    25.618492788    45.645996667     6.374705968   0   0   0 # oby
   5431      1   2 -1.050000    46.364546719    47.988670000     7.013295968   0   0   0 # oby
   5432      1   2 -1.050000    47.713474345    44.387336667     8.378252378   0   0   0 # oby
   5433      1   2 -1.050000    45.856923606    46.188003333     8.863979764   0   0   0 # oby
   5434      1   3  2.100000    47.825297234    43.216000000     7.294755303   0   0   0 # sty
   5435      1   3  2.100000    45.370299283    46.817333333     7.458203042   0   0   0 # sty
   5436      1   3  2.100000    24.644366596    45.016666667     5.250388581   0   0   0 # sty
   5437      1   2 -1.050000    45.856923606    43.845330000    10.141159764   0   0   0 # oby
   5438      1   2 -1.050000    46.364546719    47.446663333    11.991843561   0   0   0 # oby
   5439      1   2 -1.050000    47.713474345    45.645996667    10.626887151   0   0   0 # oby
   5440      1   2 -1.050000    43.909548768    47.988670000    11.265477151   0   0   0 # oby
   5441      1   2 -1.050000    45.258476394    44.387336667    12.630433561   0   0   0 # oby
   5442      1   2 -1.050000    43.401925655    46.188003333    13.116160948   0   0   0 # oby
   5443      1   3  2.100000    45.370299283    43.216000000    11.546936487   0   0   0 # sty
   5444      1   3  2.100000    42.915301332    46.817333333    11.710384225   0   0   0 # sty
   5445      1   3  2.100000    46.739348153    45.016666667     9.502569764   0   0   0 # sty
   5446      1   2 -1.050000    43.401925655    43.845330000    14.393340948   0   0   0 # oby
   5447      1   2 -1.050000    43.909548768    47.446663333    16.244024744   0   0   0 # oby
   5448      1   2 -1.050000    45.258476394    45.645996667    14.879068334   0   0   0 # oby
   5449      1   2 -1.050000    41.454550818    47.988670000    15.517658334   0   0   0 # oby
   5450      1   2 -1.050000    42.803478443    44.387336667    16.882614744   0   0   0 # oby
   5451      1   2 -1.050000    40.946927704    46.188003333    17.368342131   0   0   0 # oby
   5452      1   3  2.100000    42.915301332    43.216000000    15.799117670   0   0   0 # sty
   5453      1   3  2.100000    40.460303382    46.817333333    15.962565409   0   0   0 # sty
   5454      1   3  2.100000    44.284350202    45.016666667    13.754750948   0   0   0 # sty
   5455      1   2 -1.050000    40.946927704    43.845330000    18.645522131   0   0   0 # oby
   5456      1   2 -1.050000    41.454550818    47.446663333    20.496205927   0   0   0 # oby
   5457      1   2 -1.050000    42.803478443    45.645996667    19.131249517   0   0   0 # oby
   5458      1   2 -1.050000    38.999552867    47.988670000    19.769839517   0   0   0 # oby
   5459      1   2 -1.050000    40.348480493    44.387336667    21.134795927   0   0   0 # oby
   5460      1   2 -1.050000    38.491929754    46.188003333    21.620523314   0   0   0 # oby
   5461      1   3  2.100000    40.460303382    43.216000000    20.051298853   0   0   0 # sty
   5462      1   3  2.100000    38.005305431    46.817333333    20.214746592   0   0   0 # sty
   5463      1   3  2.100000    41.829352251    45.016666667    18.006932131   0   0   0 # sty
   5464      1   2 -1.050000    38.491929754    43.845330000    22.897703314   0   0   0 # oby
   5465      1   2 -1.050000    38.999552867    47.446663333    24.748387110   0   0   0 # oby
   5466      1   2 -1.050000    40.348480493    45.645996667    23.383430700   0   0   0 # oby
   5467      1   2 -1.050000    36.544554916    47.988670000    24.022020700   0   0   0 # oby
   5468      1   2 -1.050000    37.893482542    44.387336667    25.386977110   0   0   0 # oby
   5469      1   2 -1.050000    36.036931803    46.188003333    25.872704497   0   0   0 # oby
   5470      1   3  2.100000    38.005305431    43.216000000    24.303480036   0   0   0 # sty
   5471      1   3  2.100000    35.550307480    46.817333333    24.466927775   0   0   0 # sty
   5472      1   3  2.100000    39.374354300    45.016666667    22.259113314   0   0   0 # sty
   5473      1   1 -0.950000    31.126935901    43.845330000     1.636797398   0   0   0 # ohy
   5474      1   2 -1.050000    31.634559015    47.446663333     3.487481195   0   0   0 # oby
   5475      1   1 -0.950000    32.983486640    45.645996667     2.122524785   0   0   0 # ohy
   5476      1   2 -1.050000    29.179561064    47.988670000     2.761114785   0   0   0 # oby
   5477      1   2 -1.050000    30.528488690    44.387336667     4.126071195   0   0   0 # oby
   5478      1   2 -1.050000    28.671937951    46.188003333     4.611798581   0   0   0 # oby
   5479      1   3  2.100000    30.640311579    43.216000000     3.042574120   0   0   0 # sty
   5480      1   3  2.100000    28.185313628    46.817333333     3.206021859   0   0   0 # sty
   5481      1   3  2.100000    41.829352251    45.016666667    26.511294497   0   0   0 # sty
   5482      1   2 -1.050000    28.671937951    43.845330000     5.888978581   0   0   0 # oby
   5483      1   2 -1.050000    29.179561064    47.446663333     7.739662378   0   0   0 # oby
   5484      1   2 -1.050000    30.528488690    45.645996667     6.374705968   0   0   0 # oby
   5485      1   2 -1.050000    26.724563113    47.988670000     7.013295968   0   0   0 # oby
   5486      1   2 -1.050000    28.073490739    44.387336667     8.378252378   0   0   0 # oby
   5487      1   2 -1.050000    26.216940000    46.188003333     8.863979764   0   0   0 # oby
   5488      1   3  2.100000    28.185313628    43.216000000     7.294755303   0   0   0 # sty
   5489      1   3  2.100000    25.730315677    46.817333333     7.458203042   0   0   0 # sty
   5490      1   3  2.100000    29.554362497    45.016666667     5.250388581   0   0   0 # sty
   5491      1   2 -1.050000    26.216940000    43.845330000    10.141159764   0   0   0 # oby
   5492      1   2 -1.050000    26.724563113    47.446663333    11.991843561   0   0   0 # oby
   5493      1   2 -1.050000    28.073490739    45.645996667    10.626887151   0   0   0 # oby
   5494      1   2 -1.050000    48.819544670    47.988670000    11.265477151   0   0   0 # oby
   5495      1   2 -1.050000    25.618492788    44.387336667    12.630433561   0   0   0 # oby
   5496      1   2 -1.050000    48.311921557    46.188003333    13.116160948   0   0   0 # oby
   5497      1   3  2.100000    25.730315677    43.216000000    11.546936487   0   0   0 # sty
   5498      1   3  2.100000    47.825297234    46.817333333    11.710384225   0   0   0 # sty
   5499      1   3  2.100000    27.099364547    45.016666667     9.502569764   0   0   0 # sty
   5500      1   2 -1.050000    48.311921557    43.845330000    14.393340948   0   0   0 # oby
   5501      1   2 -1.050000    48.819544670    47.446663333    16.244024744   0   0   0 # oby
   5502      1   2 -1.050000    25.618492788    45.645996667    14.879068334   0   0   0 # oby
   5503      1   2 -1.050000    46.364546719    47.988670000    15.517658334   0   0   0 # oby
   5504      1   2 -1.050000    47.713474345    44.387336667    16.882614744   0   0   0 # oby
   5505      1   2 -1.050000    45.856923606    46.188003333    17.368342131   0   0   0 # oby
   5506      1   3  2.100000    47.825297234    43.216000000    15.799117670   0   0   0 # sty
   5507      1   3  2.100000    45.370299283    46.817333333    15.962565409   0   0   0 # sty
   5508      1   3  2.100000    24.644366596    45.016666667    13.754750948   0   0   0 # sty
   5509      1   2 -1.050000    45.856923606    43.845330000    18.645522131   0   0   0 # oby
   5510      1   2 -1.050000    46.364546719    47.446663333    20.496205927   0   0   0 # oby
   5511      1   2 -1.050000    47.713474345    45.645996667    19.131249517   0   0   0 # oby
   5512      1   2 -1.050000    43.909548768    47.988670000    19.769839517   0   0   0 # oby
   5513      1   2 -1.050000    45.258476394    44.387336667    21.134795927   0   0   0 # oby
   5514      1   2 -1.050000    43.401925655    46.188003333    21.620523314   0   0   0 # oby
   5515      1   3  2.100000    45.370299283    43.216000000    20.051298853   0   0   0 # sty
   5516      1   3  2.100000    42.915301332    46.817333333    20.214746592   0   0   0 # sty
   5517      1   3  2.100000    46.739348153    45.016666667    18.006932131   0   0   0 # sty
   5518      1   2 -1.050000    43.401925655    43.845330000    22.897703314   0   0   0 # oby
   5519      1   2 -1.050000    43.909548768    47.446663333    24.748387110   0   0   0 # oby
   5520      1   2 -1.050000    45.258476394    45.645996667    23.383430700   0   0   0 # oby
   5521      1   2 -1.050000    41.454550818    47.988670000    24.022020700   0   0   0 # oby
   5522      1   2 -1.050000    42.803478443    44.387336667    25.386977110   0   0   0 # oby
   5523      1   2 -1.050000    40.946927704    46.188003333    25.872704497   0   0   0 # oby
   5524      1   3  2.100000    42.915301332    43.216000000    24.303480036   0   0   0 # sty
   5525      1   3  2.100000    40.460303382    46.817333333    24.466927775   0   0   0 # sty
   5526      1   3  2.100000    44.284350202    45.016666667    22.259113314   0   0   0 # sty
   5527      1   1 -0.950000    36.036931803    43.845330000     1.636797398   0   0   0 # ohy
   5528      1   2 -1.050000    36.544554916    47.446663333     3.487481195   0   0   0 # oby
   5529      1   1 -0.950000    37.893482542    45.645996667     2.122524785   0   0   0 # ohy
   5530      1   2 -1.050000    34.089556966    47.988670000     2.761114785   0   0   0 # oby
   5531      1   2 -1.050000    35.438484591    44.387336667     4.126071195   0   0   0 # oby
   5532      1   2 -1.050000    33.581933852    46.188003333     4.611798581   0   0   0 # oby
   5533      1   3  2.100000    35.550307480    43.216000000     3.042574120   0   0   0 # sty
   5534      1   3  2.100000    33.095309530    46.817333333     3.206021859   0   0   0 # sty
   5535      1   3  2.100000    46.739348153    45.016666667    26.511294497   0   0   0 # sty
   5536      1   2 -1.050000    33.581933852    43.845330000     5.888978581   0   0   0 # oby
   5537      1   2 -1.050000    34.089556966    47.446663333     7.739662378   0   0   0 # oby
   5538      1   2 -1.050000    35.438484591    45.645996667     6.374705968   0   0   0 # oby
   5539      1   2 -1.050000    31.634559015    47.988670000     7.013295968   0   0   0 # oby
   5540      1   2 -1.050000    32.983486640    44.387336667     8.378252378   0   0   0 # oby
   5541      1   2 -1.050000    31.126935901    46.188003333     8.863979764   0   0   0 # oby
   5542      1   3  2.100000    33.095309530    43.216000000     7.294755303   0   0   0 # sty
   5543      1   3  2.100000    30.640311579    46.817333333     7.458203042   0   0   0 # sty
   5544      1   3  2.100000    34.464358399    45.016666667     5.250388581   0   0   0 # sty
   5545      1   2 -1.050000    31.126935901    43.845330000    10.141159764   0   0   0 # oby
   5546      1   2 -1.050000    31.634559015    47.446663333    11.991843561   0   0   0 # oby
   5547      1   2 -1.050000    32.983486640    45.645996667    10.626887151   0   0   0 # oby
   5548      1   2 -1.050000    29.179561064    47.988670000    11.265477151   0   0   0 # oby
   5549      1   2 -1.050000    30.528488690    44.387336667    12.630433561   0   0   0 # oby
   5550      1   2 -1.050000    28.671937951    46.188003333    13.116160948   0   0   0 # oby
   5551      1   3  2.100000    30.640311579    43.216000000    11.546936487   0   0   0 # sty
   5552      1   3  2.100000    28.185313628    46.817333333    11.710384225   0   0   0 # sty
   5553      1   3  2.100000    32.009360448    45.016666667     9.502569764   0   0   0 # sty
   5554      1   2 -1.050000    28.671937951    43.845330000    14.393340948   0   0   0 # oby
   5555      1   2 -1.050000    29.179561064    47.446663333    16.244024744   0   0   0 # oby
   5556      1   2 -1.050000    30.528488690    45.645996667    14.879068334   0   0   0 # oby
   5557      1   2 -1.050000    26.724563113    47.988670000    15.517658334   0   0   0 # oby
   5558      1   2 -1.050000    28.073490739    44.387336667    16.882614744   0   0   0 # oby
   5559      1   2 -1.050000    26.216940000    46.188003333    17.368342131   0   0   0 # oby
   5560      1   3  2.100000    28.185313628    43.216000000    15.799117670   0   0   0 # sty
   5561      1   3  2.100000    25.730315677    46.817333333    15.962565409   0   0   0 # sty
   5562      1   3  2.100000    29.554362497    45.016666667    13.754750948   0   0   0 # sty
   5563      1   2 -1.050000    26.216940000    43.845330000    18.645522131   0   0   0 # oby
   5564      1   2 -1.050000    26.724563113    47.446663333    20.496205927   0   0   0 # oby
   5565      1   2 -1.050000    28.073490739    45.645996667    19.131249517   0   0   0 # oby
   5566      1   2 -1.050000    48.819544670    47.988670000    19.769839517   0   0   0 # oby
   5567      1   2 -1.050000    25.618492788    44.387336667    21.134795927   0   0   0 # oby
   5568      1   2 -1.050000    48.311921557    46.188003333    21.620523314   0   0   0 # oby
   5569      1   3  2.100000    25.730315677    43.216000000    20.051298853   0   0   0 # sty
   5570      1   3  2.100000    47.825297234    46.817333333    20.214746592   0   0   0 # sty
   5571      1   3  2.100000    27.099364547    45.016666667    18.006932131   0   0   0 # sty
   5572      1   2 -1.050000    48.311921557    43.845330000    22.897703314   0   0   0 # oby
   5573      1   2 -1.050000    48.819544670    47.446663333    24.748387110   0   0   0 # oby
   5574      1   2 -1.050000    25.618492788    45.645996667    23.383430700   0   0   0 # oby
   5575      1   2 -1.050000    46.364546719    47.988670000    24.022020700   0   0   0 # oby
   5576      1   2 -1.050000    47.713474345    44.387336667    25.386977110   0   0   0 # oby
   5577      1   2 -1.050000    45.856923606    46.188003333    25.872704497   0   0   0 # oby
   5578      1   3  2.100000    47.825297234    43.216000000    24.303480036   0   0   0 # sty
   5579      1   3  2.100000    45.370299283    46.817333333    24.466927775   0   0   0 # sty
   5580      1   3  2.100000    24.644366596    45.016666667    22.259113314   0   0   0 # sty
   5581      1   1 -0.950000    40.946927704    49.247330000     1.636797398   0   0   0 # ohy
   5582      1   2 -1.050000    41.454550818    52.848663333     3.487481195   0   0   0 # oby
   5583      1   1 -0.950000    42.803478443    51.047996667     2.122524785   0   0   0 # ohy
   5584      1   2 -1.050000    38.999552867    53.390670000     2.761114785   0   0   0 # oby
   5585      1   2 -1.050000    40.348480493    49.789336667     4.126071195   0   0   0 # oby
   5586      1   2 -1.050000    38.491929754    51.590003333     4.611798581   0   0   0 # oby
   5587      1   3  2.100000    40.460303382    48.618000000     3.042574120   0   0   0 # sty
   5588      1   3  2.100000    38.005305431    52.219333333     3.206021859   0   0   0 # sty
   5589      1   3  2.100000    27.099364547    50.418666667    26.511294497   0   0   0 # sty
   5590      1   2 -1.050000    38.491929754    49.247330000     5.888978581   0   0   0 # oby
   5591      1   2 -1.050000    38.999552867    52.848663333     7.739662378   0   0   0 # oby
   5592      1   2 -1.050000    40.348480493    51.047996667     6.374705968   0   0   0 # oby
   5593      1   2 -1.050000    36.544554916    53.390670000     7.013295968   0   0   0 # oby
   5594      1   2 -1.050000    37.893482542    49.789336667     8.378252378   0   0   0 # oby
   5595      1   2 -1.050000    36.036931803    51.590003333     8.863979764   0   0   0 # oby
   5596      1   3  2.100000    38.005305431    48.618000000     7.294755303   0   0   0 # sty
   5597      1   3  2.100000    35.550307480    52.219333333     7.458203042   0   0   0 # sty
   5598      1   3  2.100000    39.374354300    50.418666667     5.250388581   0   0   0 # sty
   5599      1   2 -1.050000    36.036931803    49.247330000    10.141159764   0   0   0 # oby
   5600      1   2 -1.050000    36.544554916    52.848663333    11.991843561   0   0   0 # oby
   5601      1   2 -1.050000    37.893482542    51.047996667    10.626887151   0   0   0 # oby
   5602      1   2 -1.050000    34.089556966    53.390670000    11.265477151   0   0   0 # oby
   5603      1   2 -1.050000    35.438484591    49.789336667    12.630433561   0   0   0 # oby
   5604      1   2 -1.050000    33.581933852    51.590003333    13.116160948   0   0   0 # oby
   5605      1   3  2.100000    35.550307480    48.618000000    11.546936487   0   0   0 # sty
   5606      1   3  2.100000    33.095309530    52.219333333    11.710384225   0   0   0 # sty
   5607      1   3  2.100000    36.919356350    50.418666667     9.502569764   0   0   0 # sty
   5608      1   2 -1.050000    33.581933852    49.247330000    14.393340948   0   0   0 # oby
   5609      1   2 -1.050000    34.089556966    52.848663333    16.244024744   0   0   0 # oby
   5610      1   2 -1.050000    35.438484591    51.047996667    14.879068334   0   0   0 # oby
   5611      1   2 -1.050000    31.634559015    53.390670000    15.517658334   0   0   0 # oby
   5612      1   2 -1.050000    32.983486640    49.789336667    16.882614744   0   0   0 # oby
   5613      1   2 -1.050000    31.126935901    51.590003333    17.368342131   0   0   0 # oby
   5614      1   3  2.100000    33.095309530    48.618000000    15.799117670   0   0   0 # sty
   5615      1   3  2.100000    30.640311579    52.219333333    15.962565409   0   0   0 # sty
   5616      1   3  2.100000    34.464358399    50.418666667    13.754750948   0   0   0 # sty
   5617      1   2 -1.050000    31.126935901    49.247330000    18.645522131   0   0   0 # oby
   5618      1   2 -1.050000    31.634559015    52.848663333    20.496205927   0   0   0 # oby
   5619      1   2 -1.050000    32.983486640    51.047996667    19.131249517   0   0   0 # oby
   5620      1   2 -1.050000    29.179561064    53.390670000    19.769839517   0   0   0 # oby
   5621      1   2 -1.050000    30.528488690    49.789336667    21.134795927   0   0   0 # oby
   5622      1   2 -1.050000    28.671937951    51.590003333    21.620523314   0   0   0 # oby
   5623      1   3  2.100000    30.640311579    48.618000000    20.051298853   0   0   0 # sty
   5624      1   3  2.100000    28.185313628    52.219333333    20.214746592   0   0   0 # sty
   5625      1   3  2.100000    32.009360448    50.418666667    18.006932131   0   0   0 # sty
   5626      1   2 -1.050000    28.671937951    49.247330000    22.897703314   0   0   0 # oby
   5627      1   2 -1.050000    29.179561064    52.848663333    24.748387110   0   0   0 # oby
   5628      1   2 -1.050000    30.528488690    51.047996667    23.383430700   0   0   0 # oby
   5629      1   2 -1.050000    26.724563113    53.390670000    24.022020700   0   0   0 # oby
   5630      1   2 -1.050000    28.073490739    49.789336667    25.386977110   0   0   0 # oby
   5631      1   2 -1.050000    26.216940000    51.590003333    25.872704497   0   0   0 # oby
   5632      1   3  2.100000    28.185313628    48.618000000    24.303480036   0   0   0 # sty
   5633      1   3  2.100000    25.730315677    52.219333333    24.466927775   0   0   0 # sty
   5634      1   3  2.100000    29.554362497    50.418666667    22.259113314   0   0   0 # sty
   5635      1   1 -0.950000    45.856923606    49.247330000     1.636797398   0   0   0 # ohy
   5636      1   2 -1.050000    46.364546719    52.848663333     3.487481195   0   0   0 # oby
   5637      1   1 -0.950000    47.713474345    51.047996667     2.122524785   0   0   0 # ohy
   5638      1   2 -1.050000    43.909548768    53.390670000     2.761114785   0   0   0 # oby
   5639      1   2 -1.050000    45.258476394    49.789336667     4.126071195   0   0   0 # oby
   5640      1   2 -1.050000    43.401925655    51.590003333     4.611798581   0   0   0 # oby
   5641      1   3  2.100000    45.370299283    48.618000000     3.042574120   0   0   0 # sty
   5642      1   3  2.100000    42.915301332    52.219333333     3.206021859   0   0   0 # sty
   5643      1   3  2.100000    32.009360448    50.418666667    26.511294497   0   0   0 # sty
   5644      1   2 -1.050000    43.401925655    49.247330000     5.888978581   0   0   0 # oby
   5645      1   2 -1.050000    43.909548768    52.848663333     7.739662378   0   0   0 # oby
   5646      1   2 -1.050000    45.258476394    51.047996667     6.374705968   0   0   0 # oby
   5647      1   2 -1.050000    41.454550818    53.390670000     7.013295968   0   0   0 # oby
   5648      1   2 -1.050000    42.803478443    49.789336667     8.378252378   0   0   0 # oby
   5649      1   2 -1.050000    40.946927704    51.590003333     8.863979764   0   0   0 # oby
   5650      1   3  2.100000    42.915301332    48.618000000     7.294755303   0   0   0 # sty
   5651      1   3  2.100000    40.460303382    52.219333333     7.458203042   0   0   0 # sty
   5652      1   3  2.100000    44.284350202    50.418666667     5.250388581   0   0   0 # sty
   5653      1   2 -1.050000    40.946927704    49.247330000    10.141159764   0   0   0 # oby
   5654      1   2 -1.050000    41.454550818    52.848663333    11.991843561   0   0   0 # oby
   5655      1   2 -1.050000    42.803478443    51.047996667    10.626887151   0   0   0 # oby
   5656      1   2 -1.050000    38.999552867    53.390670000    11.265477151   0   0   0 # oby
   5657      1   2 -1.050000    40.348480493    49.789336667    12.630433561   0   0   0 # oby
   5658      1   2 -1.050000    38.491929754    51.590003333    13.116160948   0   0   0 # oby
   5659      1   3  2.100000    40.460303382    48.618000000    11.546936487   0   0   0 # sty
   5660      1   3  2.100000    38.005305431    52.219333333    11.710384225   0   0   0 # sty
   5661      1   3  2.100000    41.829352251    50.418666667     9.502569764   0   0   0 # sty
   5662      1   2 -1.050000    38.491929754    49.247330000    14.393340948   0   0   0 # oby
   5663      1   2 -1.050000    38.999552867    52.848663333    16.244024744   0   0   0 # oby
   5664      1   2 -1.050000    40.348480493    51.047996667    14.879068334   0   0   0 # oby
   5665      1   2 -1.050000    36.544554916    53.390670000    15.517658334   0   0   0 # oby
   5666      1   2 -1.050000    37.893482542    49.789336667    16.882614744   0   0   0 # oby
   5667      1   2 -1.050000    36.036931803    51.590003333    17.368342131   0   0   0 # oby
   5668      1   3  2.100000    38.005305431    48.618000000    15.799117670   0   0   0 # sty
   5669      1   3  2.100000    35.550307480    52.219333333    15.962565409   0   0   0 # sty
   5670      1   3  2.100000    39.374354300    50.418666667    13.754750948   0   0   0 # sty
   5671      1   2 -1.050000    36.036931803    49.247330000    18.645522131   0   0   0 # oby
   5672      1   2 -1.050000    36.544554916    52.848663333    20.496205927   0   0   0 # oby
   5673      1   2 -1.050000    37.893482542    51.047996667    19.131249517   0   0   0 # oby
   5674      1   2 -1.050000    34.089556966    53.390670000    19.769839517   0   0   0 # oby
   5675      1   2 -1.050000    35.438484591    49.789336667    21.134795927   0   0   0 # oby
   5676      1   2 -1.050000    33.581933852    51.590003333    21.620523314   0   0   0 # oby
   5677      1   3  2.100000    35.550307480    48.618000000    20.051298853   0   0   0 # sty
   5678      1   3  2.100000    33.095309530    52.219333333    20.214746592   0   0   0 # sty
   5679      1   3  2.100000    36.919356350    50.418666667    18.006932131   0   0   0 # sty
   5680      1   2 -1.050000    33.581933852    49.247330000    22.897703314   0   0   0 # oby
   5681      1   2 -1.050000    34.089556966    52.848663333    24.748387110   0   0   0 # oby
   5682      1   2 -1.050000    35.438484591    51.047996667    23.383430700   0   0   0 # oby
   5683      1   2 -1.050000    31.634559015    53.390670000    24.022020700   0   0   0 # oby
   5684      1   2 -1.050000    32.983486640    49.789336667    25.386977110   0   0   0 # oby
   5685      1   2 -1.050000    31.126935901    51.590003333    25.872704497   0   0   0 # oby
   5686      1   3  2.100000    33.095309530    48.618000000    24.303480036   0   0   0 # sty
   5687      1   3  2.100000    30.640311579    52.219333333    24.466927775   0   0   0 # sty
   5688      1   3  2.100000    34.464358399    50.418666667    22.259113314   0   0   0 # sty
   5689      1   1 -0.950000    26.216940000    49.247330000     1.636797398   0   0   0 # ohy
   5690      1   2 -1.050000    26.724563113    52.848663333     3.487481195   0   0   0 # oby
   5691      1   1 -0.950000    28.073490739    51.047996667     2.122524785   0   0   0 # ohy
   5692      1   2 -1.050000    48.819544670    53.390670000     2.761114785   0   0   0 # oby
   5693      1   2 -1.050000    25.618492788    49.789336667     4.126071195   0   0   0 # oby
   5694      1   2 -1.050000    48.311921557    51.590003333     4.611798581   0   0   0 # oby
   5695      1   3  2.100000    25.730315677    48.618000000     3.042574120   0   0   0 # sty
   5696      1   3  2.100000    47.825297234    52.219333333     3.206021859   0   0   0 # sty
   5697      1   3  2.100000    36.919356350    50.418666667    26.511294497   0   0   0 # sty
   5698      1   2 -1.050000    48.311921557    49.247330000     5.888978581   0   0   0 # oby
   5699      1   2 -1.050000    48.819544670    52.848663333     7.739662378   0   0   0 # oby
   5700      1   2 -1.050000    25.618492788    51.047996667     6.374705968   0   0   0 # oby
   5701      1   2 -1.050000    46.364546719    53.390670000     7.013295968   0   0   0 # oby
   5702      1   2 -1.050000    47.713474345    49.789336667     8.378252378   0   0   0 # oby
   5703      1   2 -1.050000    45.856923606    51.590003333     8.863979764   0   0   0 # oby
   5704      1   3  2.100000    47.825297234    48.618000000     7.294755303   0   0   0 # sty
   5705      1   3  2.100000    45.370299283    52.219333333     7.458203042   0   0   0 # sty
   5706      1   3  2.100000    24.644366596    50.418666667     5.250388581   0   0   0 # sty
   5707      1   2 -1.050000    45.856923606    49.247330000    10.141159764   0   0   0 # oby
   5708      1   2 -1.050000    46.364546719    52.848663333    11.991843561   0   0   0 # oby
   5709      1   2 -1.050000    47.713474345    51.047996667    10.626887151   0   0   0 # oby
   5710      1   2 -1.050000    43.909548768    53.390670000    11.265477151   0   0   0 # oby
   5711      1   2 -1.050000    45.258476394    49.789336667    12.630433561   0   0   0 # oby
   5712      1   2 -1.050000    43.401925655    51.590003333    13.116160948   0   0   0 # oby
   5713      1   3  2.100000    45.370299283    48.618000000    11.546936487   0   0   0 # sty
   5714      1   3  2.100000    42.915301332    52.219333333    11.710384225   0   0   0 # sty
   5715      1   3  2.100000    46.739348153    50.418666667     9.502569764   0   0   0 # sty
   5716      1   2 -1.050000    43.401925655    49.247330000    14.393340948   0   0   0 # oby
   5717      1   2 -1.050000    43.909548768    52.848663333    16.244024744   0   0   0 # oby
   5718      1   2 -1.050000    45.258476394    51.047996667    14.879068334   0   0   0 # oby
   5719      1   2 -1.050000    41.454550818    53.390670000    15.517658334   0   0   0 # oby
   5720      1   2 -1.050000    42.803478443    49.789336667    16.882614744   0   0   0 # oby
   5721      1   2 -1.050000    40.946927704    51.590003333    17.368342131   0   0   0 # oby
   5722      1   3  2.100000    42.915301332    48.618000000    15.799117670   0   0   0 # sty
   5723      1   3  2.100000    40.460303382    52.219333333    15.962565409   0   0   0 # sty
   5724      1   3  2.100000    44.284350202    50.418666667    13.754750948   0   0   0 # sty
   5725      1   2 -1.050000    40.946927704    49.247330000    18.645522131   0   0   0 # oby
   5726      1   2 -1.050000    41.454550818    52.848663333    20.496205927   0   0   0 # oby
   5727      1   2 -1.050000    42.803478443    51.047996667    19.131249517   0   0   0 # oby
   5728      1   2 -1.050000    38.999552867    53.390670000    19.769839517   0   0   0 # oby
   5729      1   2 -1.050000    40.348480493    49.789336667    21.134795927   0   0   0 # oby
   5730      1   2 -1.050000    38.491929754    51.590003333    21.620523314   0   0   0 # oby
   5731      1   3  2.100000    40.460303382    48.618000000    20.051298853   0   0   0 # sty
   5732      1   3  2.100000    38.005305431    52.219333333    20.214746592   0   0   0 # sty
   5733      1   3  2.100000    41.829352251    50.418666667    18.006932131   0   0   0 # sty
   5734      1   2 -1.050000    38.491929754    49.247330000    22.897703314   0   0   0 # oby
   5735      1   2 -1.050000    38.999552867    52.848663333    24.748387110   0   0   0 # oby
   5736      1   2 -1.050000    40.348480493    51.047996667    23.383430700   0   0   0 # oby
   5737      1   2 -1.050000    36.544554916    53.390670000    24.022020700   0   0   0 # oby
   5738      1   2 -1.050000    37.893482542    49.789336667    25.386977110   0   0   0 # oby
   5739      1   2 -1.050000    36.036931803    51.590003333    25.872704497   0   0   0 # oby
   5740      1   3  2.100000    38.005305431    48.618000000    24.303480036   0   0   0 # sty
   5741      1   3  2.100000    35.550307480    52.219333333    24.466927775   0   0   0 # sty
   5742      1   3  2.100000    39.374354300    50.418666667    22.259113314   0   0   0 # sty
   5743      1   1 -0.950000    31.126935901    49.247330000     1.636797398   0   0   0 # ohy
   5744      1   2 -1.050000    31.634559015    52.848663333     3.487481195   0   0   0 # oby
   5745      1   1 -0.950000    32.983486640    51.047996667     2.122524785   0   0   0 # ohy
   5746      1   2 -1.050000    29.179561064    53.390670000     2.761114785   0   0   0 # oby
   5747      1   2 -1.050000    30.528488690    49.789336667     4.126071195   0   0   0 # oby
   5748      1   2 -1.050000    28.671937951    51.590003333     4.611798581   0   0   0 # oby
   5749      1   3  2.100000    30.640311579    48.618000000     3.042574120   0   0   0 # sty
   5750      1   3  2.100000    28.185313628    52.219333333     3.206021859   0   0   0 # sty
   5751      1   3  2.100000    41.829352251    50.418666667    26.511294497   0   0   0 # sty
   5752      1   2 -1.050000    28.671937951    49.247330000     5.888978581   0   0   0 # oby
   5753      1   2 -1.050000    29.179561064    52.848663333     7.739662378   0   0   0 # oby
   5754      1   2 -1.050000    30.528488690    51.047996667     6.374705968   0   0   0 # oby
   5755      1   2 -1.050000    26.724563113    53.390670000     7.013295968   0   0   0 # oby
   5756      1   2 -1.050000    28.073490739    49.789336667     8.378252378   0   0   0 # oby
   5757      1   2 -1.050000    26.216940000    51.590003333     8.863979764   0   0   0 # oby
   5758      1   3  2.100000    28.185313628    48.618000000     7.294755303   0   0   0 # sty
   5759      1   3  2.100000    25.730315677    52.219333333     7.458203042   0   0   0 # sty
   5760      1   3  2.100000    29.554362497    50.418666667     5.250388581   0   0   0 # sty
   5761      1   2 -1.050000    26.216940000    49.247330000    10.141159764   0   0   0 # oby
   5762      1   2 -1.050000    26.724563113    52.848663333    11.991843561   0   0   0 # oby
   5763      1   2 -1.050000    28.073490739    51.047996667    10.626887151   0   0   0 # oby
   5764      1   2 -1.050000    48.819544670    53.390670000    11.265477151   0   0   0 # oby
   5765      1   2 -1.050000    25.618492788    49.789336667    12.630433561   0   0   0 # oby
   5766      1   2 -1.050000    48.311921557    51.590003333    13.116160948   0   0   0 # oby
   5767      1   3  2.100000    25.730315677    48.618000000    11.546936487   0   0   0 # sty
   5768      1   3  2.100000    47.825297234    52.219333333    11.710384225   0   0   0 # sty
   5769      1   3  2.100000    27.099364547    50.418666667     9.502569764   0   0   0 # sty
   5770      1   2 -1.050000    48.311921557    49.247330000    14.393340948   0   0   0 # oby
   5771      1   2 -1.050000    48.819544670    52.848663333    16.244024744   0   0   0 # oby
   5772      1   2 -1.050000    25.618492788    51.047996667    14.879068334   0   0   0 # oby
   5773      1   2 -1.050000    46.364546719    53.390670000    15.517658334   0   0   0 # oby
   5774      1   2 -1.050000    47.713474345    49.789336667    16.882614744   0   0   0 # oby
   5775      1   2 -1.050000    45.856923606    51.590003333    17.368342131   0   0   0 # oby
   5776      1   3  2.100000    47.825297234    48.618000000    15.799117670   0   0   0 # sty
   5777      1   3  2.100000    45.370299283    52.219333333    15.962565409   0   0   0 # sty
   5778      1   3  2.100000    24.644366596    50.418666667    13.754750948   0   0   0 # sty
   5779      1   2 -1.050000    45.856923606    49.247330000    18.645522131   0   0   0 # oby
   5780      1   2 -1.050000    46.364546719    52.848663333    20.496205927   0   0   0 # oby
   5781      1   2 -1.050000    47.713474345    51.047996667    19.131249517   0   0   0 # oby
   5782      1   2 -1.050000    43.909548768    53.390670000    19.769839517   0   0   0 # oby
   5783      1   2 -1.050000    45.258476394    49.789336667    21.134795927   0   0   0 # oby
   5784      1   2 -1.050000    43.401925655    51.590003333    21.620523314   0   0   0 # oby
   5785      1   3  2.100000    45.370299283    48.618000000    20.051298853   0   0   0 # sty
   5786      1   3  2.100000    42.915301332    52.219333333    20.214746592   0   0   0 # sty
   5787      1   3  2.100000    46.739348153    50.418666667    18.006932131   0   0   0 # sty
   5788      1   2 -1.050000    43.401925655    49.247330000    22.897703314   0   0   0 # oby
   5789      1   2 -1.050000    43.909548768    52.848663333    24.748387110   0   0   0 # oby
   5790      1   2 -1.050000    45.258476394    51.047996667    23.383430700   0   0   0 # oby
   5791      1   2 -1.050000    41.454550818    53.390670000    24.022020700   0   0   0 # oby
   5792      1   2 -1.050000    42.803478443    49.789336667    25.386977110   0   0   0 # oby
   5793      1   2 -1.050000    40.946927704    51.590003333    25.872704497   0   0   0 # oby
   5794      1   3  2.100000    42.915301332    48.618000000    24.303480036   0   0   0 # sty
   5795      1   3  2.100000    40.460303382    52.219333333    24.466927775   0   0   0 # sty
   5796      1   3  2.100000    44.284350202    50.418666667    22.259113314   0   0   0 # sty
   5797      1   1 -0.950000    36.036931803    49.247330000     1.636797398   0   0   0 # ohy
   5798      1   2 -1.050000    36.544554916    52.848663333     3.487481195   0   0   0 # oby
   5799      1   1 -0.950000    37.893482542    51.047996667     2.122524785   0   0   0 # ohy
   5800      1   2 -1.050000    34.089556966    53.390670000     2.761114785   0   0   0 # oby
   5801      1   2 -1.050000    35.438484591    49.789336667     4.126071195   0   0   0 # oby
   5802      1   2 -1.050000    33.581933852    51.590003333     4.611798581   0   0   0 # oby
   5803      1   3  2.100000    35.550307480    48.618000000     3.042574120   0   0   0 # sty
   5804      1   3  2.100000    33.095309530    52.219333333     3.206021859   0   0   0 # sty
   5805      1   3  2.100000    46.739348153    50.418666667    26.511294497   0   0   0 # sty
   5806      1   2 -1.050000    33.581933852    49.247330000     5.888978581   0   0   0 # oby
   5807      1   2 -1.050000    34.089556966    52.848663333     7.739662378   0   0   0 # oby
   5808      1   2 -1.050000    35.438484591    51.047996667     6.374705968   0   0   0 # oby
   5809      1   2 -1.050000    31.634559015    53.390670000     7.013295968   0   0   0 # oby
   5810      1   2 -1.050000    32.983486640    49.789336667     8.378252378   0   0   0 # oby
   5811      1   2 -1.050000    31.126935901    51.590003333     8.863979764   0   0   0 # oby
   5812      1   3  2.100000    33.095309530    48.618000000     7.294755303   0   0   0 # sty
   5813      1   3  2.100000    30.640311579    52.219333333     7.458203042   0   0   0 # sty
   5814      1   3  2.100000    34.464358399    50.418666667     5.250388581   0   0   0 # sty
   5815      1   2 -1.050000    31.126935901    49.247330000    10.141159764   0   0   0 # oby
   5816      1   2 -1.050000    31.634559015    52.848663333    11.991843561   0   0   0 # oby
   5817      1   2 -1.050000    32.983486640    51.047996667    10.626887151   0   0   0 # oby
   5818      1   2 -1.050000    29.179561064    53.390670000    11.265477151   0   0   0 # oby
   5819      1   2 -1.050000    30.528488690    49.789336667    12.630433561   0   0   0 # oby
   5820      1   2 -1.050000    28.671937951    51.590003333    13.116160948   0   0   0 # oby
   5821      1   3  2.100000    30.640311579    48.618000000    11.546936487   0   0   0 # sty
   5822      1   3  2.100000    28.185313628    52.219333333    11.710384225   0   0   0 # sty
   5823      1   3  2.100000    32.009360448    50.418666667     9.502569764   0   0   0 # sty
   5824      1   2 -1.050000    28.671937951    49.247330000    14.393340948   0   0   0 # oby
   5825      1   2 -1.050000    29.179561064    52.848663333    16.244024744   0   0   0 # oby
   5826      1   2 -1.050000    30.528488690    51.047996667    14.879068334   0   0   0 # oby
   5827      1   2 -1.050000    26.724563113    53.390670000    15.517658334   0   0   0 # oby
   5828      1   2 -1.050000    28.073490739    49.789336667    16.882614744   0   0   0 # oby
   5829      1   2 -1.050000    26.216940000    51.590003333    17.368342131   0   0   0 # oby
   5830      1   3  2.100000    28.185313628    48.618000000    15.799117670   0   0   0 # sty
   5831      1   3  2.100000    25.730315677    52.219333333    15.962565409   0   0   0 # sty
   5832      1   3  2.100000    29.554362497    50.418666667    13.754750948   0   0   0 # sty
   5833      1   2 -1.050000    26.216940000    49.247330000    18.645522131   0   0   0 # oby
   5834      1   2 -1.050000    26.724563113    52.848663333    20.496205927   0   0   0 # oby
   5835      1   2 -1.050000    28.073490739    51.047996667    19.131249517   0   0   0 # oby
   5836      1   2 -1.050000    48.819544670    53.390670000    19.769839517   0   0   0 # oby
   5837      1   2 -1.050000    25.618492788    49.789336667    21.134795927   0   0   0 # oby
   5838      1   2 -1.050000    48.311921557    51.590003333    21.620523314   0   0   0 # oby
   5839      1   3  2.100000    25.730315677    48.618000000    20.051298853   0   0   0 # sty
   5840      1   3  2.100000    47.825297234    52.219333333    20.214746592   0   0   0 # sty
   5841      1   3  2.100000    27.099364547    50.418666667    18.006932131   0   0   0 # sty
   5842      1   2 -1.050000    48.311921557    49.247330000    22.897703314   0   0   0 # oby
   5843      1   2 -1.050000    48.819544670    52.848663333    24.748387110   0   0   0 # oby
   5844      1   2 -1.050000    25.618492788    51.047996667    23.383430700   0   0   0 # oby
   5845      1   2 -1.050000    46.364546719    53.390670000    24.022020700   0   0   0 # oby
   5846      1   2 -1.050000    47.713474345    49.789336667    25.386977110   0   0   0 # oby
   5847      1   2 -1.050000    45.856923606    51.590003333    25.872704497   0   0   0 # oby
   5848      1   3  2.100000    47.825297234    48.618000000    24.303480036   0   0   0 # sty
   5849      1   3  2.100000    45.370299283    52.219333333    24.466927775   0   0   0 # sty
   5850      1   3  2.100000    24.644366596    50.418666667    22.259113314   0   0   0 # sty
   5851      1   4  0.425000    41.703685742    28.428776904     1.827036406   0   0   0 # hoy
   5852      1   4  0.425000    43.344956671    29.736390762     1.200000048   0   0   0 # hoy
   5853      1   4  0.425000    46.613681643    28.428776904     1.827036406   0   0   0 # hoy
   5854      1   4  0.425000    48.254952573    29.736390762     1.200000048   0   0   0 # hoy
   5855      1   4  0.425000    26.973698037    28.428776904     1.827036406   0   0   0 # hoy
   5856      1   4  0.425000    28.614968967    29.736390762     1.200000048   0   0   0 # hoy
   5857      1   4  0.425000    31.883693939    28.428776904     1.827036406   0   0   0 # hoy
   5858      1   4  0.425000    33.524964868    29.736390762     1.200000048   0   0   0 # hoy
   5859      1   4  0.425000    36.793689840    28.428776904     1.827036406   0   0   0 # hoy
   5860      1   4  0.425000    38.434960770    29.736390762     1.200000048   0   0   0 # hoy
   5861      1   4  0.425000    41.703685742    33.830776904     1.827036406   0   0   0 # hoy
   5862      1   4  0.425000    43.344956671    35.138390762     1.200000048   0   0   0 # hoy
   5863      1   4  0.425000    46.613681643    33.830776904     1.827036406   0   0   0 # hoy
   5864      1   4  0.425000    48.254952573    35.138390762     1.200000048   0   0   0 # hoy
   5865      1   4  0.425000    26.973698037    33.830776904     1.827036406   0   0   0 # hoy
   5866      1   4  0.425000    28.614968967    35.138390762     1.200000048   0   0   0 # hoy
   5867      1   4  0.425000    31.883693939    33.830776904     1.827036406   0   0   0 # hoy
   5868      1   4  0.425000    33.524964868    35.138390762     1.200000048   0   0   0 # hoy
   5869      1   4  0.425000    36.793689840    33.830776904     1.827036406   0   0   0 # hoy
   5870      1   4  0.425000    38.434960770    35.138390762     1.200000048   0   0   0 # hoy
   5871      1   4  0.425000    41.703685742    39.232776904     1.827036406   0   0   0 # hoy
   5872      1   4  0.425000    43.344956671    40.540390762     1.200000048   0   0   0 # hoy
   5873      1   4  0.425000    46.613681643    39.232776904     1.827036406   0   0   0 # hoy
   5874      1   4  0.425000    48.254952573    40.540390762     1.200000048   0   0   0 # hoy
   5875      1   4  0.425000    26.973698037    39.232776904     1.827036406   0   0   0 # hoy
   5876      1   4  0.425000    28.614968967    40.540390762     1.200000048   0   0   0 # hoy
   5877      1   4  0.425000    31.883693939    39.232776904     1.827036406   0   0   0 # hoy
   5878      1   4  0.425000    33.524964868    40.540390762     1.200000048   0   0   0 # hoy
   5879      1   4  0.425000    36.793689840    39.232776904     1.827036406   0   0   0 # hoy
   5880      1   4  0.425000    38.434960770    40.540390762     1.200000048   0   0   0 # hoy
   5881      1   4  0.425000    41.703685742    44.634776904     1.827036406   0   0   0 # hoy
   5882      1   4  0.425000    43.344956671    45.942390762     1.200000048   0   0   0 # hoy
   5883      1   4  0.425000    46.613681643    44.634776904     1.827036406   0   0   0 # hoy
   5884      1   4  0.425000    48.254952573    45.942390762     1.200000048   0   0   0 # hoy
   5885      1   4  0.425000    26.973698037    44.634776904     1.827036406   0   0   0 # hoy
   5886      1   4  0.425000    28.614968967    45.942390762     1.200000048   0   0   0 # hoy
   5887      1   4  0.425000    31.883693939    44.634776904     1.827036406   0   0   0 # hoy
   5888      1   4  0.425000    33.524964868    45.942390762     1.200000048   0   0   0 # hoy
   5889      1   4  0.425000    36.793689840    44.634776904     1.827036406   0   0   0 # hoy
   5890      1   4  0.425000    38.434960770    45.942390762     1.200000048   0   0   0 # hoy
   5891      1   4  0.425000    41.703685742    50.036776904     1.827036406   0   0   0 # hoy
   5892      1   4  0.425000    43.344956671    51.344390762     1.200000048   0   0   0 # hoy
   5893      1   4  0.425000    46.613681643    50.036776904     1.827036406   0   0   0 # hoy
   5894      1   4  0.425000    48.254952573    51.344390762     1.200000048   0   0   0 # hoy
   5895      1   4  0.425000    26.973698037    50.036776904     1.827036406   0   0   0 # hoy
   5896      1   4  0.425000    28.614968967    51.344390762     1.200000048   0   0   0 # hoy
   5897      1   4  0.425000    31.883693939    50.036776904     1.827036406   0   0   0 # hoy
   5898      1   4  0.425000    33.524964868    51.344390762     1.200000048   0   0   0 # hoy
   5899      1   4  0.425000    36.793689840    50.036776904     1.827036406   0   0   0 # hoy
   5900      1   4  0.425000    38.434960770    51.344390762     1.200000048   0   0   0 # hoy
   5901      1   1 -0.950000    27.948307639    29.379672611    27.663304796   0   0   0 # ohy
   5902      1   1 -0.950000    26.167769391    27.712248870    27.056462984   0   0   0 # ohy
   5903      1   1 -0.950000    32.858303540    29.379672611    27.663304796   0   0   0 # ohy
   5904      1   1 -0.950000    31.077765293    27.712248870    27.056462984   0   0   0 # ohy
   5905      1   1 -0.950000    37.768299442    29.379672611    27.663304796   0   0   0 # ohy
   5906      1   1 -0.950000    35.987761194    27.712248870    27.056462984   0   0   0 # ohy
   5907      1   1 -0.950000    42.678295343    29.379672611    27.663304796   0   0   0 # ohy
   5908      1   1 -0.950000    40.897757096    27.712248870    27.056462984   0   0   0 # ohy
   5909      1   1 -0.950000    47.588291245    29.379672611    27.663304796   0   0   0 # ohy
   5910      1   1 -0.950000    45.807752997    27.712248870    27.056462984   0   0   0 # ohy
   5911      1   1 -0.950000    27.948307639    34.781672611    27.663304796   0   0   0 # ohy
   5912      1   1 -0.950000    26.167769391    33.114248870    27.056462984   0   0   0 # ohy
   5913      1   1 -0.950000    32.858303540    34.781672611    27.663304796   0   0   0 # ohy
   5914      1   1 -0.950000    31.077765293    33.114248870    27.056462984   0   0   0 # ohy
   5915      1   1 -0.950000    37.768299442    34.781672611    27.663304796   0   0   0 # ohy
   5916      1   1 -0.950000    35.987761194    33.114248870    27.056462984   0   0   0 # ohy
   5917      1   1 -0.950000    42.678295343    34.781672611    27.663304796   0   0   0 # ohy
   5918      1   1 -0.950000    40.897757096    33.114248870    27.056462984   0   0   0 # ohy
   5919      1   1 -0.950000    47.588291245    34.781672611    27.663304796   0   0   0 # ohy
   5920      1   1 -0.950000    45.807752997    33.114248870    27.056462984   0   0   0 # ohy
   5921      1   1 -0.950000    27.948307639    40.183672611    27.663304796   0   0   0 # ohy
   5922      1   1 -0.950000    26.167769391    38.516248870    27.056462984   0   0   0 # ohy
   5923      1   1 -0.950000    32.858303540    40.183672611    27.663304796   0   0   0 # ohy
   5924      1   1 -0.950000    31.077765293    38.516248870    27.056462984   0   0   0 # ohy
   5925      1   1 -0.950000    37.768299442    40.183672611    27.663304796   0   0   0 # ohy
   5926      1   1 -0.950000    35.987761194    38.516248870    27.056462984   0   0   0 # ohy
   5927      1   1 -0.950000    42.678295343    40.183672611    27.663304796   0   0   0 # ohy
   5928      1   1 -0.950000    40.897757096    38.516248870    27.056462984   0   0   0 # ohy
   5929      1   1 -0.950000    47.588291245    40.183672611    27.663304796   0   0   0 # ohy
   5930      1   1 -0.950000    45.807752997    38.516248870    27.056462984   0   0   0 # ohy
   5931      1   1 -0.950000    27.948307639    45.585672611    27.663304796   0   0   0 # ohy
   5932      1   1 -0.950000    26.167769391    43.918248870    27.056462984   0   0   0 # ohy
   5933      1   1 -0.950000    32.858303540    45.585672611    27.663304796   0   0   0 # ohy
   5934      1   1 -0.950000    31.077765293    43.918248870    27.056462984   0   0   0 # ohy
   5935      1   1 -0.950000    37.768299442    45.585672611    27.663304796   0   0   0 # ohy
   5936      1   1 -0.950000    35.987761194    43.918248870    27.056462984   0   0   0 # ohy
   5937      1   1 -0.950000    42.678295343    45.585672611    27.663304796   0   0   0 # ohy
   5938      1   1 -0.950000    40.897757096    43.918248870    27.056462984   0   0   0 # ohy
   5939      1   1 -0.950000    47.588291245    45.585672611    27.663304796   0   0   0 # ohy
   5940      1   1 -0.950000    45.807752997    43.918248870    27.056462984   0   0   0 # ohy
   5941      1   1 -0.950000    27.948307639    50.987672611    27.663304796   0   0   0 # ohy
   5942      1   1 -0.950000    26.167769391    49.320248870    27.056462984   0   0   0 # ohy
   5943      1   1 -0.950000    32.858303540    50.987672611    27.663304796   0   0   0 # ohy
   5944      1   1 -0.950000    31.077765293    49.320248870    27.056462984   0   0   0 # ohy
   5945      1   1 -0.950000    37.768299442    50.987672611    27.663304796   0   0   0 # ohy
   5946      1   1 -0.950000    35.987761194    49.320248870    27.056462984   0   0   0 # ohy
   5947      1   1 -0.950000    42.678295343    50.987672611    27.663304796   0   0   0 # ohy
   5948      1   1 -0.950000    40.897757096    49.320248870    27.056462984   0   0   0 # ohy
   5949      1   1 -0.950000    47.588291245    50.987672611    27.663304796   0   0   0 # ohy
   5950      1   1 -0.950000    45.807752997    49.320248870    27.056462984   0   0   0 # ohy
   5951      1   4  0.425000    28.710468072    30.074575484    27.253034774   0   0   0 # hoy
   5952      1   4  0.425000    26.206680832    27.711079586    28.165780141   0   0   0 # hoy
   5953      1   4  0.425000    33.620463974    30.074575484    27.253034774   0   0   0 # hoy
   5954      1   4  0.425000    31.116676734    27.711079586    28.165780141   0   0   0 # hoy
   5955      1   4  0.425000    38.530459875    30.074575484    27.253034774   0   0   0 # hoy
   5956      1   4  0.425000    36.026672635    27.711079586    28.165780141   0   0   0 # hoy
   5957      1   4  0.425000    43.440455777    30.074575484    27.253034774   0   0   0 # hoy
   5958      1   4  0.425000    40.936668537    27.711079586    28.165780141   0   0   0 # hoy
   5959      1   4  0.425000    48.350451678    30.074575484    27.253034774   0   0   0 # hoy
   5960      1   4  0.425000    45.846664438    27.711079586    28.165780141   0   0   0 # hoy
   5961      1   4  0.425000    28.710468072    35.476575484    27.253034774   0   0   0 # hoy
   5962      1   4  0.425000    26.206680832    33.113079586    28.165780141   0   0   0 # hoy
   5963      1   4  0.425000    33.620463974    35.476575484    27.253034774   0   0   0 # hoy
   5964      1   4  0.425000    31.116676734    33.113079586    28.165780141   0   0   0 # hoy
   5965      1   4  0.425000    38.530459875    35.476575484    27.253034774   0   0   0 # hoy
   5966      1   4  0.425000    36.026672635    33.113079586    28.165780141   0   0   0 # hoy
   5967      1   4  0.425000    43.440455777    35.476575484    27.253034774   0   0   0 # hoy
   5968      1   4  0.425000    40.936668537    33.113079586    28.165780141   0   0   0 # hoy
   5969      1   4  0.425000    48.350451678    35.476575484    27.253034774   0   0   0 # hoy
   5970      1   4  0.425000    45.846664438    33.113079586    28.165780141   0   0   0 # hoy
   5971      1   4  0.425000    28.710468072    40.878575484    27.253034774   0   0   0 # hoy
   5972      1   4  0.425000    26.206680832    38.515079586    28.165780141   0   0   0 # hoy
   5973      1   4  0.425000    33.620463974    40.878575484    27.253034774   0   0   0 # hoy
   5974      1   4  0.425000    31.116676734    38.515079586    28.165780141   0   0   0 # hoy
   5975      1   4  0.425000    38.530459875    40.878575484    27.253034774   0   0   0 # hoy
   5976      1   4  0.425000    36.026672635    38.515079586    28.165780141   0   0   0 # hoy
   5977      1   4  0.425000    43.440455777    40.878575484    27.253034774   0   0   0 # hoy
   5978      1   4  0.425000    40.936668537    38.515079586    28.165780141   0   0   0 # hoy
   5979      1   4  0.425000    48.350451678    40.878575484    27.253034774   0   0   0 # hoy
   5980      1   4  0.425000    45.846664438    38.515079586    28.165780141   0   0   0 # hoy
   5981      1   4  0.425000    28.710468072    46.280575484    27.253034774   0   0   0 # hoy
   5982      1   4  0.425000    26.206680832    43.917079586    28.165780141   0   0   0 # hoy
   5983      1   4  0.425000    33.620463974    46.280575484    27.253034774   0   0   0 # hoy
   5984      1   4  0.425000    31.116676734    43.917079586    28.165780141   0   0   0 # hoy
   5985      1   4  0.425000    38.530459875    46.280575484    27.253034774   0   0   0 # hoy
   5986      1   4  0.425000    36.026672635    43.917079586    28.165780141   0   0   0 # hoy
   5987      1   4  0.425000    43.440455777    46.280575484    27.253034774   0   0   0 # hoy
   5988      1   4  0.425000    40.936668537    43.917079586    28.165780141   0   0   0 # hoy
   5989      1   4  0.425000    48.350451678    46.280575484    27.253034774   0   0   0 # hoy
   5990      1   4  0.425000    45.846664438    43.917079586    28.165780141   0   0   0 # hoy
   5991      1   4  0.425000    28.710468072    51.682575484    27.253034774   0   0   0 # hoy
   5992      1   4  0.425000    26.206680832    49.319079586    28.165780141   0   0   0 # hoy
   5993      1   4  0.425000    33.620463974    51.682575484    27.253034774   0   0   0 # hoy
   5994      1   4  0.425000    31.116676734    49.319079586    28.165780141   0   0   0 # hoy
   5995      1   4  0.425000    38.530459875    51.682575484    27.253034774   0   0   0 # hoy
   5996      1   4  0.425000    36.026672635    49.319079586    28.165780141   0   0   0 # hoy
   5997      1   4  0.425000    43.440455777    51.682575484    27.253034774   0   0   0 # hoy
   5998      1   4  0.425000    40.936668537    49.319079586    28.165780141   0   0   0 # hoy
   5999      1   4  0.425000    48.350451678    51.682575484    27.253034774   0   0   0 # hoy
   6000      1   4  0.425000    45.846664438    49.319079586    28.165780141   0   0   0 # hoy

Bonds

     1   1      1   1351
     2   1      3   1352
     3   1     55   1353
     4   1     57   1354
     5   1    109   1355
     6   1    111   1356
     7   1    163   1357
     8   1    165   1358
     9   1    217   1359
    10   1    219   1360
    11   1    271   1361
    12   1    273   1362
    13   1    325   1363
    14   1    327   1364
    15   1    379   1365
    16   1    381   1366
    17   1    433   1367
    18   1    435   1368
    19   1    487   1369
    20   1    489   1370
    21   1    541   1371
    22   1    543   1372
    23   1    595   1373
    24   1    597   1374
    25   1    649   1375
    26   1    651   1376
    27   1    703   1377
    28   1    705   1378
    29   1    757   1379
    30   1    759   1380
    31   1    811   1381
    32   1    813   1382
    33   1    865   1383
    34   1    867   1384
    35   1    919   1385
    36   1    921   1386
    37   1    973   1387
    38   1    975   1388
    39   1   1027   1389
    40   1   1029   1390
    41   1   1081   1391
    42   1   1083   1392
    43   1   1135   1393
    44   1   1137   1394
    45   1   1189   1395
    46   1   1191   1396
    47   1   1243   1397
    48   1   1245   1398
    49   1   1297   1399
    50   1   1299   1400
    51   1   1401   1451
    52   1   1402   1452
    53   1   1403   1453
    54   1   1404   1454
    55   1   1405   1455
    56   1   1406   1456
    57   1   1407   1457
    58   1   1408   1458
    59   1   1409   1459
    60   1   1410   1460
    61   1   1411   1461
    62   1   1412   1462
    63   1   1413   1463
    64   1   1414   1464
    65   1   1415   1465
    66   1   1416   1466
    67   1   1417   1467
    68   1   1418   1468
    69   1   1419   1469
    70   1   1420   1470
    71   1   1421   1471
    72   1   1422   1472
    73   1   1423   1473
    74   1   1424   1474
    75   1   1425   1475
    76   1   1426   1476
    77   1   1427   1477
    78   1   1428   1478
    79   1   1429   1479
    80   1   1430   1480
    81   1   1431   1481
    82   1   1432   1482
    83   1   1433   1483
    84   1   1434   1484
    85   1   1435   1485
    86   1   1436   1486
    87   1   1437   1487
    88   1   1438   1488
    89   1   1439   1489
    90   1   1440   1490
    91   1   1441   1491
    92   1   1442   1492
    93   1   1443   1493
    94   1   1444   1494
    95   1   1445   1495
    96   1   1446   1496
    97   1   1447   1497
    98   1   1448   1498
    99   1   1449   1499
   100   1   1450   1500
   101   1   1501   2851
   102   1   1503   2852
   103   1   1555   2853
   104   1   1557   2854
   105   1   1609   2855
   106   1   1611   2856
   107   1   1663   2857
   108   1   1665   2858
   109   1   1717   2859
   110   1   1719   2860
   111   1   1771   2861
   112   1   1773   2862
   113   1   1825   2863
   114   1   1827   2864
   115   1   1879   2865
   116   1   1881   2866
   117   1   1933   2867
   118   1   1935   2868
   119   1   1987   2869
   120   1   1989   2870
   121   1   2041   2871
   122   1   2043   2872
   123   1   2095   2873
   124   1   2097   2874
   125   1   2149   2875
   126   1   2151   2876
   127   1   2203   2877
   128   1   2205   2878
   129   1   2257   2879
   130   1   2259   2880
   131   1   2311   2881
   132   1   2313   2882
   133   1   2365   2883
   134   1   2367   2884
   135   1   2419   2885
   136   1   2421   2886
   137   1   2473   2887
   138   1   2475   2888
   139   1   2527   2889
   140   1   2529   2890
   141   1   2581   2891
   142   1   2583   2892
   143   1   2635   2893
   144   1   2637   2894
   145   1   2689   2895
   146   1   2691   2896
   147   1   2743   2897
   148   1   2745   2898
   149   1   2797   2899
   150   1   2799   2900
   151   1   2901   2951
   152   1   2902   2952
   153   1   2903   2953
   154   1   2904   2954
   155   1   2905   2955
   156   1   2906   2956
   157   1   2907   2957
   158   1   2908   2958
   159   1   2909   2959
   160   1   2910   2960
   161   1   2911   2961
   162   1   2912   2962
   163   1   2913   2963
   164   1   2914   2964
   165   1   2915   2965
   166   1   2916   2966
   167   1   2917   2967
   168   1   2918   2968
   169   1   2919   2969
   170   1   2920   2970
   171   1   2921   2971
   172   1   2922   2972
   173   1   2923   2973
   174   1   2924   2974
   175   1   2925   2975
   176   1   2926   2976
   177   1   2927   2977
   178   1   2928   2978
   179   1   2929   2979
   180   1   2930   2980
   181   1   2931   2981
   182   1   2932   2982
   183   1   2933   2983
   184   1   2934   2984
   185   1   2935   2985
   186   1   2936   2986
   187   1   2937   2987
   188   1   2938   2988
   189   1   2939   2989
   190   1   2940   2990
   191   1   2941   2991
   192   1   2942   2992
   193   1   2943   2993
   194   1   2944   2994
   195   1   2945   2995
   196   1   2946   2996
   197   1   2947   2997
   198   1   2948   2998
   199   1   2949   2999
   200   1   2950   3000
   201   1   3001   4351
   202   1   3003   4352
   203   1   3055   4353
   204   1   3057   4354
   205   1   3109   4355
   206   1   3111   4356
   207   1   3163   4357
   208   1   3165   4358
   209   1   3217   4359
   210   1   3219   4360
   211   1   3271   4361
   212   1   3273   4362
   213   1   3325   4363
   214   1   3327   4364
   215   1   3379   4365
   216   1   3381   4366
   217   1   3433   4367
   218   1   3435   4368
   219   1   3487   4369
   220   1   3489   4370
   221   1   3541   4371
   222   1   3543   4372
   223   1   3595   4373
   224   1   3597   4374
   225   1   3649   4375
   226   1   3651   4376
   227   1   3703   4377
   228   1   3705   4378
   229   1   3757   4379
   230   1   3759   4380
   231   1   3811   4381
   232   1   3813   4382
   233   1   3865   4383
   234   1   3867   4384
   235   1   3919   4385
   236   1   3921   4386
   237   1   3973   4387
   238   1   3975   4388
   239   1   4027   4389
   240   1   4029   4390
   241   1   4081   4391
   242   1   4083   4392
   243   1   4135   4393
   244   1   4137   4394
   245   1   4189   4395
   246   1   4191   4396
   247   1   4243   4397
   248   1   4245   4398
   249   1   4297   4399
   250   1   4299   4400
   251   1   4401   4451
   252   1   4402   4452
   253   1   4403   4453
   254   1   4404   4454
   255   1   4405   4455
   256   1   4406   4456
   257   1   4407   4457
   258   1   4408   4458
   259   1   4409   4459
   260   1   4410   4460
   261   1   4411   4461
   262   1   4412   4462
   263   1   4413   4463
   264   1   4414   4464
   265   1   4415   4465
   266   1   4416   4466
   267   1   4417   4467
   268   1   4418   4468
   269   1   4419   4469
   270   1   4420   4470
   271   1   4421   4471
   272   1   4422   4472
   273   1   4423   4473
   274   1   4424   4474
   275   1   4425   4475
   276   1   4426   4476
   277   1   4427   4477
   278   1   4428   4478
   279   1   4429   4479
   280   1   4430   4480
   281   1   4431   4481
   282   1   4432   4482
   283   1   4433   4483
   284   1   4434   4484
   285   1   4435   4485
   286   1   4436   4486
   287   1   4437   4487
   288   1   4438   4488
   289   1   4439   4489
   290   1   4440   4490
   291   1   4441   4491
   292   1   4442   4492
   293   1   4443   4493
   294   1   4444   4494
   295   1   4445   4495
   296   1   4446   4496
   297   1   4447   4497
   298   1   4448   4498
   299   1   4449   4499
   300   1   4450   4500
   301   1   4501   5851
   302   1   4503   5852
   303   1   4555   5853
   304   1   4557   5854
   305   1   4609   5855
   306   1   4611   5856
   307   1   4663   5857
   308   1   4665   5858
   309   1   4717   5859
   310   1   4719   5860
   311   1   4771   5861
   312   1   4773   5862
   313   1   4825   5863
   314   1   4827   5864
   315   1   4879   5865
   316   1   4881   5866
   317   1   4933   5867
   318   1   4935   5868
   319   1   4987   5869
   320   1   4989   5870
   321   1   5041   5871
   322   1   5043   5872
   323   1   5095   5873
   324   1   5097   5874
   325   1   5149   5875
   326   1   5151   5876
   327   1   5203   5877
   328   1   5205   5878
   329   1   5257   5879
   330   1   5259   5880
   331   1   5311   5881
   332   1   5313   5882
   333   1   5365   5883
   334   1   5367   5884
   335   1   5419   5885
   336   1   5421   5886
   337   1   5473   5887
   338   1   5475   5888
   339   1   5527   5889
   340   1   5529   5890
   341   1   5581   5891
   342   1   5583   5892
   343   1   5635   5893
   344   1   5637   5894
   345   1   5689   5895
   346   1   5691   5896
   347   1   5743   5897
   348   1   5745   5898
   349   1   5797   5899
   350   1   5799   5900
   351   1   5901   5951
   352   1   5902   5952
   353   1   5903   5953
   354   1   5904   5954
   355   1   5905   5955
   356   1   5906   5956
   357   1   5907   5957
   358   1   5908   5958
   359   1   5909   5959
   360   1   5910   5960
   361   1   5911   5961
   362   1   5912   5962
   363   1   5913   5963
   364   1   5914   5964
   365   1   5915   5965
   366   1   5916   5966
   367   1   5917   5967
   368   1   5918   5968
   369   1   5919   5969
   370   1   5920   5970
   371   1   5921   5971
   372   1   5922   5972
   373   1   5923   5973
   374   1   5924   5974
   375   1   5925   5975
   376   1   5926   5976
   377   1   5927   5977
   378   1   5928   5978
   379   1   5929   5979
   380   1   5930   5980
   381   1   5931   5981
   382   1   5932   5982
   383   1   5933   5983
   384   1   5934   5984
   385   1   5935   5985
   386   1   5936   5986
   387   1   5937   5987
   388   1   5938   5988
   389   1   5939   5989
   390   1   5940   5990
   391   1   5941   5991
   392   1   5942   5992
   393   1   5943   5993
   394   1   5944   5994
   395   1   5945   5995
   396   1   5946   5996
   397   1   5947   5997
   398   1   5948   5998
   399   1   5949   5999
   400   1   5950   6000

Angles

     1   1      7      1   1351
     2   1     62      3   1352
     3   1     61     55   1353
     4   1    116     57   1354
     5   1    115    109   1355
     6   1    170    111   1356
     7   1    169    163   1357
     8   1    224    165   1358
     9   1    223    217   1359
    10   1      8    219   1360
    11   1    277    271   1361
    12   1    332    273   1362
    13   1    331    325   1363
    14   1    386    327   1364
    15   1    385    379   1365
    16   1    440    381   1366
    17   1    439    433   1367
    18   1    494    435   1368
    19   1    493    487   1369
    20   1    278    489   1370
    21   1    547    541   1371
    22   1    602    543   1372
    23   1    601    595   1373
    24   1    656    597   1374
    25   1    655    649   1375
    26   1    710    651   1376
    27   1    709    703   1377
    28   1    764    705   1378
    29   1    763    757   1379
    30   1    548    759   1380
    31   1    817    811   1381
    32   1    872    813   1382
    33   1    871    865   1383
    34   1    926    867   1384
    35   1    925    919   1385
    36   1    980    921   1386
    37   1    979    973   1387
    38   1   1034    975   1388
    39   1   1033   1027   1389
    40   1    818   1029   1390
    41   1   1087   1081   1391
    42   1   1142   1083   1392
    43   1   1141   1135   1393
    44   1   1196   1137   1394
    45   1   1195   1189   1395
    46   1   1250   1191   1396
    47   1   1249   1243   1397
    48   1   1304   1245   1398
    49   1   1303   1297   1399
    50   1   1088   1299   1400
    51   1      9   1401   1451
    52   1      9   1402   1452
    53   1     63   1403   1453
    54   1     63   1404   1454
    55   1    117   1405   1455
    56   1    117   1406   1456
    57   1    171   1407   1457
    58   1    171   1408   1458
    59   1    225   1409   1459
    60   1    225   1410   1460
    61   1    279   1411   1461
    62   1    279   1412   1462
    63   1    333   1413   1463
    64   1    333   1414   1464
    65   1    387   1415   1465
    66   1    387   1416   1466
    67   1    441   1417   1467
    68   1    441   1418   1468
    69   1    495   1419   1469
    70   1    495   1420   1470
    71   1    549   1421   1471
    72   1    549   1422   1472
    73   1    603   1423   1473
    74   1    603   1424   1474
    75   1    657   1425   1475
    76   1    657   1426   1476
    77   1    711   1427   1477
    78   1    711   1428   1478
    79   1    765   1429   1479
    80   1    765   1430   1480
    81   1    819   1431   1481
    82   1    819   1432   1482
    83   1    873   1433   1483
    84   1    873   1434   1484
    85   1    927   1435   1485
    86   1    927   1436   1486
    87   1    981   1437   1487
    88   1    981   1438   1488
    89   1   1035   1439   1489
    90   1   1035   1440   1490
    91   1   1089   1441   1491
    92   1   1089   1442   1492
    93   1   1143   1443   1493
    94   1   1143   1444   1494
    95   1   1197   1445   1495
    96   1   1197   1446   1496
    97   1   1251   1447   1497
    98   1   1251   1448   1498
    99   1   1305   1449   1499
   100   1   1305   1450   1500
   101   1   1507   1501   2851
   102   1   1562   1503   2852
   103   1   1561   1555   2853
   104   1   1616   1557   2854
   105   1   1615   1609   2855
   106   1   1670   1611   2856
   107   1   1669   1663   2857
   108   1   1724   1665   2858
   109   1   1723   1717   2859
   110   1   1508   1719   2860
   111   1   1777   1771   2861
   112   1   1832   1773   2862
   113   1   1831   1825   2863
   114   1   1886   1827   2864
   115   1   1885   1879   2865
   116   1   1940   1881   2866
   117   1   1939   1933   2867
   118   1   1994   1935   2868
   119   1   1993   1987   2869
   120   1   1778   1989   2870
   121   1   2047   2041   2871
   122   1   2102   2043   2872
   123   1   2101   2095   2873
   124   1   2156   2097   2874
   125   1   2155   2149   2875
   126   1   2210   2151   2876
   127   1   2209   2203   2877
   128   1   2264   2205   2878
   129   1   2263   2257   2879
   130   1   2048   2259   2880
   131   1   2317   2311   2881
   132   1   2372   2313   2882
   133   1   2371   2365   2883
   134   1   2426   2367   2884
   135   1   2425   2419   2885
   136   1   2480   2421   2886
   137   1   2479   2473   2887
   138   1   2534   2475   2888
   139   1   2533   2527   2889
   140   1   2318   2529   2890
   141   1   2587   2581   2891
   142   1   2642   2583   2892
   143   1   2641   2635   2893
   144   1   2696   2637   2894
   145   1   2695   2689   2895
   146   1   2750   2691   2896
   147   1   2749   2743   2897
   148   1   2804   2745   2898
   149   1   2803   2797   2899
   150   1   2588   2799   2900
   151   1   1509   2901   2951
   152   1   1509   2902   2952
   153   1   1563   2903   2953
   154   1   1563   2904   2954
   155   1   1617   2905   2955
   156   1   1617   2906   2956
   157   1   1671   2907   2957
   158   1   1671   2908   2958
   159   1   1725   2909   2959
   160   1   1725   2910   2960
   161   1   1779   2911   2961
   162   1   1779   2912   2962
   163   1   1833   2913   2963
   164   1   1833   2914   2964
   165   1   1887   2915   2965
   166   1   1887   2916   2966
   167   1   1941   2917   2967
   168   1   1941   2918   2968
   169   1   1995   2919   2969
   170   1   1995   2920   2970
   171   1   2049   2921   2971
   172   1   2049   2922   2972
   173   1   2103   2923   2973
   174   1   2103   2924   2974
   175   1   2157   2925   2975
   176   1   2157   2926   2976
   177   1   2211   2927   2977
   178   1   2211   2928   2978
   179   1   2265   2929   2979
   180   1   2265   2930   2980
   181   1   2319   2931   2981
   182   1   2319   2932   2982
   183   1   2373   2933   2983
   184   1   2373   2934   2984
   185   1   2427   2935   2985
   186   1   2427   2936   2986
   187   1   2481   2937   2987
   188   1   2481   2938   2988
   189   1   2535   2939   2989
   190   1   2535   2940   2990
   191   1   2589   2941   2991
   192   1   2589   2942   2992
   193   1   2643   2943   2993
   194   1   2643   2944   2994
   195   1   2697   2945   2995
   196   1   2697   2946   2996
   197   1   2751   2947   2997
   198   1   2751   2948   2998
   199   1   2805   2949   2999
   200   1   2805   2950   3000
   201   1   3007   3001   4351
   202   1   3062   3003   4352
   203   1   3061   3055   4353
   204   1   3116   3057   4354
   205   1   3115   3109   4355
   206   1   3170   3111   4356
   207   1   3169   3163   4357
   208   1   3224   3165   4358
   209   1   3223   3217   4359
   210   1   3008   3219   4360
   211   1   3277   3271   4361
   212   1   3332   3273   4362
   213   1   3331   3325   4363
   214   1   3386   3327   4364
   215   1   3385   3379   4365
   216   1   3440   3381   4366
   217   1   3439   3433   4367
   218   1   3494   3435   4368
   219   1   3493   3487   4369
   220   1   3278   3489   4370
   221   1   3547   3541   4371
   222   1   3602   3543   4372
   223   1   3601   3595   4373
   224   1   3656   3597   4374
   225   1   3655   3649   4375
   226   1   3710   3651   4376
   227   1   3709   3703   4377
   228   1   3764   3705   4378
   229   1   3763   3757   4379
   230   1   3548   3759   4380
   231   1   3817   3811   4381
   232   1   3872   3813   4382
   233   1   3871   3865   4383
   234   1   3926   3867   4384
   235   1   3925   3919   4385
   236   1   3980   3921   4386
   237   1   3979   3973   4387
   238   1   4034   3975   4388
   239   1   4033   4027   4389
   240   1   3818   4029   4390
   241   1   4087   4081   4391
   242   1   4142   4083   4392
   243   1   4141   4135   4393
   244   1   4196   4137   4394
   245   1   4195   4189   4395
   246   1   4250   4191   4396
   247   1   4249   4243   4397
   248   1   4304   4245   4398
   249   1   4303   4297   4399
   250   1   4088   4299   4400
   251   1   3009   4401   4451
   252   1   3009   4402   4452
   253   1   3063   4403   4453
   254   1   3063   4404   4454
   255   1   3117   4405   4455
   256   1   3117   4406   4456
   257   1   3171   4407   4457
   258   1   3171   4408   4458
   259   1   3225   4409   4459
   260   1   3225   4410   4460
   261   1   3279   4411   4461
   262   1   3279   4412   4462
   263   1   3333   4413   4463
   264   1   3333   4414   4464
   265   1   3387   4415   4465
   266   1   3387   4416   4466
   267   1   3441   4417   4467
   268   1   3441   4418   4468
   269   1   3495   4419   4469
   270   1   3495   4420   4470
   271   1   3549   4421   4471
   272   1   3549   4422   4472
   273   1   3603   4423   4473
   274   1   3603   4424   4474
   275   1   3657   4425   4475
   276   1   3657   4426   4476
   277   1   3711   4427   4477
   278   1   3711   4428   4478
   279   1   3765   4429   4479
   280   1   3765   4430   4480
   281   1   3819   4431   4481
   282   1   3819   4432   4482
   283   1   3873   4433   4483
   284   1   3873   4434   4484
   285   1   3927   4435   4485
   286   1   3927   4436   4486
   287   1   3981   4437   4487
   288   1   3981   4438   4488
   289   1   4035   4439   4489
   290   1   4035   4440   4490
   291   1   4089   4441   4491
   292   1   4089   4442   4492
   293   1   4143   4443   4493
   294   1   4143   4444   4494
   295   1   4197   4445   4495
   296   1   4197   4446   4496
   297   1   4251   4447   4497
   298   1   4251   4448   4498
   299   1   4305   4449   4499
   300   1   4305   4450   4500
   301   1   4507   4501   5851
   302   1   4562   4503   5852
   303   1   4561   4555   5853
   304   1   4616   4557   5854
   305   1   4615   4609   5855
   306   1   4670   4611   5856
   307   1   4669   4663   5857
   308   1   4724   4665   5858
   309   1   4723   4717   5859
   310   1   4508   4719   5860
   311   1   4777   4771   5861
   312   1   4832   4773   5862
   313   1   4831   4825   5863
   314   1   4886   4827   5864
   315   1   4885   4879   5865
   316   1   4940   4881   5866
   317   1   4939   4933   5867
   318   1   4994   4935   5868
   319   1   4993   4987   5869
   320   1   4778   4989   5870
   321   1   5047   5041   5871
   322   1   5102   5043   5872
   323   1   5101   5095   5873
   324   1   5156   5097   5874
   325   1   5155   5149   5875
   326   1   5210   5151   5876
   327   1   5209   5203   5877
   328   1   5264   5205   5878
   329   1   5263   5257   5879
   330   1   5048   5259   5880
   331   1   5317   5311   5881
   332   1   5372   5313   5882
   333   1   5371   5365   5883
   334   1   5426   5367   5884
   335   1   5425   5419   5885
   336   1   5480   5421   5886
   337   1   5479   5473   5887
   338   1   5534   5475   5888
   339   1   5533   5527   5889
   340   1   5318   5529   5890
   341   1   5587   5581   5891
   342   1   5642   5583   5892
   343   1   5641   5635   5893
   344   1   5696   5637   5894
   345   1   5695   5689   5895
   346   1   5750   5691   5896
   347   1   5749   5743   5897
   348   1   5804   5745   5898
   349   1   5803   5797   5899
   350   1   5588   5799   5900
   351   1   4509   5901   5951
   352   1   4509   5902   5952
   353   1   4563   5903   5953
   354   1   4563   5904   5954
   355   1   4617   5905   5955
   356   1   4617   5906   5956
   357   1   4671   5907   5957
   358   1   4671   5908   5958
   359   1   4725   5909   5959
   360   1   4725   5910   5960
   361   1   4779   5911   5961
   362   1   4779   5912   5962
   363   1   4833   5913   5963
   364   1   4833   5914   5964
   365   1   4887   5915   5965
   366   1   4887   5916   5966
   367   1   4941   5917   5967
   368   1   4941   5918   5968
   369   1   4995   5919   5969
   370   1   4995   5920   5970
   371   1   5049   5921   5971
   372   1   5049   5922   5972
   373   1   5103   5923   5973
   374   1   5103   5924   5974
   375   1   5157   5925   5975
   376   1   5157   5926   5976
   377   1   5211   5927   5977
   378   1   5211   5928   5978
   379   1   5265   5929   5979
   380   1   5265   5930   5980
   381   1   5319   5931   5981
   382   1   5319   5932   5982
   383   1   5373   5933   5983
   384   1   5373   5934   5984
   385   1   5427   5935   5985
   386   1   5427   5936   5986
   387   1   5481   5937   5987
   388   1   5481   5938   5988
   389   1   5535   5939   5989
   390   1   5535   5940   5990
   391   1   5589   5941   5991
   392   1   5589   5942   5992
   393   1   5643   5943   5993
   394   1   5643   5944   5994
   395   1   5697   5945   5995
   396   1   5697   5946   5996
   397   1   5751   5947   5997
   398   1   5751   5948   5998
   399   1   5805   5949   5999
   400   1   5805   5950   6000


