LAMMPS data file for goe-100-1

   2594 atoms
   649 bonds
   217 angles
      0 dihedrals
      0 impropers

   4 atom types
   1 bond types
   1 angle types

     0.000147551    27.115347551 xlo xhi
    -0.002604644    27.477395356 ylo yhi
   -74.286556506   109.007743494 zlo zhi

Masses

   1  55.847000 # feok
   2   1.007940 # hoy
   3  15.999400 # obsk
   4  15.999400 # ohk

Pair Coeffs # lj/cut/coul/long

   1   0.0000090298   4.0722178483 # feok
   2   0.0000000000   0.0000000000 # hoy
   3   0.1554000000   3.1655413253 # obsk
   4   0.1554000000   3.1655413253 # ohk

Bond Coeffs # harmonic

   1   554.1348     1.0000 # hoy-ohk

Angle Coeffs # harmonic

   1    30.0000   109.4700 # feok-ohk-hoy

Atoms # full

      1      1   1  1.575000     0.753199995     4.357411930     3.924868994   0   0   0 # feok
      2      1   2  0.425000     0.753199995     2.752580004    11.390650309   0   0   0 # hoy
      3      1   3 -1.050000     0.753199995     1.305299962    10.419137164   0   0   0 # obsk
      4      1   4 -0.950000     0.753199995     3.682319962    11.879380951   0   0   0 # ohk
      5      1   1  1.575000     2.259599984     2.067411968     5.988838887   0   0   0 # feok
      6      1   2  0.425000     2.259599984     0.462580043     8.436457269   0   0   0 # hoy
      7      1   3 -1.050000     2.259599984     3.595299924     9.407970414   0   0   0 # obsk
      8      1   4 -0.950000     2.259599984     1.392320000     7.947726626   0   0   0 # ohk
      9      1   1  1.575000     2.259599984     0.222587994    10.945538735   0   0   0 # feok
     10      1   2  0.425000     2.259599984     1.827419919     3.479757421   0   0   0 # hoy
     11      1   3 -1.050000     2.259599984     3.274699962     4.451270565   0   0   0 # obsk
     12      1   4 -0.950000     2.259599984     0.897679962     2.991026778   0   0   0 # ohk
     13      1   1  1.575000     0.753199995     2.512587955     8.881568842   0   0   0 # feok
     14      1   2  0.425000     0.753199995     4.117419881     6.433950460   0   0   0 # hoy
     15      1   3 -1.050000     0.753199995     0.984700000     5.462437316   0   0   0 # obsk
     16      1   4 -0.950000     0.753199995     3.187679923     6.922681103   0   0   0 # ohk
     17      1   1  1.575000     0.753199995     4.357411930    13.838268690   0   0   0 # feok
     18      1   2  0.425000     0.753199995     2.752580004    21.304050005   0   0   0 # hoy
     19      1   3 -1.050000     0.753199995     1.305299962    20.332536860   0   0   0 # obsk
     20      1   4 -0.950000     0.753199995     3.682319962    21.792780648   0   0   0 # ohk
     21      1   1  1.575000     2.259599984     2.067411968    15.902238583   0   0   0 # feok
     22      1   2  0.425000     2.259599984     0.462580043    18.349856965   0   0   0 # hoy
     23      1   3 -1.050000     2.259599984     3.595299924    19.321370110   0   0   0 # obsk
     24      1   4 -0.950000     2.259599984     1.392320000    17.861126322   0   0   0 # ohk
     25      1   1  1.575000     2.259599984     0.222587994    20.858938431   0   0   0 # feok
     26      1   2  0.425000     2.259599984     1.827419919    13.393157117   0   0   0 # hoy
     27      1   3 -1.050000     2.259599984     3.274699962    14.364670262   0   0   0 # obsk
     28      1   4 -0.950000     2.259599984     0.897679962    12.904426474   0   0   0 # ohk
     29      1   1  1.575000     0.753199995     2.512587955    18.794968539   0   0   0 # feok
     30      1   2  0.425000     0.753199995     4.117419881    16.347350157   0   0   0 # hoy
     31      1   3 -1.050000     0.753199995     0.984700000    15.375837012   0   0   0 # obsk
     32      1   4 -0.950000     0.753199995     3.187679923    16.836080799   0   0   0 # ohk
     33      1   1  1.575000     0.753199995     4.357411930    23.751668387   0   0   0 # feok
     34      1   2  0.425000     0.753199995     2.752580004    31.217449701   0   0   0 # hoy
     35      1   3 -1.050000     0.753199995     1.305299962    30.245936556   0   0   0 # obsk
     36      1   4 -0.950000     0.753199995     3.682319962    31.706180344   0   0   0 # ohk
     37      1   1  1.575000     2.259599984     2.067411968    25.815638280   0   0   0 # feok
     38      1   2  0.425000     2.259599984     0.462580043    28.263256661   0   0   0 # hoy
     39      1   3 -1.050000     2.259599984     3.595299924    29.234769806   0   0   0 # obsk
     40      1   4 -0.950000     2.259599984     1.392320000    27.774526019   0   0   0 # ohk
     41      1   1  1.575000     2.259599984     0.222587994    30.772338128   0   0   0 # feok
     42      1   2  0.425000     2.259599984     1.827419919    23.306556813   0   0   0 # hoy
     43      1   3 -1.050000     2.259599984     3.274699962    24.278069958   0   0   0 # obsk
     44      1   4 -0.950000     2.259599984     0.897679962    22.817826171   0   0   0 # ohk
     45      1   1  1.575000     0.753199995     2.512587955    28.708368235   0   0   0 # feok
     46      1   2  0.425000     0.753199995     4.117419881    26.260749853   0   0   0 # hoy
     47      1   3 -1.050000     0.753199995     0.984700000    25.289236708   0   0   0 # obsk
     48      1   4 -0.950000     0.753199995     3.187679923    26.749480496   0   0   0 # ohk
     49      1   1  1.575000     3.765999973     4.357411930     3.924868994   0   0   0 # feok
     50      1   2  0.425000     3.765999973     2.752580004    11.390650309   0   0   0 # hoy
     51      1   3 -1.050000     3.765999973     1.305299962    10.419137164   0   0   0 # obsk
     52      1   4 -0.950000     3.765999973     3.682319962    11.879380951   0   0   0 # ohk
     53      1   1  1.575000     5.272399962     2.067411968     5.988838887   0   0   0 # feok
     54      1   2  0.425000     5.272399962     0.462580043     8.436457269   0   0   0 # hoy
     55      1   3 -1.050000     5.272399962     3.595299924     9.407970414   0   0   0 # obsk
     56      1   4 -0.950000     5.272399962     1.392320000     7.947726626   0   0   0 # ohk
     57      1   1  1.575000     5.272399962     0.222587994    10.945538735   0   0   0 # feok
     58      1   2  0.425000     5.272399962     1.827419919     3.479757421   0   0   0 # hoy
     59      1   3 -1.050000     5.272399962     3.274699962     4.451270565   0   0   0 # obsk
     60      1   4 -0.950000     5.272399962     0.897679962     2.991026778   0   0   0 # ohk
     61      1   1  1.575000     3.765999973     2.512587955     8.881568842   0   0   0 # feok
     62      1   2  0.425000     3.765999973     4.117419881     6.433950460   0   0   0 # hoy
     63      1   3 -1.050000     3.765999973     0.984700000     5.462437316   0   0   0 # obsk
     64      1   4 -0.950000     3.765999973     3.187679923     6.922681103   0   0   0 # ohk
     65      1   1  1.575000     3.765999973     4.357411930    13.838268690   0   0   0 # feok
     66      1   2  0.425000     3.765999973     2.752580004    21.304050005   0   0   0 # hoy
     67      1   3 -1.050000     3.765999973     1.305299962    20.332536860   0   0   0 # obsk
     68      1   4 -0.950000     3.765999973     3.682319962    21.792780648   0   0   0 # ohk
     69      1   1  1.575000     5.272399962     2.067411968    15.902238583   0   0   0 # feok
     70      1   2  0.425000     5.272399962     0.462580043    18.349856965   0   0   0 # hoy
     71      1   3 -1.050000     5.272399962     3.595299924    19.321370110   0   0   0 # obsk
     72      1   4 -0.950000     5.272399962     1.392320000    17.861126322   0   0   0 # ohk
     73      1   1  1.575000     5.272399962     0.222587994    20.858938431   0   0   0 # feok
     74      1   2  0.425000     5.272399962     1.827419919    13.393157117   0   0   0 # hoy
     75      1   3 -1.050000     5.272399962     3.274699962    14.364670262   0   0   0 # obsk
     76      1   4 -0.950000     5.272399962     0.897679962    12.904426474   0   0   0 # ohk
     77      1   1  1.575000     3.765999973     2.512587955    18.794968539   0   0   0 # feok
     78      1   2  0.425000     3.765999973     4.117419881    16.347350157   0   0   0 # hoy
     79      1   3 -1.050000     3.765999973     0.984700000    15.375837012   0   0   0 # obsk
     80      1   4 -0.950000     3.765999973     3.187679923    16.836080799   0   0   0 # ohk
     81      1   1  1.575000     3.765999973     4.357411930    23.751668387   0   0   0 # feok
     82      1   2  0.425000     3.765999973     2.752580004    31.217449701   0   0   0 # hoy
     83      1   3 -1.050000     3.765999973     1.305299962    30.245936556   0   0   0 # obsk
     84      1   4 -0.950000     3.765999973     3.682319962    31.706180344   0   0   0 # ohk
     85      1   1  1.575000     5.272399962     2.067411968    25.815638280   0   0   0 # feok
     86      1   2  0.425000     5.272399962     0.462580043    28.263256661   0   0   0 # hoy
     87      1   3 -1.050000     5.272399962     3.595299924    29.234769806   0   0   0 # obsk
     88      1   4 -0.950000     5.272399962     1.392320000    27.774526019   0   0   0 # ohk
     89      1   1  1.575000     5.272399962     0.222587994    30.772338128   0   0   0 # feok
     90      1   2  0.425000     5.272399962     1.827419919    23.306556813   0   0   0 # hoy
     91      1   3 -1.050000     5.272399962     3.274699962    24.278069958   0   0   0 # obsk
     92      1   4 -0.950000     5.272399962     0.897679962    22.817826171   0   0   0 # ohk
     93      1   1  1.575000     3.765999973     2.512587955    28.708368235   0   0   0 # feok
     94      1   2  0.425000     3.765999973     4.117419881    26.260749853   0   0   0 # hoy
     95      1   3 -1.050000     3.765999973     0.984700000    25.289236708   0   0   0 # obsk
     96      1   4 -0.950000     3.765999973     3.187679923    26.749480496   0   0   0 # ohk
     97      1   1  1.575000     6.778799951     4.357411930     3.924868994   0   0   0 # feok
     98      1   2  0.425000     6.778799951     2.752580004    11.390650309   0   0   0 # hoy
     99      1   3 -1.050000     6.778799951     1.305299962    10.419137164   0   0   0 # obsk
    100      1   4 -0.950000     6.778799951     3.682319962    11.879380951   0   0   0 # ohk
    101      1   1  1.575000     8.285199940     2.067411968     5.988838887   0   0   0 # feok
    102      1   2  0.425000     8.285199940     0.462580043     8.436457269   0   0   0 # hoy
    103      1   3 -1.050000     8.285199940     3.595299924     9.407970414   0   0   0 # obsk
    104      1   4 -0.950000     8.285199940     1.392320000     7.947726626   0   0   0 # ohk
    105      1   1  1.575000     8.285199940     0.222587994    10.945538735   0   0   0 # feok
    106      1   2  0.425000     8.285199940     1.827419919     3.479757421   0   0   0 # hoy
    107      1   3 -1.050000     8.285199940     3.274699962     4.451270565   0   0   0 # obsk
    108      1   4 -0.950000     8.285199940     0.897679962     2.991026778   0   0   0 # ohk
    109      1   1  1.575000     6.778799951     2.512587955     8.881568842   0   0   0 # feok
    110      1   2  0.425000     6.778799951     4.117419881     6.433950460   0   0   0 # hoy
    111      1   3 -1.050000     6.778799951     0.984700000     5.462437316   0   0   0 # obsk
    112      1   4 -0.950000     6.778799951     3.187679923     6.922681103   0   0   0 # ohk
    113      1   1  1.575000     6.778799951     4.357411930    13.838268690   0   0   0 # feok
    114      1   2  0.425000     6.778799951     2.752580004    21.304050005   0   0   0 # hoy
    115      1   3 -1.050000     6.778799951     1.305299962    20.332536860   0   0   0 # obsk
    116      1   4 -0.950000     6.778799951     3.682319962    21.792780648   0   0   0 # ohk
    117      1   1  1.575000     8.285199940     2.067411968    15.902238583   0   0   0 # feok
    118      1   2  0.425000     8.285199940     0.462580043    18.349856965   0   0   0 # hoy
    119      1   3 -1.050000     8.285199940     3.595299924    19.321370110   0   0   0 # obsk
    120      1   4 -0.950000     8.285199940     1.392320000    17.861126322   0   0   0 # ohk
    121      1   1  1.575000     8.285199940     0.222587994    20.858938431   0   0   0 # feok
    122      1   2  0.425000     8.285199940     1.827419919    13.393157117   0   0   0 # hoy
    123      1   3 -1.050000     8.285199940     3.274699962    14.364670262   0   0   0 # obsk
    124      1   4 -0.950000     8.285199940     0.897679962    12.904426474   0   0   0 # ohk
    125      1   1  1.575000     6.778799951     2.512587955    18.794968539   0   0   0 # feok
    126      1   2  0.425000     6.778799951     4.117419881    16.347350157   0   0   0 # hoy
    127      1   3 -1.050000     6.778799951     0.984700000    15.375837012   0   0   0 # obsk
    128      1   4 -0.950000     6.778799951     3.187679923    16.836080799   0   0   0 # ohk
    129      1   1  1.575000     6.778799951     4.357411930    23.751668387   0   0   0 # feok
    130      1   2  0.425000     6.778799951     2.752580004    31.217449701   0   0   0 # hoy
    131      1   3 -1.050000     6.778799951     1.305299962    30.245936556   0   0   0 # obsk
    132      1   4 -0.950000     6.778799951     3.682319962    31.706180344   0   0   0 # ohk
    133      1   1  1.575000     8.285199940     2.067411968    25.815638280   0   0   0 # feok
    134      1   2  0.425000     8.285199940     0.462580043    28.263256661   0   0   0 # hoy
    135      1   3 -1.050000     8.285199940     3.595299924    29.234769806   0   0   0 # obsk
    136      1   4 -0.950000     8.285199940     1.392320000    27.774526019   0   0   0 # ohk
    137      1   1  1.575000     8.285199940     0.222587994    30.772338128   0   0   0 # feok
    138      1   2  0.425000     8.285199940     1.827419919    23.306556813   0   0   0 # hoy
    139      1   3 -1.050000     8.285199940     3.274699962    24.278069958   0   0   0 # obsk
    140      1   4 -0.950000     8.285199940     0.897679962    22.817826171   0   0   0 # ohk
    141      1   1  1.575000     6.778799951     2.512587955    28.708368235   0   0   0 # feok
    142      1   2  0.425000     6.778799951     4.117419881    26.260749853   0   0   0 # hoy
    143      1   3 -1.050000     6.778799951     0.984700000    25.289236708   0   0   0 # obsk
    144      1   4 -0.950000     6.778799951     3.187679923    26.749480496   0   0   0 # ohk
    145      1   1  1.575000     9.791599929     4.357411930     3.924868994   0   0   0 # feok
    146      1   2  0.425000     9.791599929     2.752580004    11.390650309   0   0   0 # hoy
    147      1   3 -1.050000     9.791599929     1.305299962    10.419137164   0   0   0 # obsk
    148      1   4 -0.950000     9.791599929     3.682319962    11.879380951   0   0   0 # ohk
    149      1   1  1.575000    11.297999918     2.067411968     5.988838887   0   0   0 # feok
    150      1   2  0.425000    11.297999918     0.462580043     8.436457269   0   0   0 # hoy
    151      1   3 -1.050000    11.297999918     3.595299924     9.407970414   0   0   0 # obsk
    152      1   4 -0.950000    11.297999918     1.392320000     7.947726626   0   0   0 # ohk
    153      1   1  1.575000    11.297999918     0.222587994    10.945538735   0   0   0 # feok
    154      1   2  0.425000    11.297999918     1.827419919     3.479757421   0   0   0 # hoy
    155      1   3 -1.050000    11.297999918     3.274699962     4.451270565   0   0   0 # obsk
    156      1   4 -0.950000    11.297999918     0.897679962     2.991026778   0   0   0 # ohk
    157      1   1  1.575000     9.791599929     2.512587955     8.881568842   0   0   0 # feok
    158      1   2  0.425000     9.791599929     4.117419881     6.433950460   0   0   0 # hoy
    159      1   3 -1.050000     9.791599929     0.984700000     5.462437316   0   0   0 # obsk
    160      1   4 -0.950000     9.791599929     3.187679923     6.922681103   0   0   0 # ohk
    161      1   1  1.575000     9.791599929     4.357411930    13.838268690   0   0   0 # feok
    162      1   2  0.425000     9.791599929     2.752580004    21.304050005   0   0   0 # hoy
    163      1   3 -1.050000     9.791599929     1.305299962    20.332536860   0   0   0 # obsk
    164      1   4 -0.950000     9.791599929     3.682319962    21.792780648   0   0   0 # ohk
    165      1   1  1.575000    11.297999918     2.067411968    15.902238583   0   0   0 # feok
    166      1   2  0.425000    11.297999918     0.462580043    18.349856965   0   0   0 # hoy
    167      1   3 -1.050000    11.297999918     3.595299924    19.321370110   0   0   0 # obsk
    168      1   4 -0.950000    11.297999918     1.392320000    17.861126322   0   0   0 # ohk
    169      1   1  1.575000    11.297999918     0.222587994    20.858938431   0   0   0 # feok
    170      1   2  0.425000    11.297999918     1.827419919    13.393157117   0   0   0 # hoy
    171      1   3 -1.050000    11.297999918     3.274699962    14.364670262   0   0   0 # obsk
    172      1   4 -0.950000    11.297999918     0.897679962    12.904426474   0   0   0 # ohk
    173      1   1  1.575000     9.791599929     2.512587955    18.794968539   0   0   0 # feok
    174      1   2  0.425000     9.791599929     4.117419881    16.347350157   0   0   0 # hoy
    175      1   3 -1.050000     9.791599929     0.984700000    15.375837012   0   0   0 # obsk
    176      1   4 -0.950000     9.791599929     3.187679923    16.836080799   0   0   0 # ohk
    177      1   1  1.575000     9.791599929     4.357411930    23.751668387   0   0   0 # feok
    178      1   2  0.425000     9.791599929     2.752580004    31.217449701   0   0   0 # hoy
    179      1   3 -1.050000     9.791599929     1.305299962    30.245936556   0   0   0 # obsk
    180      1   4 -0.950000     9.791599929     3.682319962    31.706180344   0   0   0 # ohk
    181      1   1  1.575000    11.297999918     2.067411968    25.815638280   0   0   0 # feok
    182      1   2  0.425000    11.297999918     0.462580043    28.263256661   0   0   0 # hoy
    183      1   3 -1.050000    11.297999918     3.595299924    29.234769806   0   0   0 # obsk
    184      1   4 -0.950000    11.297999918     1.392320000    27.774526019   0   0   0 # ohk
    185      1   1  1.575000    11.297999918     0.222587994    30.772338128   0   0   0 # feok
    186      1   2  0.425000    11.297999918     1.827419919    23.306556813   0   0   0 # hoy
    187      1   3 -1.050000    11.297999918     3.274699962    24.278069958   0   0   0 # obsk
    188      1   4 -0.950000    11.297999918     0.897679962    22.817826171   0   0   0 # ohk
    189      1   1  1.575000     9.791599929     2.512587955    28.708368235   0   0   0 # feok
    190      1   2  0.425000     9.791599929     4.117419881    26.260749853   0   0   0 # hoy
    191      1   3 -1.050000     9.791599929     0.984700000    25.289236708   0   0   0 # obsk
    192      1   4 -0.950000     9.791599929     3.187679923    26.749480496   0   0   0 # ohk
    193      1   1  1.575000    12.804399908     4.357411930     3.924868994   0   0   0 # feok
    194      1   2  0.425000    12.804399908     2.752580004    11.390650309   0   0   0 # hoy
    195      1   3 -1.050000    12.804399908     1.305299962    10.419137164   0   0   0 # obsk
    196      1   4 -0.950000    12.804399908     3.682319962    11.879380951   0   0   0 # ohk
    197      1   1  1.575000    14.310799897     2.067411968     5.988838887   0   0   0 # feok
    198      1   2  0.425000    14.310799897     0.462580043     8.436457269   0   0   0 # hoy
    199      1   3 -1.050000    14.310799897     3.595299924     9.407970414   0   0   0 # obsk
    200      1   4 -0.950000    14.310799897     1.392320000     7.947726626   0   0   0 # ohk
    201      1   1  1.575000    14.310799897     0.222587994    10.945538735   0   0   0 # feok
    202      1   2  0.425000    14.310799897     1.827419919     3.479757421   0   0   0 # hoy
    203      1   3 -1.050000    14.310799897     3.274699962     4.451270565   0   0   0 # obsk
    204      1   4 -0.950000    14.310799897     0.897679962     2.991026778   0   0   0 # ohk
    205      1   1  1.575000    12.804399908     2.512587955     8.881568842   0   0   0 # feok
    206      1   2  0.425000    12.804399908     4.117419881     6.433950460   0   0   0 # hoy
    207      1   3 -1.050000    12.804399908     0.984700000     5.462437316   0   0   0 # obsk
    208      1   4 -0.950000    12.804399908     3.187679923     6.922681103   0   0   0 # ohk
    209      1   1  1.575000    12.804399908     4.357411930    13.838268690   0   0   0 # feok
    210      1   2  0.425000    12.804399908     2.752580004    21.304050005   0   0   0 # hoy
    211      1   3 -1.050000    12.804399908     1.305299962    20.332536860   0   0   0 # obsk
    212      1   4 -0.950000    12.804399908     3.682319962    21.792780648   0   0   0 # ohk
    213      1   1  1.575000    14.310799897     2.067411968    15.902238583   0   0   0 # feok
    214      1   2  0.425000    14.310799897     0.462580043    18.349856965   0   0   0 # hoy
    215      1   3 -1.050000    14.310799897     3.595299924    19.321370110   0   0   0 # obsk
    216      1   4 -0.950000    14.310799897     1.392320000    17.861126322   0   0   0 # ohk
    217      1   1  1.575000    14.310799897     0.222587994    20.858938431   0   0   0 # feok
    218      1   2  0.425000    14.310799897     1.827419919    13.393157117   0   0   0 # hoy
    219      1   3 -1.050000    14.310799897     3.274699962    14.364670262   0   0   0 # obsk
    220      1   4 -0.950000    14.310799897     0.897679962    12.904426474   0   0   0 # ohk
    221      1   1  1.575000    12.804399908     2.512587955    18.794968539   0   0   0 # feok
    222      1   2  0.425000    12.804399908     4.117419881    16.347350157   0   0   0 # hoy
    223      1   3 -1.050000    12.804399908     0.984700000    15.375837012   0   0   0 # obsk
    224      1   4 -0.950000    12.804399908     3.187679923    16.836080799   0   0   0 # ohk
    225      1   1  1.575000    12.804399908     4.357411930    23.751668387   0   0   0 # feok
    226      1   2  0.425000    12.804399908     2.752580004    31.217449701   0   0   0 # hoy
    227      1   3 -1.050000    12.804399908     1.305299962    30.245936556   0   0   0 # obsk
    228      1   4 -0.950000    12.804399908     3.682319962    31.706180344   0   0   0 # ohk
    229      1   1  1.575000    14.310799897     2.067411968    25.815638280   0   0   0 # feok
    230      1   2  0.425000    14.310799897     0.462580043    28.263256661   0   0   0 # hoy
    231      1   3 -1.050000    14.310799897     3.595299924    29.234769806   0   0   0 # obsk
    232      1   4 -0.950000    14.310799897     1.392320000    27.774526019   0   0   0 # ohk
    233      1   1  1.575000    14.310799897     0.222587994    30.772338128   0   0   0 # feok
    234      1   2  0.425000    14.310799897     1.827419919    23.306556813   0   0   0 # hoy
    235      1   3 -1.050000    14.310799897     3.274699962    24.278069958   0   0   0 # obsk
    236      1   4 -0.950000    14.310799897     0.897679962    22.817826171   0   0   0 # ohk
    237      1   1  1.575000    12.804399908     2.512587955    28.708368235   0   0   0 # feok
    238      1   2  0.425000    12.804399908     4.117419881    26.260749853   0   0   0 # hoy
    239      1   3 -1.050000    12.804399908     0.984700000    25.289236708   0   0   0 # obsk
    240      1   4 -0.950000    12.804399908     3.187679923    26.749480496   0   0   0 # ohk
    241      1   1  1.575000    15.817199886     4.357411930     3.924868994   0   0   0 # feok
    242      1   2  0.425000    15.817199886     2.752580004    11.390650309   0   0   0 # hoy
    243      1   3 -1.050000    15.817199886     1.305299962    10.419137164   0   0   0 # obsk
    244      1   4 -0.950000    15.817199886     3.682319962    11.879380951   0   0   0 # ohk
    245      1   1  1.575000    17.323599875     2.067411968     5.988838887   0   0   0 # feok
    246      1   2  0.425000    17.323599875     0.462580043     8.436457269   0   0   0 # hoy
    247      1   3 -1.050000    17.323599875     3.595299924     9.407970414   0   0   0 # obsk
    248      1   4 -0.950000    17.323599875     1.392320000     7.947726626   0   0   0 # ohk
    249      1   1  1.575000    17.323599875     0.222587994    10.945538735   0   0   0 # feok
    250      1   2  0.425000    17.323599875     1.827419919     3.479757421   0   0   0 # hoy
    251      1   3 -1.050000    17.323599875     3.274699962     4.451270565   0   0   0 # obsk
    252      1   4 -0.950000    17.323599875     0.897679962     2.991026778   0   0   0 # ohk
    253      1   1  1.575000    15.817199886     2.512587955     8.881568842   0   0   0 # feok
    254      1   2  0.425000    15.817199886     4.117419881     6.433950460   0   0   0 # hoy
    255      1   3 -1.050000    15.817199886     0.984700000     5.462437316   0   0   0 # obsk
    256      1   4 -0.950000    15.817199886     3.187679923     6.922681103   0   0   0 # ohk
    257      1   1  1.575000    15.817199886     4.357411930    13.838268690   0   0   0 # feok
    258      1   2  0.425000    15.817199886     2.752580004    21.304050005   0   0   0 # hoy
    259      1   3 -1.050000    15.817199886     1.305299962    20.332536860   0   0   0 # obsk
    260      1   4 -0.950000    15.817199886     3.682319962    21.792780648   0   0   0 # ohk
    261      1   1  1.575000    17.323599875     2.067411968    15.902238583   0   0   0 # feok
    262      1   2  0.425000    17.323599875     0.462580043    18.349856965   0   0   0 # hoy
    263      1   3 -1.050000    17.323599875     3.595299924    19.321370110   0   0   0 # obsk
    264      1   4 -0.950000    17.323599875     1.392320000    17.861126322   0   0   0 # ohk
    265      1   1  1.575000    17.323599875     0.222587994    20.858938431   0   0   0 # feok
    266      1   2  0.425000    17.323599875     1.827419919    13.393157117   0   0   0 # hoy
    267      1   3 -1.050000    17.323599875     3.274699962    14.364670262   0   0   0 # obsk
    268      1   4 -0.950000    17.323599875     0.897679962    12.904426474   0   0   0 # ohk
    269      1   1  1.575000    15.817199886     2.512587955    18.794968539   0   0   0 # feok
    270      1   2  0.425000    15.817199886     4.117419881    16.347350157   0   0   0 # hoy
    271      1   3 -1.050000    15.817199886     0.984700000    15.375837012   0   0   0 # obsk
    272      1   4 -0.950000    15.817199886     3.187679923    16.836080799   0   0   0 # ohk
    273      1   1  1.575000    15.817199886     4.357411930    23.751668387   0   0   0 # feok
    274      1   2  0.425000    15.817199886     2.752580004    31.217449701   0   0   0 # hoy
    275      1   3 -1.050000    15.817199886     1.305299962    30.245936556   0   0   0 # obsk
    276      1   4 -0.950000    15.817199886     3.682319962    31.706180344   0   0   0 # ohk
    277      1   1  1.575000    17.323599875     2.067411968    25.815638280   0   0   0 # feok
    278      1   2  0.425000    17.323599875     0.462580043    28.263256661   0   0   0 # hoy
    279      1   3 -1.050000    17.323599875     3.595299924    29.234769806   0   0   0 # obsk
    280      1   4 -0.950000    17.323599875     1.392320000    27.774526019   0   0   0 # ohk
    281      1   1  1.575000    17.323599875     0.222587994    30.772338128   0   0   0 # feok
    282      1   2  0.425000    17.323599875     1.827419919    23.306556813   0   0   0 # hoy
    283      1   3 -1.050000    17.323599875     3.274699962    24.278069958   0   0   0 # obsk
    284      1   4 -0.950000    17.323599875     0.897679962    22.817826171   0   0   0 # ohk
    285      1   1  1.575000    15.817199886     2.512587955    28.708368235   0   0   0 # feok
    286      1   2  0.425000    15.817199886     4.117419881    26.260749853   0   0   0 # hoy
    287      1   3 -1.050000    15.817199886     0.984700000    25.289236708   0   0   0 # obsk
    288      1   4 -0.950000    15.817199886     3.187679923    26.749480496   0   0   0 # ohk
    289      1   1  1.575000    18.829999864     4.357411930     3.924868994   0   0   0 # feok
    290      1   2  0.425000    18.829999864     2.752580004    11.390650309   0   0   0 # hoy
    291      1   3 -1.050000    18.829999864     1.305299962    10.419137164   0   0   0 # obsk
    292      1   4 -0.950000    18.829999864     3.682319962    11.879380951   0   0   0 # ohk
    293      1   1  1.575000    20.336399853     2.067411968     5.988838887   0   0   0 # feok
    294      1   2  0.425000    20.336399853     0.462580043     8.436457269   0   0   0 # hoy
    295      1   3 -1.050000    20.336399853     3.595299924     9.407970414   0   0   0 # obsk
    296      1   4 -0.950000    20.336399853     1.392320000     7.947726626   0   0   0 # ohk
    297      1   1  1.575000    20.336399853     0.222587994    10.945538735   0   0   0 # feok
    298      1   2  0.425000    20.336399853     1.827419919     3.479757421   0   0   0 # hoy
    299      1   3 -1.050000    20.336399853     3.274699962     4.451270565   0   0   0 # obsk
    300      1   4 -0.950000    20.336399853     0.897679962     2.991026778   0   0   0 # ohk
    301      1   1  1.575000    18.829999864     2.512587955     8.881568842   0   0   0 # feok
    302      1   2  0.425000    18.829999864     4.117419881     6.433950460   0   0   0 # hoy
    303      1   3 -1.050000    18.829999864     0.984700000     5.462437316   0   0   0 # obsk
    304      1   4 -0.950000    18.829999864     3.187679923     6.922681103   0   0   0 # ohk
    305      1   1  1.575000    18.829999864     4.357411930    13.838268690   0   0   0 # feok
    306      1   2  0.425000    18.829999864     2.752580004    21.304050005   0   0   0 # hoy
    307      1   3 -1.050000    18.829999864     1.305299962    20.332536860   0   0   0 # obsk
    308      1   4 -0.950000    18.829999864     3.682319962    21.792780648   0   0   0 # ohk
    309      1   1  1.575000    20.336399853     2.067411968    15.902238583   0   0   0 # feok
    310      1   2  0.425000    20.336399853     0.462580043    18.349856965   0   0   0 # hoy
    311      1   3 -1.050000    20.336399853     3.595299924    19.321370110   0   0   0 # obsk
    312      1   4 -0.950000    20.336399853     1.392320000    17.861126322   0   0   0 # ohk
    313      1   1  1.575000    20.336399853     0.222587994    20.858938431   0   0   0 # feok
    314      1   2  0.425000    20.336399853     1.827419919    13.393157117   0   0   0 # hoy
    315      1   3 -1.050000    20.336399853     3.274699962    14.364670262   0   0   0 # obsk
    316      1   4 -0.950000    20.336399853     0.897679962    12.904426474   0   0   0 # ohk
    317      1   1  1.575000    18.829999864     2.512587955    18.794968539   0   0   0 # feok
    318      1   2  0.425000    18.829999864     4.117419881    16.347350157   0   0   0 # hoy
    319      1   3 -1.050000    18.829999864     0.984700000    15.375837012   0   0   0 # obsk
    320      1   4 -0.950000    18.829999864     3.187679923    16.836080799   0   0   0 # ohk
    321      1   1  1.575000    18.829999864     4.357411930    23.751668387   0   0   0 # feok
    322      1   2  0.425000    18.829999864     2.752580004    31.217449701   0   0   0 # hoy
    323      1   3 -1.050000    18.829999864     1.305299962    30.245936556   0   0   0 # obsk
    324      1   4 -0.950000    18.829999864     3.682319962    31.706180344   0   0   0 # ohk
    325      1   1  1.575000    20.336399853     2.067411968    25.815638280   0   0   0 # feok
    326      1   2  0.425000    20.336399853     0.462580043    28.263256661   0   0   0 # hoy
    327      1   3 -1.050000    20.336399853     3.595299924    29.234769806   0   0   0 # obsk
    328      1   4 -0.950000    20.336399853     1.392320000    27.774526019   0   0   0 # ohk
    329      1   1  1.575000    20.336399853     0.222587994    30.772338128   0   0   0 # feok
    330      1   2  0.425000    20.336399853     1.827419919    23.306556813   0   0   0 # hoy
    331      1   3 -1.050000    20.336399853     3.274699962    24.278069958   0   0   0 # obsk
    332      1   4 -0.950000    20.336399853     0.897679962    22.817826171   0   0   0 # ohk
    333      1   1  1.575000    18.829999864     2.512587955    28.708368235   0   0   0 # feok
    334      1   2  0.425000    18.829999864     4.117419881    26.260749853   0   0   0 # hoy
    335      1   3 -1.050000    18.829999864     0.984700000    25.289236708   0   0   0 # obsk
    336      1   4 -0.950000    18.829999864     3.187679923    26.749480496   0   0   0 # ohk
    337      1   1  1.575000    21.842799842     4.357411930     3.924868994   0   0   0 # feok
    338      1   2  0.425000    21.842799842     2.752580004    11.390650309   0   0   0 # hoy
    339      1   3 -1.050000    21.842799842     1.305299962    10.419137164   0   0   0 # obsk
    340      1   4 -0.950000    21.842799842     3.682319962    11.879380951   0   0   0 # ohk
    341      1   1  1.575000    23.349199831     2.067411968     5.988838887   0   0   0 # feok
    342      1   2  0.425000    23.349199831     0.462580043     8.436457269   0   0   0 # hoy
    343      1   3 -1.050000    23.349199831     3.595299924     9.407970414   0   0   0 # obsk
    344      1   4 -0.950000    23.349199831     1.392320000     7.947726626   0   0   0 # ohk
    345      1   1  1.575000    23.349199831     0.222587994    10.945538735   0   0   0 # feok
    346      1   2  0.425000    23.349199831     1.827419919     3.479757421   0   0   0 # hoy
    347      1   3 -1.050000    23.349199831     3.274699962     4.451270565   0   0   0 # obsk
    348      1   4 -0.950000    23.349199831     0.897679962     2.991026778   0   0   0 # ohk
    349      1   1  1.575000    21.842799842     2.512587955     8.881568842   0   0   0 # feok
    350      1   2  0.425000    21.842799842     4.117419881     6.433950460   0   0   0 # hoy
    351      1   3 -1.050000    21.842799842     0.984700000     5.462437316   0   0   0 # obsk
    352      1   4 -0.950000    21.842799842     3.187679923     6.922681103   0   0   0 # ohk
    353      1   1  1.575000    21.842799842     4.357411930    13.838268690   0   0   0 # feok
    354      1   2  0.425000    21.842799842     2.752580004    21.304050005   0   0   0 # hoy
    355      1   3 -1.050000    21.842799842     1.305299962    20.332536860   0   0   0 # obsk
    356      1   4 -0.950000    21.842799842     3.682319962    21.792780648   0   0   0 # ohk
    357      1   1  1.575000    23.349199831     2.067411968    15.902238583   0   0   0 # feok
    358      1   2  0.425000    23.349199831     0.462580043    18.349856965   0   0   0 # hoy
    359      1   3 -1.050000    23.349199831     3.595299924    19.321370110   0   0   0 # obsk
    360      1   4 -0.950000    23.349199831     1.392320000    17.861126322   0   0   0 # ohk
    361      1   1  1.575000    23.349199831     0.222587994    20.858938431   0   0   0 # feok
    362      1   2  0.425000    23.349199831     1.827419919    13.393157117   0   0   0 # hoy
    363      1   3 -1.050000    23.349199831     3.274699962    14.364670262   0   0   0 # obsk
    364      1   4 -0.950000    23.349199831     0.897679962    12.904426474   0   0   0 # ohk
    365      1   1  1.575000    21.842799842     2.512587955    18.794968539   0   0   0 # feok
    366      1   2  0.425000    21.842799842     4.117419881    16.347350157   0   0   0 # hoy
    367      1   3 -1.050000    21.842799842     0.984700000    15.375837012   0   0   0 # obsk
    368      1   4 -0.950000    21.842799842     3.187679923    16.836080799   0   0   0 # ohk
    369      1   1  1.575000    21.842799842     4.357411930    23.751668387   0   0   0 # feok
    370      1   2  0.425000    21.842799842     2.752580004    31.217449701   0   0   0 # hoy
    371      1   3 -1.050000    21.842799842     1.305299962    30.245936556   0   0   0 # obsk
    372      1   4 -0.950000    21.842799842     3.682319962    31.706180344   0   0   0 # ohk
    373      1   1  1.575000    23.349199831     2.067411968    25.815638280   0   0   0 # feok
    374      1   2  0.425000    23.349199831     0.462580043    28.263256661   0   0   0 # hoy
    375      1   3 -1.050000    23.349199831     3.595299924    29.234769806   0   0   0 # obsk
    376      1   4 -0.950000    23.349199831     1.392320000    27.774526019   0   0   0 # ohk
    377      1   1  1.575000    23.349199831     0.222587994    30.772338128   0   0   0 # feok
    378      1   2  0.425000    23.349199831     1.827419919    23.306556813   0   0   0 # hoy
    379      1   3 -1.050000    23.349199831     3.274699962    24.278069958   0   0   0 # obsk
    380      1   4 -0.950000    23.349199831     0.897679962    22.817826171   0   0   0 # ohk
    381      1   1  1.575000    21.842799842     2.512587955    28.708368235   0   0   0 # feok
    382      1   2  0.425000    21.842799842     4.117419881    26.260749853   0   0   0 # hoy
    383      1   3 -1.050000    21.842799842     0.984700000    25.289236708   0   0   0 # obsk
    384      1   4 -0.950000    21.842799842     3.187679923    26.749480496   0   0   0 # ohk
    385      1   1  1.575000    24.855599821     4.357411930     3.924868994   0   0   0 # feok
    386      1   2  0.425000    24.855599821     2.752580004    11.390650309   0   0   0 # hoy
    387      1   3 -1.050000    24.855599821     1.305299962    10.419137164   0   0   0 # obsk
    388      1   4 -0.950000    24.855599821     3.682319962    11.879380951   0   0   0 # ohk
    389      1   1  1.575000    26.361999810     2.067411968     5.988838887   0   0   0 # feok
    390      1   2  0.425000    26.361999810     0.462580043     8.436457269   0   0   0 # hoy
    391      1   3 -1.050000    26.361999810     3.595299924     9.407970414   0   0   0 # obsk
    392      1   4 -0.950000    26.361999810     1.392320000     7.947726626   0   0   0 # ohk
    393      1   1  1.575000    26.361999810     0.222587994    10.945538735   0   0   0 # feok
    394      1   2  0.425000    26.361999810     1.827419919     3.479757421   0   0   0 # hoy
    395      1   3 -1.050000    26.361999810     3.274699962     4.451270565   0   0   0 # obsk
    396      1   4 -0.950000    26.361999810     0.897679962     2.991026778   0   0   0 # ohk
    397      1   1  1.575000    24.855599821     2.512587955     8.881568842   0   0   0 # feok
    398      1   2  0.425000    24.855599821     4.117419881     6.433950460   0   0   0 # hoy
    399      1   3 -1.050000    24.855599821     0.984700000     5.462437316   0   0   0 # obsk
    400      1   4 -0.950000    24.855599821     3.187679923     6.922681103   0   0   0 # ohk
    401      1   1  1.575000    24.855599821     4.357411930    13.838268690   0   0   0 # feok
    402      1   2  0.425000    24.855599821     2.752580004    21.304050005   0   0   0 # hoy
    403      1   3 -1.050000    24.855599821     1.305299962    20.332536860   0   0   0 # obsk
    404      1   4 -0.950000    24.855599821     3.682319962    21.792780648   0   0   0 # ohk
    405      1   1  1.575000    26.361999810     2.067411968    15.902238583   0   0   0 # feok
    406      1   2  0.425000    26.361999810     0.462580043    18.349856965   0   0   0 # hoy
    407      1   3 -1.050000    26.361999810     3.595299924    19.321370110   0   0   0 # obsk
    408      1   4 -0.950000    26.361999810     1.392320000    17.861126322   0   0   0 # ohk
    409      1   1  1.575000    26.361999810     0.222587994    20.858938431   0   0   0 # feok
    410      1   2  0.425000    26.361999810     1.827419919    13.393157117   0   0   0 # hoy
    411      1   3 -1.050000    26.361999810     3.274699962    14.364670262   0   0   0 # obsk
    412      1   4 -0.950000    26.361999810     0.897679962    12.904426474   0   0   0 # ohk
    413      1   1  1.575000    24.855599821     2.512587955    18.794968539   0   0   0 # feok
    414      1   2  0.425000    24.855599821     4.117419881    16.347350157   0   0   0 # hoy
    415      1   3 -1.050000    24.855599821     0.984700000    15.375837012   0   0   0 # obsk
    416      1   4 -0.950000    24.855599821     3.187679923    16.836080799   0   0   0 # ohk
    417      1   1  1.575000    24.855599821     4.357411930    23.751668387   0   0   0 # feok
    418      1   2  0.425000    24.855599821     2.752580004    31.217449701   0   0   0 # hoy
    419      1   3 -1.050000    24.855599821     1.305299962    30.245936556   0   0   0 # obsk
    420      1   4 -0.950000    24.855599821     3.682319962    31.706180344   0   0   0 # ohk
    421      1   1  1.575000    26.361999810     2.067411968    25.815638280   0   0   0 # feok
    422      1   2  0.425000    26.361999810     0.462580043    28.263256661   0   0   0 # hoy
    423      1   3 -1.050000    26.361999810     3.595299924    29.234769806   0   0   0 # obsk
    424      1   4 -0.950000    26.361999810     1.392320000    27.774526019   0   0   0 # ohk
    425      1   1  1.575000    26.361999810     0.222587994    30.772338128   0   0   0 # feok
    426      1   2  0.425000    26.361999810     1.827419919    23.306556813   0   0   0 # hoy
    427      1   3 -1.050000    26.361999810     3.274699962    24.278069958   0   0   0 # obsk
    428      1   4 -0.950000    26.361999810     0.897679962    22.817826171   0   0   0 # ohk
    429      1   1  1.575000    24.855599821     2.512587955    28.708368235   0   0   0 # feok
    430      1   2  0.425000    24.855599821     4.117419881    26.260749853   0   0   0 # hoy
    431      1   3 -1.050000    24.855599821     0.984700000    25.289236708   0   0   0 # obsk
    432      1   4 -0.950000    24.855599821     3.187679923    26.749480496   0   0   0 # ohk
    433      1   1  1.575000     0.753199995     8.937411854     3.924868994   0   0   0 # feok
    434      1   2  0.425000     0.753199995     7.332579928    11.390650309   0   0   0 # hoy
    435      1   3 -1.050000     0.753199995     5.885299886    10.419137164   0   0   0 # obsk
    436      1   4 -0.950000     0.753199995     8.262319886    11.879380951   0   0   0 # ohk
    437      1   1  1.575000     2.259599984     6.647411892     5.988838887   0   0   0 # feok
    438      1   2  0.425000     2.259599984     5.042579966     8.436457269   0   0   0 # hoy
    439      1   3 -1.050000     2.259599984     8.175299847     9.407970414   0   0   0 # obsk
    440      1   4 -0.950000     2.259599984     5.972319924     7.947726626   0   0   0 # ohk
    441      1   1  1.575000     2.259599984     4.802587917    10.945538735   0   0   0 # feok
    442      1   2  0.425000     2.259599984     6.407419843     3.479757421   0   0   0 # hoy
    443      1   3 -1.050000     2.259599984     7.854699886     4.451270565   0   0   0 # obsk
    444      1   4 -0.950000     2.259599984     5.477679885     2.991026778   0   0   0 # ohk
    445      1   1  1.575000     0.753199995     7.092587879     8.881568842   0   0   0 # feok
    446      1   2  0.425000     0.753199995     8.697419805     6.433950460   0   0   0 # hoy
    447      1   3 -1.050000     0.753199995     5.564699924     5.462437316   0   0   0 # obsk
    448      1   4 -0.950000     0.753199995     7.767679847     6.922681103   0   0   0 # ohk
    449      1   1  1.575000     0.753199995     8.937411854    13.838268690   0   0   0 # feok
    450      1   2  0.425000     0.753199995     7.332579928    21.304050005   0   0   0 # hoy
    451      1   3 -1.050000     0.753199995     5.885299886    20.332536860   0   0   0 # obsk
    452      1   4 -0.950000     0.753199995     8.262319886    21.792780648   0   0   0 # ohk
    453      1   1  1.575000     2.259599984     6.647411892    15.902238583   0   0   0 # feok
    454      1   2  0.425000     2.259599984     5.042579966    18.349856965   0   0   0 # hoy
    455      1   3 -1.050000     2.259599984     8.175299847    19.321370110   0   0   0 # obsk
    456      1   4 -0.950000     2.259599984     5.972319924    17.861126322   0   0   0 # ohk
    457      1   1  1.575000     2.259599984     4.802587917    20.858938431   0   0   0 # feok
    458      1   2  0.425000     2.259599984     6.407419843    13.393157117   0   0   0 # hoy
    459      1   3 -1.050000     2.259599984     7.854699886    14.364670262   0   0   0 # obsk
    460      1   4 -0.950000     2.259599984     5.477679885    12.904426474   0   0   0 # ohk
    461      1   1  1.575000     0.753199995     7.092587879    18.794968539   0   0   0 # feok
    462      1   2  0.425000     0.753199995     8.697419805    16.347350157   0   0   0 # hoy
    463      1   3 -1.050000     0.753199995     5.564699924    15.375837012   0   0   0 # obsk
    464      1   4 -0.950000     0.753199995     7.767679847    16.836080799   0   0   0 # ohk
    465      1   1  1.575000     0.753199995     8.937411854    23.751668387   0   0   0 # feok
    466      1   2  0.425000     0.753199995     7.332579928    31.217449701   0   0   0 # hoy
    467      1   3 -1.050000     0.753199995     5.885299886    30.245936556   0   0   0 # obsk
    468      1   4 -0.950000     0.753199995     8.262319886    31.706180344   0   0   0 # ohk
    469      1   1  1.575000     2.259599984     6.647411892    25.815638280   0   0   0 # feok
    470      1   2  0.425000     2.259599984     5.042579966    28.263256661   0   0   0 # hoy
    471      1   3 -1.050000     2.259599984     8.175299847    29.234769806   0   0   0 # obsk
    472      1   4 -0.950000     2.259599984     5.972319924    27.774526019   0   0   0 # ohk
    473      1   1  1.575000     2.259599984     4.802587917    30.772338128   0   0   0 # feok
    474      1   2  0.425000     2.259599984     6.407419843    23.306556813   0   0   0 # hoy
    475      1   3 -1.050000     2.259599984     7.854699886    24.278069958   0   0   0 # obsk
    476      1   4 -0.950000     2.259599984     5.477679885    22.817826171   0   0   0 # ohk
    477      1   1  1.575000     0.753199995     7.092587879    28.708368235   0   0   0 # feok
    478      1   2  0.425000     0.753199995     8.697419805    26.260749853   0   0   0 # hoy
    479      1   3 -1.050000     0.753199995     5.564699924    25.289236708   0   0   0 # obsk
    480      1   4 -0.950000     0.753199995     7.767679847    26.749480496   0   0   0 # ohk
    481      1   1  1.575000     3.765999973     8.937411854     3.924868994   0   0   0 # feok
    482      1   2  0.425000     3.765999973     7.332579928    11.390650309   0   0   0 # hoy
    483      1   3 -1.050000     3.765999973     5.885299886    10.419137164   0   0   0 # obsk
    484      1   4 -0.950000     3.765999973     8.262319886    11.879380951   0   0   0 # ohk
    485      1   1  1.575000     5.272399962     6.647411892     5.988838887   0   0   0 # feok
    486      1   2  0.425000     5.272399962     5.042579966     8.436457269   0   0   0 # hoy
    487      1   3 -1.050000     5.272399962     8.175299847     9.407970414   0   0   0 # obsk
    488      1   4 -0.950000     5.272399962     5.972319924     7.947726626   0   0   0 # ohk
    489      1   1  1.575000     5.272399962     4.802587917    10.945538735   0   0   0 # feok
    490      1   2  0.425000     5.272399962     6.407419843     3.479757421   0   0   0 # hoy
    491      1   3 -1.050000     5.272399962     7.854699886     4.451270565   0   0   0 # obsk
    492      1   4 -0.950000     5.272399962     5.477679885     2.991026778   0   0   0 # ohk
    493      1   1  1.575000     3.765999973     7.092587879     8.881568842   0   0   0 # feok
    494      1   2  0.425000     3.765999973     8.697419805     6.433950460   0   0   0 # hoy
    495      1   3 -1.050000     3.765999973     5.564699924     5.462437316   0   0   0 # obsk
    496      1   4 -0.950000     3.765999973     7.767679847     6.922681103   0   0   0 # ohk
    497      1   1  1.575000     3.765999973     8.937411854    13.838268690   0   0   0 # feok
    498      1   2  0.425000     3.765999973     7.332579928    21.304050005   0   0   0 # hoy
    499      1   3 -1.050000     3.765999973     5.885299886    20.332536860   0   0   0 # obsk
    500      1   4 -0.950000     3.765999973     8.262319886    21.792780648   0   0   0 # ohk
    501      1   1  1.575000     5.272399962     6.647411892    15.902238583   0   0   0 # feok
    502      1   2  0.425000     5.272399962     5.042579966    18.349856965   0   0   0 # hoy
    503      1   3 -1.050000     5.272399962     8.175299847    19.321370110   0   0   0 # obsk
    504      1   4 -0.950000     5.272399962     5.972319924    17.861126322   0   0   0 # ohk
    505      1   1  1.575000     5.272399962     4.802587917    20.858938431   0   0   0 # feok
    506      1   2  0.425000     5.272399962     6.407419843    13.393157117   0   0   0 # hoy
    507      1   3 -1.050000     5.272399962     7.854699886    14.364670262   0   0   0 # obsk
    508      1   4 -0.950000     5.272399962     5.477679885    12.904426474   0   0   0 # ohk
    509      1   1  1.575000     3.765999973     7.092587879    18.794968539   0   0   0 # feok
    510      1   2  0.425000     3.765999973     8.697419805    16.347350157   0   0   0 # hoy
    511      1   3 -1.050000     3.765999973     5.564699924    15.375837012   0   0   0 # obsk
    512      1   4 -0.950000     3.765999973     7.767679847    16.836080799   0   0   0 # ohk
    513      1   1  1.575000     3.765999973     8.937411854    23.751668387   0   0   0 # feok
    514      1   2  0.425000     3.765999973     7.332579928    31.217449701   0   0   0 # hoy
    515      1   3 -1.050000     3.765999973     5.885299886    30.245936556   0   0   0 # obsk
    516      1   4 -0.950000     3.765999973     8.262319886    31.706180344   0   0   0 # ohk
    517      1   1  1.575000     5.272399962     6.647411892    25.815638280   0   0   0 # feok
    518      1   2  0.425000     5.272399962     5.042579966    28.263256661   0   0   0 # hoy
    519      1   3 -1.050000     5.272399962     8.175299847    29.234769806   0   0   0 # obsk
    520      1   4 -0.950000     5.272399962     5.972319924    27.774526019   0   0   0 # ohk
    521      1   1  1.575000     5.272399962     4.802587917    30.772338128   0   0   0 # feok
    522      1   2  0.425000     5.272399962     6.407419843    23.306556813   0   0   0 # hoy
    523      1   3 -1.050000     5.272399962     7.854699886    24.278069958   0   0   0 # obsk
    524      1   4 -0.950000     5.272399962     5.477679885    22.817826171   0   0   0 # ohk
    525      1   1  1.575000     3.765999973     7.092587879    28.708368235   0   0   0 # feok
    526      1   2  0.425000     3.765999973     8.697419805    26.260749853   0   0   0 # hoy
    527      1   3 -1.050000     3.765999973     5.564699924    25.289236708   0   0   0 # obsk
    528      1   4 -0.950000     3.765999973     7.767679847    26.749480496   0   0   0 # ohk
    529      1   1  1.575000     6.778799951     8.937411854     3.924868994   0   0   0 # feok
    530      1   2  0.425000     6.778799951     7.332579928    11.390650309   0   0   0 # hoy
    531      1   3 -1.050000     6.778799951     5.885299886    10.419137164   0   0   0 # obsk
    532      1   4 -0.950000     6.778799951     8.262319886    11.879380951   0   0   0 # ohk
    533      1   1  1.575000     8.285199940     6.647411892     5.988838887   0   0   0 # feok
    534      1   2  0.425000     8.285199940     5.042579966     8.436457269   0   0   0 # hoy
    535      1   3 -1.050000     8.285199940     8.175299847     9.407970414   0   0   0 # obsk
    536      1   4 -0.950000     8.285199940     5.972319924     7.947726626   0   0   0 # ohk
    537      1   1  1.575000     8.285199940     4.802587917    10.945538735   0   0   0 # feok
    538      1   2  0.425000     8.285199940     6.407419843     3.479757421   0   0   0 # hoy
    539      1   3 -1.050000     8.285199940     7.854699886     4.451270565   0   0   0 # obsk
    540      1   4 -0.950000     8.285199940     5.477679885     2.991026778   0   0   0 # ohk
    541      1   1  1.575000     6.778799951     7.092587879     8.881568842   0   0   0 # feok
    542      1   2  0.425000     6.778799951     8.697419805     6.433950460   0   0   0 # hoy
    543      1   3 -1.050000     6.778799951     5.564699924     5.462437316   0   0   0 # obsk
    544      1   4 -0.950000     6.778799951     7.767679847     6.922681103   0   0   0 # ohk
    545      1   1  1.575000     6.778799951     8.937411854    13.838268690   0   0   0 # feok
    546      1   2  0.425000     6.778799951     7.332579928    21.304050005   0   0   0 # hoy
    547      1   3 -1.050000     6.778799951     5.885299886    20.332536860   0   0   0 # obsk
    548      1   4 -0.950000     6.778799951     8.262319886    21.792780648   0   0   0 # ohk
    549      1   1  1.575000     8.285199940     6.647411892    15.902238583   0   0   0 # feok
    550      1   2  0.425000     8.285199940     5.042579966    18.349856965   0   0   0 # hoy
    551      1   3 -1.050000     8.285199940     8.175299847    19.321370110   0   0   0 # obsk
    552      1   4 -0.950000     8.285199940     5.972319924    17.861126322   0   0   0 # ohk
    553      1   1  1.575000     8.285199940     4.802587917    20.858938431   0   0   0 # feok
    554      1   2  0.425000     8.285199940     6.407419843    13.393157117   0   0   0 # hoy
    555      1   3 -1.050000     8.285199940     7.854699886    14.364670262   0   0   0 # obsk
    556      1   4 -0.950000     8.285199940     5.477679885    12.904426474   0   0   0 # ohk
    557      1   1  1.575000     6.778799951     7.092587879    18.794968539   0   0   0 # feok
    558      1   2  0.425000     6.778799951     8.697419805    16.347350157   0   0   0 # hoy
    559      1   3 -1.050000     6.778799951     5.564699924    15.375837012   0   0   0 # obsk
    560      1   4 -0.950000     6.778799951     7.767679847    16.836080799   0   0   0 # ohk
    561      1   1  1.575000     6.778799951     8.937411854    23.751668387   0   0   0 # feok
    562      1   2  0.425000     6.778799951     7.332579928    31.217449701   0   0   0 # hoy
    563      1   3 -1.050000     6.778799951     5.885299886    30.245936556   0   0   0 # obsk
    564      1   4 -0.950000     6.778799951     8.262319886    31.706180344   0   0   0 # ohk
    565      1   1  1.575000     8.285199940     6.647411892    25.815638280   0   0   0 # feok
    566      1   2  0.425000     8.285199940     5.042579966    28.263256661   0   0   0 # hoy
    567      1   3 -1.050000     8.285199940     8.175299847    29.234769806   0   0   0 # obsk
    568      1   4 -0.950000     8.285199940     5.972319924    27.774526019   0   0   0 # ohk
    569      1   1  1.575000     8.285199940     4.802587917    30.772338128   0   0   0 # feok
    570      1   2  0.425000     8.285199940     6.407419843    23.306556813   0   0   0 # hoy
    571      1   3 -1.050000     8.285199940     7.854699886    24.278069958   0   0   0 # obsk
    572      1   4 -0.950000     8.285199940     5.477679885    22.817826171   0   0   0 # ohk
    573      1   1  1.575000     6.778799951     7.092587879    28.708368235   0   0   0 # feok
    574      1   2  0.425000     6.778799951     8.697419805    26.260749853   0   0   0 # hoy
    575      1   3 -1.050000     6.778799951     5.564699924    25.289236708   0   0   0 # obsk
    576      1   4 -0.950000     6.778799951     7.767679847    26.749480496   0   0   0 # ohk
    577      1   1  1.575000     9.791599929     8.937411854     3.924868994   0   0   0 # feok
    578      1   2  0.425000     9.791599929     7.332579928    11.390650309   0   0   0 # hoy
    579      1   3 -1.050000     9.791599929     5.885299886    10.419137164   0   0   0 # obsk
    580      1   4 -0.950000     9.791599929     8.262319886    11.879380951   0   0   0 # ohk
    581      1   1  1.575000    11.297999918     6.647411892     5.988838887   0   0   0 # feok
    582      1   2  0.425000    11.297999918     5.042579966     8.436457269   0   0   0 # hoy
    583      1   3 -1.050000    11.297999918     8.175299847     9.407970414   0   0   0 # obsk
    584      1   4 -0.950000    11.297999918     5.972319924     7.947726626   0   0   0 # ohk
    585      1   1  1.575000    11.297999918     4.802587917    10.945538735   0   0   0 # feok
    586      1   2  0.425000    11.297999918     6.407419843     3.479757421   0   0   0 # hoy
    587      1   3 -1.050000    11.297999918     7.854699886     4.451270565   0   0   0 # obsk
    588      1   4 -0.950000    11.297999918     5.477679885     2.991026778   0   0   0 # ohk
    589      1   1  1.575000     9.791599929     7.092587879     8.881568842   0   0   0 # feok
    590      1   2  0.425000     9.791599929     8.697419805     6.433950460   0   0   0 # hoy
    591      1   3 -1.050000     9.791599929     5.564699924     5.462437316   0   0   0 # obsk
    592      1   4 -0.950000     9.791599929     7.767679847     6.922681103   0   0   0 # ohk
    593      1   1  1.575000     9.791599929     8.937411854    13.838268690   0   0   0 # feok
    594      1   2  0.425000     9.791599929     7.332579928    21.304050005   0   0   0 # hoy
    595      1   3 -1.050000     9.791599929     5.885299886    20.332536860   0   0   0 # obsk
    596      1   4 -0.950000     9.791599929     8.262319886    21.792780648   0   0   0 # ohk
    597      1   1  1.575000    11.297999918     6.647411892    15.902238583   0   0   0 # feok
    598      1   2  0.425000    11.297999918     5.042579966    18.349856965   0   0   0 # hoy
    599      1   3 -1.050000    11.297999918     8.175299847    19.321370110   0   0   0 # obsk
    600      1   4 -0.950000    11.297999918     5.972319924    17.861126322   0   0   0 # ohk
    601      1   1  1.575000    11.297999918     4.802587917    20.858938431   0   0   0 # feok
    602      1   2  0.425000    11.297999918     6.407419843    13.393157117   0   0   0 # hoy
    603      1   3 -1.050000    11.297999918     7.854699886    14.364670262   0   0   0 # obsk
    604      1   4 -0.950000    11.297999918     5.477679885    12.904426474   0   0   0 # ohk
    605      1   1  1.575000     9.791599929     7.092587879    18.794968539   0   0   0 # feok
    606      1   2  0.425000     9.791599929     8.697419805    16.347350157   0   0   0 # hoy
    607      1   3 -1.050000     9.791599929     5.564699924    15.375837012   0   0   0 # obsk
    608      1   4 -0.950000     9.791599929     7.767679847    16.836080799   0   0   0 # ohk
    609      1   1  1.575000     9.791599929     8.937411854    23.751668387   0   0   0 # feok
    610      1   2  0.425000     9.791599929     7.332579928    31.217449701   0   0   0 # hoy
    611      1   3 -1.050000     9.791599929     5.885299886    30.245936556   0   0   0 # obsk
    612      1   4 -0.950000     9.791599929     8.262319886    31.706180344   0   0   0 # ohk
    613      1   1  1.575000    11.297999918     6.647411892    25.815638280   0   0   0 # feok
    614      1   2  0.425000    11.297999918     5.042579966    28.263256661   0   0   0 # hoy
    615      1   3 -1.050000    11.297999918     8.175299847    29.234769806   0   0   0 # obsk
    616      1   4 -0.950000    11.297999918     5.972319924    27.774526019   0   0   0 # ohk
    617      1   1  1.575000    11.297999918     4.802587917    30.772338128   0   0   0 # feok
    618      1   2  0.425000    11.297999918     6.407419843    23.306556813   0   0   0 # hoy
    619      1   3 -1.050000    11.297999918     7.854699886    24.278069958   0   0   0 # obsk
    620      1   4 -0.950000    11.297999918     5.477679885    22.817826171   0   0   0 # ohk
    621      1   1  1.575000     9.791599929     7.092587879    28.708368235   0   0   0 # feok
    622      1   2  0.425000     9.791599929     8.697419805    26.260749853   0   0   0 # hoy
    623      1   3 -1.050000     9.791599929     5.564699924    25.289236708   0   0   0 # obsk
    624      1   4 -0.950000     9.791599929     7.767679847    26.749480496   0   0   0 # ohk
    625      1   1  1.575000    12.804399908     8.937411854     3.924868994   0   0   0 # feok
    626      1   2  0.425000    12.804399908     7.332579928    11.390650309   0   0   0 # hoy
    627      1   3 -1.050000    12.804399908     5.885299886    10.419137164   0   0   0 # obsk
    628      1   4 -0.950000    12.804399908     8.262319886    11.879380951   0   0   0 # ohk
    629      1   1  1.575000    14.310799897     6.647411892     5.988838887   0   0   0 # feok
    630      1   2  0.425000    14.310799897     5.042579966     8.436457269   0   0   0 # hoy
    631      1   3 -1.050000    14.310799897     8.175299847     9.407970414   0   0   0 # obsk
    632      1   4 -0.950000    14.310799897     5.972319924     7.947726626   0   0   0 # ohk
    633      1   1  1.575000    14.310799897     4.802587917    10.945538735   0   0   0 # feok
    634      1   2  0.425000    14.310799897     6.407419843     3.479757421   0   0   0 # hoy
    635      1   3 -1.050000    14.310799897     7.854699886     4.451270565   0   0   0 # obsk
    636      1   4 -0.950000    14.310799897     5.477679885     2.991026778   0   0   0 # ohk
    637      1   1  1.575000    12.804399908     7.092587879     8.881568842   0   0   0 # feok
    638      1   2  0.425000    12.804399908     8.697419805     6.433950460   0   0   0 # hoy
    639      1   3 -1.050000    12.804399908     5.564699924     5.462437316   0   0   0 # obsk
    640      1   4 -0.950000    12.804399908     7.767679847     6.922681103   0   0   0 # ohk
    641      1   1  1.575000    12.804399908     8.937411854    13.838268690   0   0   0 # feok
    642      1   2  0.425000    12.804399908     7.332579928    21.304050005   0   0   0 # hoy
    643      1   3 -1.050000    12.804399908     5.885299886    20.332536860   0   0   0 # obsk
    644      1   4 -0.950000    12.804399908     8.262319886    21.792780648   0   0   0 # ohk
    645      1   1  1.575000    14.310799897     6.647411892    15.902238583   0   0   0 # feok
    646      1   2  0.425000    14.310799897     5.042579966    18.349856965   0   0   0 # hoy
    647      1   3 -1.050000    14.310799897     8.175299847    19.321370110   0   0   0 # obsk
    648      1   4 -0.950000    14.310799897     5.972319924    17.861126322   0   0   0 # ohk
    649      1   1  1.575000    14.310799897     4.802587917    20.858938431   0   0   0 # feok
    650      1   2  0.425000    14.310799897     6.407419843    13.393157117   0   0   0 # hoy
    651      1   3 -1.050000    14.310799897     7.854699886    14.364670262   0   0   0 # obsk
    652      1   4 -0.950000    14.310799897     5.477679885    12.904426474   0   0   0 # ohk
    653      1   1  1.575000    12.804399908     7.092587879    18.794968539   0   0   0 # feok
    654      1   2  0.425000    12.804399908     8.697419805    16.347350157   0   0   0 # hoy
    655      1   3 -1.050000    12.804399908     5.564699924    15.375837012   0   0   0 # obsk
    656      1   4 -0.950000    12.804399908     7.767679847    16.836080799   0   0   0 # ohk
    657      1   1  1.575000    12.804399908     8.937411854    23.751668387   0   0   0 # feok
    658      1   2  0.425000    12.804399908     7.332579928    31.217449701   0   0   0 # hoy
    659      1   3 -1.050000    12.804399908     5.885299886    30.245936556   0   0   0 # obsk
    660      1   4 -1.009400    12.804399908     8.262319886    31.706180344   0   0   0 # ohk
    661      1   1  1.575000    14.310799897     6.647411892    25.815638280   0   0   0 # feok
    662      1   2  0.425000    14.310799897     5.042579966    28.263256661   0   0   0 # hoy
    663      1   3 -1.109400    14.310799897     8.175299847    29.234769806   0   0   0 # obsk
    664      1   4 -0.950000    14.310799897     5.972319924    27.774526019   0   0   0 # ohk
    665      1   1  1.575000    14.310799897     4.802587917    30.772338128   0   0   0 # feok
    666      1   2  0.425000    14.310799897     6.407419843    23.306556813   0   0   0 # hoy
    667      1   3 -1.050000    14.310799897     7.854699886    24.278069958   0   0   0 # obsk
    668      1   4 -0.950000    14.310799897     5.477679885    22.817826171   0   0   0 # ohk
    669      1   1  1.575000    12.804399908     7.092587879    28.708368235   0   0   0 # feok
    670      1   2  0.425000    12.804399908     8.697419805    26.260749853   0   0   0 # hoy
    671      1   3 -1.050000    12.804399908     5.564699924    25.289236708   0   0   0 # obsk
    672      1   4 -0.950000    12.804399908     7.767679847    26.749480496   0   0   0 # ohk
    673      1   1  1.575000    15.817199886     8.937411854     3.924868994   0   0   0 # feok
    674      1   2  0.425000    15.817199886     7.332579928    11.390650309   0   0   0 # hoy
    675      1   3 -1.050000    15.817199886     5.885299886    10.419137164   0   0   0 # obsk
    676      1   4 -0.950000    15.817199886     8.262319886    11.879380951   0   0   0 # ohk
    677      1   1  1.575000    17.323599875     6.647411892     5.988838887   0   0   0 # feok
    678      1   2  0.425000    17.323599875     5.042579966     8.436457269   0   0   0 # hoy
    679      1   3 -1.050000    17.323599875     8.175299847     9.407970414   0   0   0 # obsk
    680      1   4 -0.950000    17.323599875     5.972319924     7.947726626   0   0   0 # ohk
    681      1   1  1.575000    17.323599875     4.802587917    10.945538735   0   0   0 # feok
    682      1   2  0.425000    17.323599875     6.407419843     3.479757421   0   0   0 # hoy
    683      1   3 -1.050000    17.323599875     7.854699886     4.451270565   0   0   0 # obsk
    684      1   4 -0.950000    17.323599875     5.477679885     2.991026778   0   0   0 # ohk
    685      1   1  1.575000    15.817199886     7.092587879     8.881568842   0   0   0 # feok
    686      1   2  0.425000    15.817199886     8.697419805     6.433950460   0   0   0 # hoy
    687      1   3 -1.050000    15.817199886     5.564699924     5.462437316   0   0   0 # obsk
    688      1   4 -0.950000    15.817199886     7.767679847     6.922681103   0   0   0 # ohk
    689      1   1  1.575000    15.817199886     8.937411854    13.838268690   0   0   0 # feok
    690      1   2  0.425000    15.817199886     7.332579928    21.304050005   0   0   0 # hoy
    691      1   3 -1.050000    15.817199886     5.885299886    20.332536860   0   0   0 # obsk
    692      1   4 -0.950000    15.817199886     8.262319886    21.792780648   0   0   0 # ohk
    693      1   1  1.575000    17.323599875     6.647411892    15.902238583   0   0   0 # feok
    694      1   2  0.425000    17.323599875     5.042579966    18.349856965   0   0   0 # hoy
    695      1   3 -1.050000    17.323599875     8.175299847    19.321370110   0   0   0 # obsk
    696      1   4 -0.950000    17.323599875     5.972319924    17.861126322   0   0   0 # ohk
    697      1   1  1.575000    17.323599875     4.802587917    20.858938431   0   0   0 # feok
    698      1   2  0.425000    17.323599875     6.407419843    13.393157117   0   0   0 # hoy
    699      1   3 -1.050000    17.323599875     7.854699886    14.364670262   0   0   0 # obsk
    700      1   4 -0.950000    17.323599875     5.477679885    12.904426474   0   0   0 # ohk
    701      1   1  1.575000    15.817199886     7.092587879    18.794968539   0   0   0 # feok
    702      1   2  0.425000    15.817199886     8.697419805    16.347350157   0   0   0 # hoy
    703      1   3 -1.050000    15.817199886     5.564699924    15.375837012   0   0   0 # obsk
    704      1   4 -0.950000    15.817199886     7.767679847    16.836080799   0   0   0 # ohk
    705      1   1  1.575000    15.817199886     8.937411854    23.751668387   0   0   0 # feok
    706      1   2  0.425000    15.817199886     7.332579928    31.217449701   0   0   0 # hoy
    707      1   3 -1.050000    15.817199886     5.885299886    30.245936556   0   0   0 # obsk
    708      1   4 -1.009400    15.817199886     8.262319886    31.706180344   0   0   0 # ohk
    709      1   1  1.575000    17.323599875     6.647411892    25.815638280   0   0   0 # feok
    710      1   2  0.425000    17.323599875     5.042579966    28.263256661   0   0   0 # hoy
    711      1   3 -1.050000    17.323599875     8.175299847    29.234769806   0   0   0 # obsk
    712      1   4 -0.950000    17.323599875     5.972319924    27.774526019   0   0   0 # ohk
    713      1   1  1.575000    17.323599875     4.802587917    30.772338128   0   0   0 # feok
    714      1   2  0.425000    17.323599875     6.407419843    23.306556813   0   0   0 # hoy
    715      1   3 -1.050000    17.323599875     7.854699886    24.278069958   0   0   0 # obsk
    716      1   4 -0.950000    17.323599875     5.477679885    22.817826171   0   0   0 # ohk
    717      1   1  1.575000    15.817199886     7.092587879    28.708368235   0   0   0 # feok
    718      1   2  0.425000    15.817199886     8.697419805    26.260749853   0   0   0 # hoy
    719      1   3 -1.050000    15.817199886     5.564699924    25.289236708   0   0   0 # obsk
    720      1   4 -0.950000    15.817199886     7.767679847    26.749480496   0   0   0 # ohk
    721      1   1  1.575000    18.829999864     8.937411854     3.924868994   0   0   0 # feok
    722      1   2  0.425000    18.829999864     7.332579928    11.390650309   0   0   0 # hoy
    723      1   3 -1.050000    18.829999864     5.885299886    10.419137164   0   0   0 # obsk
    724      1   4 -0.950000    18.829999864     8.262319886    11.879380951   0   0   0 # ohk
    725      1   1  1.575000    20.336399853     6.647411892     5.988838887   0   0   0 # feok
    726      1   2  0.425000    20.336399853     5.042579966     8.436457269   0   0   0 # hoy
    727      1   3 -1.050000    20.336399853     8.175299847     9.407970414   0   0   0 # obsk
    728      1   4 -0.950000    20.336399853     5.972319924     7.947726626   0   0   0 # ohk
    729      1   1  1.575000    20.336399853     4.802587917    10.945538735   0   0   0 # feok
    730      1   2  0.425000    20.336399853     6.407419843     3.479757421   0   0   0 # hoy
    731      1   3 -1.050000    20.336399853     7.854699886     4.451270565   0   0   0 # obsk
    732      1   4 -0.950000    20.336399853     5.477679885     2.991026778   0   0   0 # ohk
    733      1   1  1.575000    18.829999864     7.092587879     8.881568842   0   0   0 # feok
    734      1   2  0.425000    18.829999864     8.697419805     6.433950460   0   0   0 # hoy
    735      1   3 -1.050000    18.829999864     5.564699924     5.462437316   0   0   0 # obsk
    736      1   4 -0.950000    18.829999864     7.767679847     6.922681103   0   0   0 # ohk
    737      1   1  1.575000    18.829999864     8.937411854    13.838268690   0   0   0 # feok
    738      1   2  0.425000    18.829999864     7.332579928    21.304050005   0   0   0 # hoy
    739      1   3 -1.050000    18.829999864     5.885299886    20.332536860   0   0   0 # obsk
    740      1   4 -0.950000    18.829999864     8.262319886    21.792780648   0   0   0 # ohk
    741      1   1  1.575000    20.336399853     6.647411892    15.902238583   0   0   0 # feok
    742      1   2  0.425000    20.336399853     5.042579966    18.349856965   0   0   0 # hoy
    743      1   3 -1.050000    20.336399853     8.175299847    19.321370110   0   0   0 # obsk
    744      1   4 -0.950000    20.336399853     5.972319924    17.861126322   0   0   0 # ohk
    745      1   1  1.575000    20.336399853     4.802587917    20.858938431   0   0   0 # feok
    746      1   2  0.425000    20.336399853     6.407419843    13.393157117   0   0   0 # hoy
    747      1   3 -1.050000    20.336399853     7.854699886    14.364670262   0   0   0 # obsk
    748      1   4 -0.950000    20.336399853     5.477679885    12.904426474   0   0   0 # ohk
    749      1   1  1.575000    18.829999864     7.092587879    18.794968539   0   0   0 # feok
    750      1   2  0.425000    18.829999864     8.697419805    16.347350157   0   0   0 # hoy
    751      1   3 -1.050000    18.829999864     5.564699924    15.375837012   0   0   0 # obsk
    752      1   4 -0.950000    18.829999864     7.767679847    16.836080799   0   0   0 # ohk
    753      1   1  1.575000    18.829999864     8.937411854    23.751668387   0   0   0 # feok
    754      1   2  0.425000    18.829999864     7.332579928    31.217449701   0   0   0 # hoy
    755      1   3 -1.050000    18.829999864     5.885299886    30.245936556   0   0   0 # obsk
    756      1   4 -0.950000    18.829999864     8.262319886    31.706180344   0   0   0 # ohk
    757      1   1  1.575000    20.336399853     6.647411892    25.815638280   0   0   0 # feok
    758      1   2  0.425000    20.336399853     5.042579966    28.263256661   0   0   0 # hoy
    759      1   3 -1.050000    20.336399853     8.175299847    29.234769806   0   0   0 # obsk
    760      1   4 -0.950000    20.336399853     5.972319924    27.774526019   0   0   0 # ohk
    761      1   1  1.575000    20.336399853     4.802587917    30.772338128   0   0   0 # feok
    762      1   2  0.425000    20.336399853     6.407419843    23.306556813   0   0   0 # hoy
    763      1   3 -1.050000    20.336399853     7.854699886    24.278069958   0   0   0 # obsk
    764      1   4 -0.950000    20.336399853     5.477679885    22.817826171   0   0   0 # ohk
    765      1   1  1.575000    18.829999864     7.092587879    28.708368235   0   0   0 # feok
    766      1   2  0.425000    18.829999864     8.697419805    26.260749853   0   0   0 # hoy
    767      1   3 -1.050000    18.829999864     5.564699924    25.289236708   0   0   0 # obsk
    768      1   4 -0.950000    18.829999864     7.767679847    26.749480496   0   0   0 # ohk
    769      1   1  1.575000    21.842799842     8.937411854     3.924868994   0   0   0 # feok
    770      1   2  0.425000    21.842799842     7.332579928    11.390650309   0   0   0 # hoy
    771      1   3 -1.050000    21.842799842     5.885299886    10.419137164   0   0   0 # obsk
    772      1   4 -0.950000    21.842799842     8.262319886    11.879380951   0   0   0 # ohk
    773      1   1  1.575000    23.349199831     6.647411892     5.988838887   0   0   0 # feok
    774      1   2  0.425000    23.349199831     5.042579966     8.436457269   0   0   0 # hoy
    775      1   3 -1.050000    23.349199831     8.175299847     9.407970414   0   0   0 # obsk
    776      1   4 -0.950000    23.349199831     5.972319924     7.947726626   0   0   0 # ohk
    777      1   1  1.575000    23.349199831     4.802587917    10.945538735   0   0   0 # feok
    778      1   2  0.425000    23.349199831     6.407419843     3.479757421   0   0   0 # hoy
    779      1   3 -1.050000    23.349199831     7.854699886     4.451270565   0   0   0 # obsk
    780      1   4 -0.950000    23.349199831     5.477679885     2.991026778   0   0   0 # ohk
    781      1   1  1.575000    21.842799842     7.092587879     8.881568842   0   0   0 # feok
    782      1   2  0.425000    21.842799842     8.697419805     6.433950460   0   0   0 # hoy
    783      1   3 -1.050000    21.842799842     5.564699924     5.462437316   0   0   0 # obsk
    784      1   4 -0.950000    21.842799842     7.767679847     6.922681103   0   0   0 # ohk
    785      1   1  1.575000    21.842799842     8.937411854    13.838268690   0   0   0 # feok
    786      1   2  0.425000    21.842799842     7.332579928    21.304050005   0   0   0 # hoy
    787      1   3 -1.050000    21.842799842     5.885299886    20.332536860   0   0   0 # obsk
    788      1   4 -0.950000    21.842799842     8.262319886    21.792780648   0   0   0 # ohk
    789      1   1  1.575000    23.349199831     6.647411892    15.902238583   0   0   0 # feok
    790      1   2  0.425000    23.349199831     5.042579966    18.349856965   0   0   0 # hoy
    791      1   3 -1.050000    23.349199831     8.175299847    19.321370110   0   0   0 # obsk
    792      1   4 -0.950000    23.349199831     5.972319924    17.861126322   0   0   0 # ohk
    793      1   1  1.575000    23.349199831     4.802587917    20.858938431   0   0   0 # feok
    794      1   2  0.425000    23.349199831     6.407419843    13.393157117   0   0   0 # hoy
    795      1   3 -1.050000    23.349199831     7.854699886    14.364670262   0   0   0 # obsk
    796      1   4 -0.950000    23.349199831     5.477679885    12.904426474   0   0   0 # ohk
    797      1   1  1.575000    21.842799842     7.092587879    18.794968539   0   0   0 # feok
    798      1   2  0.425000    21.842799842     8.697419805    16.347350157   0   0   0 # hoy
    799      1   3 -1.050000    21.842799842     5.564699924    15.375837012   0   0   0 # obsk
    800      1   4 -0.950000    21.842799842     7.767679847    16.836080799   0   0   0 # ohk
    801      1   1  1.575000    21.842799842     8.937411854    23.751668387   0   0   0 # feok
    802      1   2  0.425000    21.842799842     7.332579928    31.217449701   0   0   0 # hoy
    803      1   3 -1.050000    21.842799842     5.885299886    30.245936556   0   0   0 # obsk
    804      1   4 -0.950000    21.842799842     8.262319886    31.706180344   0   0   0 # ohk
    805      1   1  1.575000    23.349199831     6.647411892    25.815638280   0   0   0 # feok
    806      1   2  0.425000    23.349199831     5.042579966    28.263256661   0   0   0 # hoy
    807      1   3 -1.050000    23.349199831     8.175299847    29.234769806   0   0   0 # obsk
    808      1   4 -0.950000    23.349199831     5.972319924    27.774526019   0   0   0 # ohk
    809      1   1  1.575000    23.349199831     4.802587917    30.772338128   0   0   0 # feok
    810      1   2  0.425000    23.349199831     6.407419843    23.306556813   0   0   0 # hoy
    811      1   3 -1.050000    23.349199831     7.854699886    24.278069958   0   0   0 # obsk
    812      1   4 -0.950000    23.349199831     5.477679885    22.817826171   0   0   0 # ohk
    813      1   1  1.575000    21.842799842     7.092587879    28.708368235   0   0   0 # feok
    814      1   2  0.425000    21.842799842     8.697419805    26.260749853   0   0   0 # hoy
    815      1   3 -1.050000    21.842799842     5.564699924    25.289236708   0   0   0 # obsk
    816      1   4 -0.950000    21.842799842     7.767679847    26.749480496   0   0   0 # ohk
    817      1   1  1.575000    24.855599821     8.937411854     3.924868994   0   0   0 # feok
    818      1   2  0.425000    24.855599821     7.332579928    11.390650309   0   0   0 # hoy
    819      1   3 -1.050000    24.855599821     5.885299886    10.419137164   0   0   0 # obsk
    820      1   4 -0.950000    24.855599821     8.262319886    11.879380951   0   0   0 # ohk
    821      1   1  1.575000    26.361999810     6.647411892     5.988838887   0   0   0 # feok
    822      1   2  0.425000    26.361999810     5.042579966     8.436457269   0   0   0 # hoy
    823      1   3 -1.050000    26.361999810     8.175299847     9.407970414   0   0   0 # obsk
    824      1   4 -0.950000    26.361999810     5.972319924     7.947726626   0   0   0 # ohk
    825      1   1  1.575000    26.361999810     4.802587917    10.945538735   0   0   0 # feok
    826      1   2  0.425000    26.361999810     6.407419843     3.479757421   0   0   0 # hoy
    827      1   3 -1.050000    26.361999810     7.854699886     4.451270565   0   0   0 # obsk
    828      1   4 -0.950000    26.361999810     5.477679885     2.991026778   0   0   0 # ohk
    829      1   1  1.575000    24.855599821     7.092587879     8.881568842   0   0   0 # feok
    830      1   2  0.425000    24.855599821     8.697419805     6.433950460   0   0   0 # hoy
    831      1   3 -1.050000    24.855599821     5.564699924     5.462437316   0   0   0 # obsk
    832      1   4 -0.950000    24.855599821     7.767679847     6.922681103   0   0   0 # ohk
    833      1   1  1.575000    24.855599821     8.937411854    13.838268690   0   0   0 # feok
    834      1   2  0.425000    24.855599821     7.332579928    21.304050005   0   0   0 # hoy
    835      1   3 -1.050000    24.855599821     5.885299886    20.332536860   0   0   0 # obsk
    836      1   4 -0.950000    24.855599821     8.262319886    21.792780648   0   0   0 # ohk
    837      1   1  1.575000    26.361999810     6.647411892    15.902238583   0   0   0 # feok
    838      1   2  0.425000    26.361999810     5.042579966    18.349856965   0   0   0 # hoy
    839      1   3 -1.050000    26.361999810     8.175299847    19.321370110   0   0   0 # obsk
    840      1   4 -0.950000    26.361999810     5.972319924    17.861126322   0   0   0 # ohk
    841      1   1  1.575000    26.361999810     4.802587917    20.858938431   0   0   0 # feok
    842      1   2  0.425000    26.361999810     6.407419843    13.393157117   0   0   0 # hoy
    843      1   3 -1.050000    26.361999810     7.854699886    14.364670262   0   0   0 # obsk
    844      1   4 -0.950000    26.361999810     5.477679885    12.904426474   0   0   0 # ohk
    845      1   1  1.575000    24.855599821     7.092587879    18.794968539   0   0   0 # feok
    846      1   2  0.425000    24.855599821     8.697419805    16.347350157   0   0   0 # hoy
    847      1   3 -1.050000    24.855599821     5.564699924    15.375837012   0   0   0 # obsk
    848      1   4 -0.950000    24.855599821     7.767679847    16.836080799   0   0   0 # ohk
    849      1   1  1.575000    24.855599821     8.937411854    23.751668387   0   0   0 # feok
    850      1   2  0.425000    24.855599821     7.332579928    31.217449701   0   0   0 # hoy
    851      1   3 -1.050000    24.855599821     5.885299886    30.245936556   0   0   0 # obsk
    852      1   4 -0.950000    24.855599821     8.262319886    31.706180344   0   0   0 # ohk
    853      1   1  1.575000    26.361999810     6.647411892    25.815638280   0   0   0 # feok
    854      1   2  0.425000    26.361999810     5.042579966    28.263256661   0   0   0 # hoy
    855      1   3 -1.050000    26.361999810     8.175299847    29.234769806   0   0   0 # obsk
    856      1   4 -0.950000    26.361999810     5.972319924    27.774526019   0   0   0 # ohk
    857      1   1  1.575000    26.361999810     4.802587917    30.772338128   0   0   0 # feok
    858      1   2  0.425000    26.361999810     6.407419843    23.306556813   0   0   0 # hoy
    859      1   3 -1.050000    26.361999810     7.854699886    24.278069958   0   0   0 # obsk
    860      1   4 -0.950000    26.361999810     5.477679885    22.817826171   0   0   0 # ohk
    861      1   1  1.575000    24.855599821     7.092587879    28.708368235   0   0   0 # feok
    862      1   2  0.425000    24.855599821     8.697419805    26.260749853   0   0   0 # hoy
    863      1   3 -1.050000    24.855599821     5.564699924    25.289236708   0   0   0 # obsk
    864      1   4 -0.950000    24.855599821     7.767679847    26.749480496   0   0   0 # ohk
    865      1   1  1.575000     0.753199995    13.517411778     3.924868994   0   0   0 # feok
    866      1   2  0.425000     0.753199995    11.912579852    11.390650309   0   0   0 # hoy
    867      1   3 -1.050000     0.753199995    10.465299809    10.419137164   0   0   0 # obsk
    868      1   4 -0.950000     0.753199995    12.842319810    11.879380951   0   0   0 # ohk
    869      1   1  1.575000     2.259599984    11.227411816     5.988838887   0   0   0 # feok
    870      1   2  0.425000     2.259599984     9.622579890     8.436457269   0   0   0 # hoy
    871      1   3 -1.050000     2.259599984    12.755299771     9.407970414   0   0   0 # obsk
    872      1   4 -0.950000     2.259599984    10.552319848     7.947726626   0   0   0 # ohk
    873      1   1  1.575000     2.259599984     9.382587841    10.945538735   0   0   0 # feok
    874      1   2  0.425000     2.259599984    10.987419767     3.479757421   0   0   0 # hoy
    875      1   3 -1.050000     2.259599984    12.434699809     4.451270565   0   0   0 # obsk
    876      1   4 -0.950000     2.259599984    10.057679809     2.991026778   0   0   0 # ohk
    877      1   1  1.575000     0.753199995    11.672587803     8.881568842   0   0   0 # feok
    878      1   2  0.425000     0.753199995    13.277419729     6.433950460   0   0   0 # hoy
    879      1   3 -1.050000     0.753199995    10.144699847     5.462437316   0   0   0 # obsk
    880      1   4 -0.950000     0.753199995    12.347679771     6.922681103   0   0   0 # ohk
    881      1   1  1.575000     0.753199995    13.517411778    13.838268690   0   0   0 # feok
    882      1   2  0.425000     0.753199995    11.912579852    21.304050005   0   0   0 # hoy
    883      1   3 -1.050000     0.753199995    10.465299809    20.332536860   0   0   0 # obsk
    884      1   4 -0.950000     0.753199995    12.842319810    21.792780648   0   0   0 # ohk
    885      1   1  1.575000     2.259599984    11.227411816    15.902238583   0   0   0 # feok
    886      1   2  0.425000     2.259599984     9.622579890    18.349856965   0   0   0 # hoy
    887      1   3 -1.050000     2.259599984    12.755299771    19.321370110   0   0   0 # obsk
    888      1   4 -0.950000     2.259599984    10.552319848    17.861126322   0   0   0 # ohk
    889      1   1  1.575000     2.259599984     9.382587841    20.858938431   0   0   0 # feok
    890      1   2  0.425000     2.259599984    10.987419767    13.393157117   0   0   0 # hoy
    891      1   3 -1.050000     2.259599984    12.434699809    14.364670262   0   0   0 # obsk
    892      1   4 -0.950000     2.259599984    10.057679809    12.904426474   0   0   0 # ohk
    893      1   1  1.575000     0.753199995    11.672587803    18.794968539   0   0   0 # feok
    894      1   2  0.425000     0.753199995    13.277419729    16.347350157   0   0   0 # hoy
    895      1   3 -1.050000     0.753199995    10.144699847    15.375837012   0   0   0 # obsk
    896      1   4 -0.950000     0.753199995    12.347679771    16.836080799   0   0   0 # ohk
    897      1   1  1.575000     0.753199995    13.517411778    23.751668387   0   0   0 # feok
    898      1   2  0.425000     0.753199995    11.912579852    31.217449701   0   0   0 # hoy
    899      1   3 -1.050000     0.753199995    10.465299809    30.245936556   0   0   0 # obsk
    900      1   4 -0.950000     0.753199995    12.842319810    31.706180344   0   0   0 # ohk
    901      1   1  1.575000     2.259599984    11.227411816    25.815638280   0   0   0 # feok
    902      1   2  0.425000     2.259599984     9.622579890    28.263256661   0   0   0 # hoy
    903      1   3 -1.050000     2.259599984    12.755299771    29.234769806   0   0   0 # obsk
    904      1   4 -0.950000     2.259599984    10.552319848    27.774526019   0   0   0 # ohk
    905      1   1  1.575000     2.259599984     9.382587841    30.772338128   0   0   0 # feok
    906      1   2  0.425000     2.259599984    10.987419767    23.306556813   0   0   0 # hoy
    907      1   3 -1.050000     2.259599984    12.434699809    24.278069958   0   0   0 # obsk
    908      1   4 -0.950000     2.259599984    10.057679809    22.817826171   0   0   0 # ohk
    909      1   1  1.575000     0.753199995    11.672587803    28.708368235   0   0   0 # feok
    910      1   2  0.425000     0.753199995    13.277419729    26.260749853   0   0   0 # hoy
    911      1   3 -1.050000     0.753199995    10.144699847    25.289236708   0   0   0 # obsk
    912      1   4 -0.950000     0.753199995    12.347679771    26.749480496   0   0   0 # ohk
    913      1   1  1.575000     3.765999973    13.517411778     3.924868994   0   0   0 # feok
    914      1   2  0.425000     3.765999973    11.912579852    11.390650309   0   0   0 # hoy
    915      1   3 -1.050000     3.765999973    10.465299809    10.419137164   0   0   0 # obsk
    916      1   4 -0.950000     3.765999973    12.842319810    11.879380951   0   0   0 # ohk
    917      1   1  1.575000     5.272399962    11.227411816     5.988838887   0   0   0 # feok
    918      1   2  0.425000     5.272399962     9.622579890     8.436457269   0   0   0 # hoy
    919      1   3 -1.050000     5.272399962    12.755299771     9.407970414   0   0   0 # obsk
    920      1   4 -0.950000     5.272399962    10.552319848     7.947726626   0   0   0 # ohk
    921      1   1  1.575000     5.272399962     9.382587841    10.945538735   0   0   0 # feok
    922      1   2  0.425000     5.272399962    10.987419767     3.479757421   0   0   0 # hoy
    923      1   3 -1.050000     5.272399962    12.434699809     4.451270565   0   0   0 # obsk
    924      1   4 -0.950000     5.272399962    10.057679809     2.991026778   0   0   0 # ohk
    925      1   1  1.575000     3.765999973    11.672587803     8.881568842   0   0   0 # feok
    926      1   2  0.425000     3.765999973    13.277419729     6.433950460   0   0   0 # hoy
    927      1   3 -1.050000     3.765999973    10.144699847     5.462437316   0   0   0 # obsk
    928      1   4 -0.950000     3.765999973    12.347679771     6.922681103   0   0   0 # ohk
    929      1   1  1.575000     3.765999973    13.517411778    13.838268690   0   0   0 # feok
    930      1   2  0.425000     3.765999973    11.912579852    21.304050005   0   0   0 # hoy
    931      1   3 -1.050000     3.765999973    10.465299809    20.332536860   0   0   0 # obsk
    932      1   4 -0.950000     3.765999973    12.842319810    21.792780648   0   0   0 # ohk
    933      1   1  1.575000     5.272399962    11.227411816    15.902238583   0   0   0 # feok
    934      1   2  0.425000     5.272399962     9.622579890    18.349856965   0   0   0 # hoy
    935      1   3 -1.050000     5.272399962    12.755299771    19.321370110   0   0   0 # obsk
    936      1   4 -0.950000     5.272399962    10.552319848    17.861126322   0   0   0 # ohk
    937      1   1  1.575000     5.272399962     9.382587841    20.858938431   0   0   0 # feok
    938      1   2  0.425000     5.272399962    10.987419767    13.393157117   0   0   0 # hoy
    939      1   3 -1.050000     5.272399962    12.434699809    14.364670262   0   0   0 # obsk
    940      1   4 -0.950000     5.272399962    10.057679809    12.904426474   0   0   0 # ohk
    941      1   1  1.575000     3.765999973    11.672587803    18.794968539   0   0   0 # feok
    942      1   2  0.425000     3.765999973    13.277419729    16.347350157   0   0   0 # hoy
    943      1   3 -1.050000     3.765999973    10.144699847    15.375837012   0   0   0 # obsk
    944      1   4 -0.950000     3.765999973    12.347679771    16.836080799   0   0   0 # ohk
    945      1   1  1.575000     3.765999973    13.517411778    23.751668387   0   0   0 # feok
    946      1   2  0.425000     3.765999973    11.912579852    31.217449701   0   0   0 # hoy
    947      1   3 -1.050000     3.765999973    10.465299809    30.245936556   0   0   0 # obsk
    948      1   4 -0.950000     3.765999973    12.842319810    31.706180344   0   0   0 # ohk
    949      1   1  1.575000     5.272399962    11.227411816    25.815638280   0   0   0 # feok
    950      1   2  0.425000     5.272399962     9.622579890    28.263256661   0   0   0 # hoy
    951      1   3 -1.050000     5.272399962    12.755299771    29.234769806   0   0   0 # obsk
    952      1   4 -0.950000     5.272399962    10.552319848    27.774526019   0   0   0 # ohk
    953      1   1  1.575000     5.272399962     9.382587841    30.772338128   0   0   0 # feok
    954      1   2  0.425000     5.272399962    10.987419767    23.306556813   0   0   0 # hoy
    955      1   3 -1.050000     5.272399962    12.434699809    24.278069958   0   0   0 # obsk
    956      1   4 -0.950000     5.272399962    10.057679809    22.817826171   0   0   0 # ohk
    957      1   1  1.575000     3.765999973    11.672587803    28.708368235   0   0   0 # feok
    958      1   2  0.425000     3.765999973    13.277419729    26.260749853   0   0   0 # hoy
    959      1   3 -1.050000     3.765999973    10.144699847    25.289236708   0   0   0 # obsk
    960      1   4 -0.950000     3.765999973    12.347679771    26.749480496   0   0   0 # ohk
    961      1   1  1.575000     6.778799951    13.517411778     3.924868994   0   0   0 # feok
    962      1   2  0.425000     6.778799951    11.912579852    11.390650309   0   0   0 # hoy
    963      1   3 -1.050000     6.778799951    10.465299809    10.419137164   0   0   0 # obsk
    964      1   4 -0.950000     6.778799951    12.842319810    11.879380951   0   0   0 # ohk
    965      1   1  1.575000     8.285199940    11.227411816     5.988838887   0   0   0 # feok
    966      1   2  0.425000     8.285199940     9.622579890     8.436457269   0   0   0 # hoy
    967      1   3 -1.050000     8.285199940    12.755299771     9.407970414   0   0   0 # obsk
    968      1   4 -0.950000     8.285199940    10.552319848     7.947726626   0   0   0 # ohk
    969      1   1  1.575000     8.285199940     9.382587841    10.945538735   0   0   0 # feok
    970      1   2  0.425000     8.285199940    10.987419767     3.479757421   0   0   0 # hoy
    971      1   3 -1.050000     8.285199940    12.434699809     4.451270565   0   0   0 # obsk
    972      1   4 -0.950000     8.285199940    10.057679809     2.991026778   0   0   0 # ohk
    973      1   1  1.575000     6.778799951    11.672587803     8.881568842   0   0   0 # feok
    974      1   2  0.425000     6.778799951    13.277419729     6.433950460   0   0   0 # hoy
    975      1   3 -1.050000     6.778799951    10.144699847     5.462437316   0   0   0 # obsk
    976      1   4 -0.950000     6.778799951    12.347679771     6.922681103   0   0   0 # ohk
    977      1   1  1.575000     6.778799951    13.517411778    13.838268690   0   0   0 # feok
    978      1   2  0.425000     6.778799951    11.912579852    21.304050005   0   0   0 # hoy
    979      1   3 -1.050000     6.778799951    10.465299809    20.332536860   0   0   0 # obsk
    980      1   4 -0.950000     6.778799951    12.842319810    21.792780648   0   0   0 # ohk
    981      1   1  1.575000     8.285199940    11.227411816    15.902238583   0   0   0 # feok
    982      1   2  0.425000     8.285199940     9.622579890    18.349856965   0   0   0 # hoy
    983      1   3 -1.050000     8.285199940    12.755299771    19.321370110   0   0   0 # obsk
    984      1   4 -0.950000     8.285199940    10.552319848    17.861126322   0   0   0 # ohk
    985      1   1  1.575000     8.285199940     9.382587841    20.858938431   0   0   0 # feok
    986      1   2  0.425000     8.285199940    10.987419767    13.393157117   0   0   0 # hoy
    987      1   3 -1.050000     8.285199940    12.434699809    14.364670262   0   0   0 # obsk
    988      1   4 -0.950000     8.285199940    10.057679809    12.904426474   0   0   0 # ohk
    989      1   1  1.575000     6.778799951    11.672587803    18.794968539   0   0   0 # feok
    990      1   2  0.425000     6.778799951    13.277419729    16.347350157   0   0   0 # hoy
    991      1   3 -1.050000     6.778799951    10.144699847    15.375837012   0   0   0 # obsk
    992      1   4 -0.950000     6.778799951    12.347679771    16.836080799   0   0   0 # ohk
    993      1   1  1.575000     6.778799951    13.517411778    23.751668387   0   0   0 # feok
    994      1   2  0.425000     6.778799951    11.912579852    31.217449701   0   0   0 # hoy
    995      1   3 -1.050000     6.778799951    10.465299809    30.245936556   0   0   0 # obsk
    996      1   4 -0.950000     6.778799951    12.842319810    31.706180344   0   0   0 # ohk
    997      1   1  1.575000     8.285199940    11.227411816    25.815638280   0   0   0 # feok
    998      1   2  0.425000     8.285199940     9.622579890    28.263256661   0   0   0 # hoy
    999      1   3 -1.050000     8.285199940    12.755299771    29.234769806   0   0   0 # obsk
   1000      1   4 -0.950000     8.285199940    10.552319848    27.774526019   0   0   0 # ohk
   1001      1   1  1.575000     8.285199940     9.382587841    30.772338128   0   0   0 # feok
   1002      1   2  0.425000     8.285199940    10.987419767    23.306556813   0   0   0 # hoy
   1003      1   3 -1.050000     8.285199940    12.434699809    24.278069958   0   0   0 # obsk
   1004      1   4 -0.950000     8.285199940    10.057679809    22.817826171   0   0   0 # ohk
   1005      1   1  1.575000     6.778799951    11.672587803    28.708368235   0   0   0 # feok
   1006      1   2  0.425000     6.778799951    13.277419729    26.260749853   0   0   0 # hoy
   1007      1   3 -1.050000     6.778799951    10.144699847    25.289236708   0   0   0 # obsk
   1008      1   4 -0.950000     6.778799951    12.347679771    26.749480496   0   0   0 # ohk
   1009      1   1  1.575000     9.791599929    13.517411778     3.924868994   0   0   0 # feok
   1010      1   2  0.425000     9.791599929    11.912579852    11.390650309   0   0   0 # hoy
   1011      1   3 -1.050000     9.791599929    10.465299809    10.419137164   0   0   0 # obsk
   1012      1   4 -0.950000     9.791599929    12.842319810    11.879380951   0   0   0 # ohk
   1013      1   1  1.575000    11.297999918    11.227411816     5.988838887   0   0   0 # feok
   1014      1   2  0.425000    11.297999918     9.622579890     8.436457269   0   0   0 # hoy
   1015      1   3 -1.050000    11.297999918    12.755299771     9.407970414   0   0   0 # obsk
   1016      1   4 -0.950000    11.297999918    10.552319848     7.947726626   0   0   0 # ohk
   1017      1   1  1.575000    11.297999918     9.382587841    10.945538735   0   0   0 # feok
   1018      1   2  0.425000    11.297999918    10.987419767     3.479757421   0   0   0 # hoy
   1019      1   3 -1.050000    11.297999918    12.434699809     4.451270565   0   0   0 # obsk
   1020      1   4 -0.950000    11.297999918    10.057679809     2.991026778   0   0   0 # ohk
   1021      1   1  1.575000     9.791599929    11.672587803     8.881568842   0   0   0 # feok
   1022      1   2  0.425000     9.791599929    13.277419729     6.433950460   0   0   0 # hoy
   1023      1   3 -1.050000     9.791599929    10.144699847     5.462437316   0   0   0 # obsk
   1024      1   4 -0.950000     9.791599929    12.347679771     6.922681103   0   0   0 # ohk
   1025      1   1  1.575000     9.791599929    13.517411778    13.838268690   0   0   0 # feok
   1026      1   2  0.425000     9.791599929    11.912579852    21.304050005   0   0   0 # hoy
   1027      1   3 -1.050000     9.791599929    10.465299809    20.332536860   0   0   0 # obsk
   1028      1   4 -0.950000     9.791599929    12.842319810    21.792780648   0   0   0 # ohk
   1029      1   1  1.575000    11.297999918    11.227411816    15.902238583   0   0   0 # feok
   1030      1   2  0.425000    11.297999918     9.622579890    18.349856965   0   0   0 # hoy
   1031      1   3 -1.050000    11.297999918    12.755299771    19.321370110   0   0   0 # obsk
   1032      1   4 -0.950000    11.297999918    10.552319848    17.861126322   0   0   0 # ohk
   1033      1   1  1.575000    11.297999918     9.382587841    20.858938431   0   0   0 # feok
   1034      1   2  0.425000    11.297999918    10.987419767    13.393157117   0   0   0 # hoy
   1035      1   3 -1.050000    11.297999918    12.434699809    14.364670262   0   0   0 # obsk
   1036      1   4 -0.950000    11.297999918    10.057679809    12.904426474   0   0   0 # ohk
   1037      1   1  1.575000     9.791599929    11.672587803    18.794968539   0   0   0 # feok
   1038      1   2  0.425000     9.791599929    13.277419729    16.347350157   0   0   0 # hoy
   1039      1   3 -1.050000     9.791599929    10.144699847    15.375837012   0   0   0 # obsk
   1040      1   4 -0.950000     9.791599929    12.347679771    16.836080799   0   0   0 # ohk
   1041      1   1  1.575000     9.791599929    13.517411778    23.751668387   0   0   0 # feok
   1042      1   2  0.425000     9.791599929    11.912579852    31.217449701   0   0   0 # hoy
   1043      1   3 -1.050000     9.791599929    10.465299809    30.245936556   0   0   0 # obsk
   1044      1   4 -0.950000     9.791599929    12.842319810    31.706180344   0   0   0 # ohk
   1045      1   1  1.575000    11.297999918    11.227411816    25.815638280   0   0   0 # feok
   1046      1   2  0.425000    11.297999918     9.622579890    28.263256661   0   0   0 # hoy
   1047      1   3 -1.050000    11.297999918    12.755299771    29.234769806   0   0   0 # obsk
   1048      1   4 -0.950000    11.297999918    10.552319848    27.774526019   0   0   0 # ohk
   1049      1   1  1.575000    11.297999918     9.382587841    30.772338128   0   0   0 # feok
   1050      1   2  0.425000    11.297999918    10.987419767    23.306556813   0   0   0 # hoy
   1051      1   3 -1.050000    11.297999918    12.434699809    24.278069958   0   0   0 # obsk
   1052      1   4 -0.950000    11.297999918    10.057679809    22.817826171   0   0   0 # ohk
   1053      1   1  1.575000     9.791599929    11.672587803    28.708368235   0   0   0 # feok
   1054      1   2  0.425000     9.791599929    13.277419729    26.260749853   0   0   0 # hoy
   1055      1   3 -1.050000     9.791599929    10.144699847    25.289236708   0   0   0 # obsk
   1056      1   4 -0.950000     9.791599929    12.347679771    26.749480496   0   0   0 # ohk
   1057      1   1  1.575000    12.804399908    13.517411778     3.924868994   0   0   0 # feok
   1058      1   2  0.425000    12.804399908    11.912579852    11.390650309   0   0   0 # hoy
   1059      1   3 -1.050000    12.804399908    10.465299809    10.419137164   0   0   0 # obsk
   1060      1   4 -0.950000    12.804399908    12.842319810    11.879380951   0   0   0 # ohk
   1061      1   1  1.575000    14.310799897    11.227411816     5.988838887   0   0   0 # feok
   1062      1   2  0.425000    14.310799897     9.622579890     8.436457269   0   0   0 # hoy
   1063      1   3 -1.050000    14.310799897    12.755299771     9.407970414   0   0   0 # obsk
   1064      1   4 -0.950000    14.310799897    10.552319848     7.947726626   0   0   0 # ohk
   1065      1   1  1.575000    14.310799897     9.382587841    10.945538735   0   0   0 # feok
   1066      1   2  0.425000    14.310799897    10.987419767     3.479757421   0   0   0 # hoy
   1067      1   3 -1.050000    14.310799897    12.434699809     4.451270565   0   0   0 # obsk
   1068      1   4 -0.950000    14.310799897    10.057679809     2.991026778   0   0   0 # ohk
   1069      1   1  1.575000    12.804399908    11.672587803     8.881568842   0   0   0 # feok
   1070      1   2  0.425000    12.804399908    13.277419729     6.433950460   0   0   0 # hoy
   1071      1   3 -1.050000    12.804399908    10.144699847     5.462437316   0   0   0 # obsk
   1072      1   4 -0.950000    12.804399908    12.347679771     6.922681103   0   0   0 # ohk
   1073      1   1  1.575000    12.804399908    13.517411778    13.838268690   0   0   0 # feok
   1074      1   2  0.425000    12.804399908    11.912579852    21.304050005   0   0   0 # hoy
   1075      1   3 -1.050000    12.804399908    10.465299809    20.332536860   0   0   0 # obsk
   1076      1   4 -0.950000    12.804399908    12.842319810    21.792780648   0   0   0 # ohk
   1077      1   1  1.575000    14.310799897    11.227411816    15.902238583   0   0   0 # feok
   1078      1   2  0.425000    14.310799897     9.622579890    18.349856965   0   0   0 # hoy
   1079      1   3 -1.050000    14.310799897    12.755299771    19.321370110   0   0   0 # obsk
   1080      1   4 -0.950000    14.310799897    10.552319848    17.861126322   0   0   0 # ohk
   1081      1   1  1.575000    14.310799897     9.382587841    20.858938431   0   0   0 # feok
   1082      1   2  0.425000    14.310799897    10.987419767    13.393157117   0   0   0 # hoy
   1083      1   3 -1.050000    14.310799897    12.434699809    14.364670262   0   0   0 # obsk
   1084      1   4 -0.950000    14.310799897    10.057679809    12.904426474   0   0   0 # ohk
   1085      1   1  1.575000    12.804399908    11.672587803    18.794968539   0   0   0 # feok
   1086      1   2  0.425000    12.804399908    13.277419729    16.347350157   0   0   0 # hoy
   1087      1   3 -1.050000    12.804399908    10.144699847    15.375837012   0   0   0 # obsk
   1088      1   4 -0.950000    12.804399908    12.347679771    16.836080799   0   0   0 # ohk
   1089      1   1  1.575000    12.804399908    13.517411778    23.751668387   0   0   0 # feok
   1090      1   2  0.425000    12.804399908    11.912579852    31.217449701   0   0   0 # hoy
   1091      1   3 -1.109400    12.804399908    10.465299809    30.245936556   0   0   0 # obsk
   1092      1   4 -0.950000    12.804399908    12.842319810    31.706180344   0   0   0 # ohk
   1093      1   1  1.575000    14.310799897    11.227411816    25.815638280   0   0   0 # feok
   1094      1   2  0.425000    14.310799897     9.622579890    28.263256661   0   0   0 # hoy
   1095      1   3 -1.050000    14.310799897    12.755299771    29.234769806   0   0   0 # obsk
   1096      1   4 -0.950000    14.310799897    10.552319848    27.774526019   0   0   0 # ohk
   1097      1   1  1.515600    14.310799897     9.382587841    30.772338128   0   0   0 # feok
   1098      1   2  0.425000    14.310799897    10.987419767    23.306556813   0   0   0 # hoy
   1099      1   3 -1.050000    14.310799897    12.434699809    24.278069958   0   0   0 # obsk
   1100      1   4 -0.950000    14.310799897    10.057679809    22.817826171   0   0   0 # ohk
   1101      1   1  1.575000    12.804399908    11.672587803    28.708368235   0   0   0 # feok
   1102      1   2  0.425000    12.804399908    13.277419729    26.260749853   0   0   0 # hoy
   1103      1   3 -1.050000    12.804399908    10.144699847    25.289236708   0   0   0 # obsk
   1104      1   4 -0.950000    12.804399908    12.347679771    26.749480496   0   0   0 # ohk
   1105      1   1  1.575000    15.817199886    13.517411778     3.924868994   0   0   0 # feok
   1106      1   2  0.425000    15.817199886    11.912579852    11.390650309   0   0   0 # hoy
   1107      1   3 -1.050000    15.817199886    10.465299809    10.419137164   0   0   0 # obsk
   1108      1   4 -0.950000    15.817199886    12.842319810    11.879380951   0   0   0 # ohk
   1109      1   1  1.575000    17.323599875    11.227411816     5.988838887   0   0   0 # feok
   1110      1   2  0.425000    17.323599875     9.622579890     8.436457269   0   0   0 # hoy
   1111      1   3 -1.050000    17.323599875    12.755299771     9.407970414   0   0   0 # obsk
   1112      1   4 -0.950000    17.323599875    10.552319848     7.947726626   0   0   0 # ohk
   1113      1   1  1.575000    17.323599875     9.382587841    10.945538735   0   0   0 # feok
   1114      1   2  0.425000    17.323599875    10.987419767     3.479757421   0   0   0 # hoy
   1115      1   3 -1.050000    17.323599875    12.434699809     4.451270565   0   0   0 # obsk
   1116      1   4 -0.950000    17.323599875    10.057679809     2.991026778   0   0   0 # ohk
   1117      1   1  1.575000    15.817199886    11.672587803     8.881568842   0   0   0 # feok
   1118      1   2  0.425000    15.817199886    13.277419729     6.433950460   0   0   0 # hoy
   1119      1   3 -1.050000    15.817199886    10.144699847     5.462437316   0   0   0 # obsk
   1120      1   4 -0.950000    15.817199886    12.347679771     6.922681103   0   0   0 # ohk
   1121      1   1  1.575000    15.817199886    13.517411778    13.838268690   0   0   0 # feok
   1122      1   2  0.425000    15.817199886    11.912579852    21.304050005   0   0   0 # hoy
   1123      1   3 -1.050000    15.817199886    10.465299809    20.332536860   0   0   0 # obsk
   1124      1   4 -0.950000    15.817199886    12.842319810    21.792780648   0   0   0 # ohk
   1125      1   1  1.575000    17.323599875    11.227411816    15.902238583   0   0   0 # feok
   1126      1   2  0.425000    17.323599875     9.622579890    18.349856965   0   0   0 # hoy
   1127      1   3 -1.050000    17.323599875    12.755299771    19.321370110   0   0   0 # obsk
   1128      1   4 -0.950000    17.323599875    10.552319848    17.861126322   0   0   0 # ohk
   1129      1   1  1.575000    17.323599875     9.382587841    20.858938431   0   0   0 # feok
   1130      1   2  0.425000    17.323599875    10.987419767    13.393157117   0   0   0 # hoy
   1131      1   3 -1.050000    17.323599875    12.434699809    14.364670262   0   0   0 # obsk
   1132      1   4 -0.950000    17.323599875    10.057679809    12.904426474   0   0   0 # ohk
   1133      1   1  1.575000    15.817199886    11.672587803    18.794968539   0   0   0 # feok
   1134      1   2  0.425000    15.817199886    13.277419729    16.347350157   0   0   0 # hoy
   1135      1   3 -1.050000    15.817199886    10.144699847    15.375837012   0   0   0 # obsk
   1136      1   4 -0.950000    15.817199886    12.347679771    16.836080799   0   0   0 # ohk
   1137      1   1  1.575000    15.817199886    13.517411778    23.751668387   0   0   0 # feok
   1138      1   2  0.425000    15.817199886    11.912579852    31.217449701   0   0   0 # hoy
   1139      1   3 -1.109400    15.817199886    10.465299809    30.245936556   0   0   0 # obsk
   1140      1   4 -0.950000    15.817199886    12.842319810    31.706180344   0   0   0 # ohk
   1141      1   1  1.575000    17.323599875    11.227411816    25.815638280   0   0   0 # feok
   1142      1   2  0.425000    17.323599875     9.622579890    28.263256661   0   0   0 # hoy
   1143      1   3 -1.050000    17.323599875    12.755299771    29.234769806   0   0   0 # obsk
   1144      1   4 -0.950000    17.323599875    10.552319848    27.774526019   0   0   0 # ohk
   1145      1   1  1.575000    17.323599875     9.382587841    30.772338128   0   0   0 # feok
   1146      1   2  0.425000    17.323599875    10.987419767    23.306556813   0   0   0 # hoy
   1147      1   3 -1.050000    17.323599875    12.434699809    24.278069958   0   0   0 # obsk
   1148      1   4 -0.950000    17.323599875    10.057679809    22.817826171   0   0   0 # ohk
   1149      1   1  1.575000    15.817199886    11.672587803    28.708368235   0   0   0 # feok
   1150      1   2  0.425000    15.817199886    13.277419729    26.260749853   0   0   0 # hoy
   1151      1   3 -1.050000    15.817199886    10.144699847    25.289236708   0   0   0 # obsk
   1152      1   4 -0.950000    15.817199886    12.347679771    26.749480496   0   0   0 # ohk
   1153      1   1  1.575000    18.829999864    13.517411778     3.924868994   0   0   0 # feok
   1154      1   2  0.425000    18.829999864    11.912579852    11.390650309   0   0   0 # hoy
   1155      1   3 -1.050000    18.829999864    10.465299809    10.419137164   0   0   0 # obsk
   1156      1   4 -0.950000    18.829999864    12.842319810    11.879380951   0   0   0 # ohk
   1157      1   1  1.575000    20.336399853    11.227411816     5.988838887   0   0   0 # feok
   1158      1   2  0.425000    20.336399853     9.622579890     8.436457269   0   0   0 # hoy
   1159      1   3 -1.050000    20.336399853    12.755299771     9.407970414   0   0   0 # obsk
   1160      1   4 -0.950000    20.336399853    10.552319848     7.947726626   0   0   0 # ohk
   1161      1   1  1.575000    20.336399853     9.382587841    10.945538735   0   0   0 # feok
   1162      1   2  0.425000    20.336399853    10.987419767     3.479757421   0   0   0 # hoy
   1163      1   3 -1.050000    20.336399853    12.434699809     4.451270565   0   0   0 # obsk
   1164      1   4 -0.950000    20.336399853    10.057679809     2.991026778   0   0   0 # ohk
   1165      1   1  1.575000    18.829999864    11.672587803     8.881568842   0   0   0 # feok
   1166      1   2  0.425000    18.829999864    13.277419729     6.433950460   0   0   0 # hoy
   1167      1   3 -1.050000    18.829999864    10.144699847     5.462437316   0   0   0 # obsk
   1168      1   4 -0.950000    18.829999864    12.347679771     6.922681103   0   0   0 # ohk
   1169      1   1  1.575000    18.829999864    13.517411778    13.838268690   0   0   0 # feok
   1170      1   2  0.425000    18.829999864    11.912579852    21.304050005   0   0   0 # hoy
   1171      1   3 -1.050000    18.829999864    10.465299809    20.332536860   0   0   0 # obsk
   1172      1   4 -0.950000    18.829999864    12.842319810    21.792780648   0   0   0 # ohk
   1173      1   1  1.575000    20.336399853    11.227411816    15.902238583   0   0   0 # feok
   1174      1   2  0.425000    20.336399853     9.622579890    18.349856965   0   0   0 # hoy
   1175      1   3 -1.050000    20.336399853    12.755299771    19.321370110   0   0   0 # obsk
   1176      1   4 -0.950000    20.336399853    10.552319848    17.861126322   0   0   0 # ohk
   1177      1   1  1.575000    20.336399853     9.382587841    20.858938431   0   0   0 # feok
   1178      1   2  0.425000    20.336399853    10.987419767    13.393157117   0   0   0 # hoy
   1179      1   3 -1.050000    20.336399853    12.434699809    14.364670262   0   0   0 # obsk
   1180      1   4 -0.950000    20.336399853    10.057679809    12.904426474   0   0   0 # ohk
   1181      1   1  1.575000    18.829999864    11.672587803    18.794968539   0   0   0 # feok
   1182      1   2  0.425000    18.829999864    13.277419729    16.347350157   0   0   0 # hoy
   1183      1   3 -1.050000    18.829999864    10.144699847    15.375837012   0   0   0 # obsk
   1184      1   4 -0.950000    18.829999864    12.347679771    16.836080799   0   0   0 # ohk
   1185      1   1  1.575000    18.829999864    13.517411778    23.751668387   0   0   0 # feok
   1186      1   2  0.425000    18.829999864    11.912579852    31.217449701   0   0   0 # hoy
   1187      1   3 -1.050000    18.829999864    10.465299809    30.245936556   0   0   0 # obsk
   1188      1   4 -0.950000    18.829999864    12.842319810    31.706180344   0   0   0 # ohk
   1189      1   1  1.575000    20.336399853    11.227411816    25.815638280   0   0   0 # feok
   1190      1   2  0.425000    20.336399853     9.622579890    28.263256661   0   0   0 # hoy
   1191      1   3 -1.050000    20.336399853    12.755299771    29.234769806   0   0   0 # obsk
   1192      1   4 -0.950000    20.336399853    10.552319848    27.774526019   0   0   0 # ohk
   1193      1   1  1.575000    20.336399853     9.382587841    30.772338128   0   0   0 # feok
   1194      1   2  0.425000    20.336399853    10.987419767    23.306556813   0   0   0 # hoy
   1195      1   3 -1.050000    20.336399853    12.434699809    24.278069958   0   0   0 # obsk
   1196      1   4 -0.950000    20.336399853    10.057679809    22.817826171   0   0   0 # ohk
   1197      1   1  1.575000    18.829999864    11.672587803    28.708368235   0   0   0 # feok
   1198      1   2  0.425000    18.829999864    13.277419729    26.260749853   0   0   0 # hoy
   1199      1   3 -1.050000    18.829999864    10.144699847    25.289236708   0   0   0 # obsk
   1200      1   4 -0.950000    18.829999864    12.347679771    26.749480496   0   0   0 # ohk
   1201      1   1  1.575000    21.842799842    13.517411778     3.924868994   0   0   0 # feok
   1202      1   2  0.425000    21.842799842    11.912579852    11.390650309   0   0   0 # hoy
   1203      1   3 -1.050000    21.842799842    10.465299809    10.419137164   0   0   0 # obsk
   1204      1   4 -0.950000    21.842799842    12.842319810    11.879380951   0   0   0 # ohk
   1205      1   1  1.575000    23.349199831    11.227411816     5.988838887   0   0   0 # feok
   1206      1   2  0.425000    23.349199831     9.622579890     8.436457269   0   0   0 # hoy
   1207      1   3 -1.050000    23.349199831    12.755299771     9.407970414   0   0   0 # obsk
   1208      1   4 -0.950000    23.349199831    10.552319848     7.947726626   0   0   0 # ohk
   1209      1   1  1.575000    23.349199831     9.382587841    10.945538735   0   0   0 # feok
   1210      1   2  0.425000    23.349199831    10.987419767     3.479757421   0   0   0 # hoy
   1211      1   3 -1.050000    23.349199831    12.434699809     4.451270565   0   0   0 # obsk
   1212      1   4 -0.950000    23.349199831    10.057679809     2.991026778   0   0   0 # ohk
   1213      1   1  1.575000    21.842799842    11.672587803     8.881568842   0   0   0 # feok
   1214      1   2  0.425000    21.842799842    13.277419729     6.433950460   0   0   0 # hoy
   1215      1   3 -1.050000    21.842799842    10.144699847     5.462437316   0   0   0 # obsk
   1216      1   4 -0.950000    21.842799842    12.347679771     6.922681103   0   0   0 # ohk
   1217      1   1  1.575000    21.842799842    13.517411778    13.838268690   0   0   0 # feok
   1218      1   2  0.425000    21.842799842    11.912579852    21.304050005   0   0   0 # hoy
   1219      1   3 -1.050000    21.842799842    10.465299809    20.332536860   0   0   0 # obsk
   1220      1   4 -0.950000    21.842799842    12.842319810    21.792780648   0   0   0 # ohk
   1221      1   1  1.575000    23.349199831    11.227411816    15.902238583   0   0   0 # feok
   1222      1   2  0.425000    23.349199831     9.622579890    18.349856965   0   0   0 # hoy
   1223      1   3 -1.050000    23.349199831    12.755299771    19.321370110   0   0   0 # obsk
   1224      1   4 -0.950000    23.349199831    10.552319848    17.861126322   0   0   0 # ohk
   1225      1   1  1.575000    23.349199831     9.382587841    20.858938431   0   0   0 # feok
   1226      1   2  0.425000    23.349199831    10.987419767    13.393157117   0   0   0 # hoy
   1227      1   3 -1.050000    23.349199831    12.434699809    14.364670262   0   0   0 # obsk
   1228      1   4 -0.950000    23.349199831    10.057679809    12.904426474   0   0   0 # ohk
   1229      1   1  1.575000    21.842799842    11.672587803    18.794968539   0   0   0 # feok
   1230      1   2  0.425000    21.842799842    13.277419729    16.347350157   0   0   0 # hoy
   1231      1   3 -1.050000    21.842799842    10.144699847    15.375837012   0   0   0 # obsk
   1232      1   4 -0.950000    21.842799842    12.347679771    16.836080799   0   0   0 # ohk
   1233      1   1  1.575000    21.842799842    13.517411778    23.751668387   0   0   0 # feok
   1234      1   2  0.425000    21.842799842    11.912579852    31.217449701   0   0   0 # hoy
   1235      1   3 -1.050000    21.842799842    10.465299809    30.245936556   0   0   0 # obsk
   1236      1   4 -0.950000    21.842799842    12.842319810    31.706180344   0   0   0 # ohk
   1237      1   1  1.575000    23.349199831    11.227411816    25.815638280   0   0   0 # feok
   1238      1   2  0.425000    23.349199831     9.622579890    28.263256661   0   0   0 # hoy
   1239      1   3 -1.050000    23.349199831    12.755299771    29.234769806   0   0   0 # obsk
   1240      1   4 -0.950000    23.349199831    10.552319848    27.774526019   0   0   0 # ohk
   1241      1   1  1.575000    23.349199831     9.382587841    30.772338128   0   0   0 # feok
   1242      1   2  0.425000    23.349199831    10.987419767    23.306556813   0   0   0 # hoy
   1243      1   3 -1.050000    23.349199831    12.434699809    24.278069958   0   0   0 # obsk
   1244      1   4 -0.950000    23.349199831    10.057679809    22.817826171   0   0   0 # ohk
   1245      1   1  1.575000    21.842799842    11.672587803    28.708368235   0   0   0 # feok
   1246      1   2  0.425000    21.842799842    13.277419729    26.260749853   0   0   0 # hoy
   1247      1   3 -1.050000    21.842799842    10.144699847    25.289236708   0   0   0 # obsk
   1248      1   4 -0.950000    21.842799842    12.347679771    26.749480496   0   0   0 # ohk
   1249      1   1  1.575000    24.855599821    13.517411778     3.924868994   0   0   0 # feok
   1250      1   2  0.425000    24.855599821    11.912579852    11.390650309   0   0   0 # hoy
   1251      1   3 -1.050000    24.855599821    10.465299809    10.419137164   0   0   0 # obsk
   1252      1   4 -0.950000    24.855599821    12.842319810    11.879380951   0   0   0 # ohk
   1253      1   1  1.575000    26.361999810    11.227411816     5.988838887   0   0   0 # feok
   1254      1   2  0.425000    26.361999810     9.622579890     8.436457269   0   0   0 # hoy
   1255      1   3 -1.050000    26.361999810    12.755299771     9.407970414   0   0   0 # obsk
   1256      1   4 -0.950000    26.361999810    10.552319848     7.947726626   0   0   0 # ohk
   1257      1   1  1.575000    26.361999810     9.382587841    10.945538735   0   0   0 # feok
   1258      1   2  0.425000    26.361999810    10.987419767     3.479757421   0   0   0 # hoy
   1259      1   3 -1.050000    26.361999810    12.434699809     4.451270565   0   0   0 # obsk
   1260      1   4 -0.950000    26.361999810    10.057679809     2.991026778   0   0   0 # ohk
   1261      1   1  1.575000    24.855599821    11.672587803     8.881568842   0   0   0 # feok
   1262      1   2  0.425000    24.855599821    13.277419729     6.433950460   0   0   0 # hoy
   1263      1   3 -1.050000    24.855599821    10.144699847     5.462437316   0   0   0 # obsk
   1264      1   4 -0.950000    24.855599821    12.347679771     6.922681103   0   0   0 # ohk
   1265      1   1  1.575000    24.855599821    13.517411778    13.838268690   0   0   0 # feok
   1266      1   2  0.425000    24.855599821    11.912579852    21.304050005   0   0   0 # hoy
   1267      1   3 -1.050000    24.855599821    10.465299809    20.332536860   0   0   0 # obsk
   1268      1   4 -0.950000    24.855599821    12.842319810    21.792780648   0   0   0 # ohk
   1269      1   1  1.575000    26.361999810    11.227411816    15.902238583   0   0   0 # feok
   1270      1   2  0.425000    26.361999810     9.622579890    18.349856965   0   0   0 # hoy
   1271      1   3 -1.050000    26.361999810    12.755299771    19.321370110   0   0   0 # obsk
   1272      1   4 -0.950000    26.361999810    10.552319848    17.861126322   0   0   0 # ohk
   1273      1   1  1.575000    26.361999810     9.382587841    20.858938431   0   0   0 # feok
   1274      1   2  0.425000    26.361999810    10.987419767    13.393157117   0   0   0 # hoy
   1275      1   3 -1.050000    26.361999810    12.434699809    14.364670262   0   0   0 # obsk
   1276      1   4 -0.950000    26.361999810    10.057679809    12.904426474   0   0   0 # ohk
   1277      1   1  1.575000    24.855599821    11.672587803    18.794968539   0   0   0 # feok
   1278      1   2  0.425000    24.855599821    13.277419729    16.347350157   0   0   0 # hoy
   1279      1   3 -1.050000    24.855599821    10.144699847    15.375837012   0   0   0 # obsk
   1280      1   4 -0.950000    24.855599821    12.347679771    16.836080799   0   0   0 # ohk
   1281      1   1  1.575000    24.855599821    13.517411778    23.751668387   0   0   0 # feok
   1282      1   2  0.425000    24.855599821    11.912579852    31.217449701   0   0   0 # hoy
   1283      1   3 -1.050000    24.855599821    10.465299809    30.245936556   0   0   0 # obsk
   1284      1   4 -0.950000    24.855599821    12.842319810    31.706180344   0   0   0 # ohk
   1285      1   1  1.575000    26.361999810    11.227411816    25.815638280   0   0   0 # feok
   1286      1   2  0.425000    26.361999810     9.622579890    28.263256661   0   0   0 # hoy
   1287      1   3 -1.050000    26.361999810    12.755299771    29.234769806   0   0   0 # obsk
   1288      1   4 -0.950000    26.361999810    10.552319848    27.774526019   0   0   0 # ohk
   1289      1   1  1.575000    26.361999810     9.382587841    30.772338128   0   0   0 # feok
   1290      1   2  0.425000    26.361999810    10.987419767    23.306556813   0   0   0 # hoy
   1291      1   3 -1.050000    26.361999810    12.434699809    24.278069958   0   0   0 # obsk
   1292      1   4 -0.950000    26.361999810    10.057679809    22.817826171   0   0   0 # ohk
   1293      1   1  1.575000    24.855599821    11.672587803    28.708368235   0   0   0 # feok
   1294      1   2  0.425000    24.855599821    13.277419729    26.260749853   0   0   0 # hoy
   1295      1   3 -1.050000    24.855599821    10.144699847    25.289236708   0   0   0 # obsk
   1296      1   4 -0.950000    24.855599821    12.347679771    26.749480496   0   0   0 # ohk
   1297      1   1  1.575000     0.753199995    18.097411701     3.924868994   0   0   0 # feok
   1298      1   2  0.425000     0.753199995    16.492579775    11.390650309   0   0   0 # hoy
   1299      1   3 -1.050000     0.753199995    15.045299733    10.419137164   0   0   0 # obsk
   1300      1   4 -0.950000     0.753199995    17.422319733    11.879380951   0   0   0 # ohk
   1301      1   1  1.575000     2.259599984    15.807411739     5.988838887   0   0   0 # feok
   1302      1   2  0.425000     2.259599984    14.202579814     8.436457269   0   0   0 # hoy
   1303      1   3 -1.050000     2.259599984    17.335299695     9.407970414   0   0   0 # obsk
   1304      1   4 -0.950000     2.259599984    15.132319771     7.947726626   0   0   0 # ohk
   1305      1   1  1.575000     2.259599984    13.962587765    10.945538735   0   0   0 # feok
   1306      1   2  0.425000     2.259599984    15.567419690     3.479757421   0   0   0 # hoy
   1307      1   3 -1.050000     2.259599984    17.014699733     4.451270565   0   0   0 # obsk
   1308      1   4 -0.950000     2.259599984    14.637679733     2.991026778   0   0   0 # ohk
   1309      1   1  1.575000     0.753199995    16.252587727     8.881568842   0   0   0 # feok
   1310      1   2  0.425000     0.753199995    17.857419652     6.433950460   0   0   0 # hoy
   1311      1   3 -1.050000     0.753199995    14.724699771     5.462437316   0   0   0 # obsk
   1312      1   4 -0.950000     0.753199995    16.927679695     6.922681103   0   0   0 # ohk
   1313      1   1  1.575000     0.753199995    18.097411701    13.838268690   0   0   0 # feok
   1314      1   2  0.425000     0.753199995    16.492579775    21.304050005   0   0   0 # hoy
   1315      1   3 -1.050000     0.753199995    15.045299733    20.332536860   0   0   0 # obsk
   1316      1   4 -0.950000     0.753199995    17.422319733    21.792780648   0   0   0 # ohk
   1317      1   1  1.575000     2.259599984    15.807411739    15.902238583   0   0   0 # feok
   1318      1   2  0.425000     2.259599984    14.202579814    18.349856965   0   0   0 # hoy
   1319      1   3 -1.050000     2.259599984    17.335299695    19.321370110   0   0   0 # obsk
   1320      1   4 -0.950000     2.259599984    15.132319771    17.861126322   0   0   0 # ohk
   1321      1   1  1.575000     2.259599984    13.962587765    20.858938431   0   0   0 # feok
   1322      1   2  0.425000     2.259599984    15.567419690    13.393157117   0   0   0 # hoy
   1323      1   3 -1.050000     2.259599984    17.014699733    14.364670262   0   0   0 # obsk
   1324      1   4 -0.950000     2.259599984    14.637679733    12.904426474   0   0   0 # ohk
   1325      1   1  1.575000     0.753199995    16.252587727    18.794968539   0   0   0 # feok
   1326      1   2  0.425000     0.753199995    17.857419652    16.347350157   0   0   0 # hoy
   1327      1   3 -1.050000     0.753199995    14.724699771    15.375837012   0   0   0 # obsk
   1328      1   4 -0.950000     0.753199995    16.927679695    16.836080799   0   0   0 # ohk
   1329      1   1  1.575000     0.753199995    18.097411701    23.751668387   0   0   0 # feok
   1330      1   2  0.425000     0.753199995    16.492579775    31.217449701   0   0   0 # hoy
   1331      1   3 -1.050000     0.753199995    15.045299733    30.245936556   0   0   0 # obsk
   1332      1   4 -0.950000     0.753199995    17.422319733    31.706180344   0   0   0 # ohk
   1333      1   1  1.575000     2.259599984    15.807411739    25.815638280   0   0   0 # feok
   1334      1   2  0.425000     2.259599984    14.202579814    28.263256661   0   0   0 # hoy
   1335      1   3 -1.050000     2.259599984    17.335299695    29.234769806   0   0   0 # obsk
   1336      1   4 -0.950000     2.259599984    15.132319771    27.774526019   0   0   0 # ohk
   1337      1   1  1.575000     2.259599984    13.962587765    30.772338128   0   0   0 # feok
   1338      1   2  0.425000     2.259599984    15.567419690    23.306556813   0   0   0 # hoy
   1339      1   3 -1.050000     2.259599984    17.014699733    24.278069958   0   0   0 # obsk
   1340      1   4 -0.950000     2.259599984    14.637679733    22.817826171   0   0   0 # ohk
   1341      1   1  1.575000     0.753199995    16.252587727    28.708368235   0   0   0 # feok
   1342      1   2  0.425000     0.753199995    17.857419652    26.260749853   0   0   0 # hoy
   1343      1   3 -1.050000     0.753199995    14.724699771    25.289236708   0   0   0 # obsk
   1344      1   4 -0.950000     0.753199995    16.927679695    26.749480496   0   0   0 # ohk
   1345      1   1  1.575000     3.765999973    18.097411701     3.924868994   0   0   0 # feok
   1346      1   2  0.425000     3.765999973    16.492579775    11.390650309   0   0   0 # hoy
   1347      1   3 -1.050000     3.765999973    15.045299733    10.419137164   0   0   0 # obsk
   1348      1   4 -0.950000     3.765999973    17.422319733    11.879380951   0   0   0 # ohk
   1349      1   1  1.575000     5.272399962    15.807411739     5.988838887   0   0   0 # feok
   1350      1   2  0.425000     5.272399962    14.202579814     8.436457269   0   0   0 # hoy
   1351      1   3 -1.050000     5.272399962    17.335299695     9.407970414   0   0   0 # obsk
   1352      1   4 -0.950000     5.272399962    15.132319771     7.947726626   0   0   0 # ohk
   1353      1   1  1.575000     5.272399962    13.962587765    10.945538735   0   0   0 # feok
   1354      1   2  0.425000     5.272399962    15.567419690     3.479757421   0   0   0 # hoy
   1355      1   3 -1.050000     5.272399962    17.014699733     4.451270565   0   0   0 # obsk
   1356      1   4 -0.950000     5.272399962    14.637679733     2.991026778   0   0   0 # ohk
   1357      1   1  1.575000     3.765999973    16.252587727     8.881568842   0   0   0 # feok
   1358      1   2  0.425000     3.765999973    17.857419652     6.433950460   0   0   0 # hoy
   1359      1   3 -1.050000     3.765999973    14.724699771     5.462437316   0   0   0 # obsk
   1360      1   4 -0.950000     3.765999973    16.927679695     6.922681103   0   0   0 # ohk
   1361      1   1  1.575000     3.765999973    18.097411701    13.838268690   0   0   0 # feok
   1362      1   2  0.425000     3.765999973    16.492579775    21.304050005   0   0   0 # hoy
   1363      1   3 -1.050000     3.765999973    15.045299733    20.332536860   0   0   0 # obsk
   1364      1   4 -0.950000     3.765999973    17.422319733    21.792780648   0   0   0 # ohk
   1365      1   1  1.575000     5.272399962    15.807411739    15.902238583   0   0   0 # feok
   1366      1   2  0.425000     5.272399962    14.202579814    18.349856965   0   0   0 # hoy
   1367      1   3 -1.050000     5.272399962    17.335299695    19.321370110   0   0   0 # obsk
   1368      1   4 -0.950000     5.272399962    15.132319771    17.861126322   0   0   0 # ohk
   1369      1   1  1.575000     5.272399962    13.962587765    20.858938431   0   0   0 # feok
   1370      1   2  0.425000     5.272399962    15.567419690    13.393157117   0   0   0 # hoy
   1371      1   3 -1.050000     5.272399962    17.014699733    14.364670262   0   0   0 # obsk
   1372      1   4 -0.950000     5.272399962    14.637679733    12.904426474   0   0   0 # ohk
   1373      1   1  1.575000     3.765999973    16.252587727    18.794968539   0   0   0 # feok
   1374      1   2  0.425000     3.765999973    17.857419652    16.347350157   0   0   0 # hoy
   1375      1   3 -1.050000     3.765999973    14.724699771    15.375837012   0   0   0 # obsk
   1376      1   4 -0.950000     3.765999973    16.927679695    16.836080799   0   0   0 # ohk
   1377      1   1  1.575000     3.765999973    18.097411701    23.751668387   0   0   0 # feok
   1378      1   2  0.425000     3.765999973    16.492579775    31.217449701   0   0   0 # hoy
   1379      1   3 -1.050000     3.765999973    15.045299733    30.245936556   0   0   0 # obsk
   1380      1   4 -0.950000     3.765999973    17.422319733    31.706180344   0   0   0 # ohk
   1381      1   1  1.575000     5.272399962    15.807411739    25.815638280   0   0   0 # feok
   1382      1   2  0.425000     5.272399962    14.202579814    28.263256661   0   0   0 # hoy
   1383      1   3 -1.050000     5.272399962    17.335299695    29.234769806   0   0   0 # obsk
   1384      1   4 -0.950000     5.272399962    15.132319771    27.774526019   0   0   0 # ohk
   1385      1   1  1.575000     5.272399962    13.962587765    30.772338128   0   0   0 # feok
   1386      1   2  0.425000     5.272399962    15.567419690    23.306556813   0   0   0 # hoy
   1387      1   3 -1.050000     5.272399962    17.014699733    24.278069958   0   0   0 # obsk
   1388      1   4 -0.950000     5.272399962    14.637679733    22.817826171   0   0   0 # ohk
   1389      1   1  1.575000     3.765999973    16.252587727    28.708368235   0   0   0 # feok
   1390      1   2  0.425000     3.765999973    17.857419652    26.260749853   0   0   0 # hoy
   1391      1   3 -1.050000     3.765999973    14.724699771    25.289236708   0   0   0 # obsk
   1392      1   4 -0.950000     3.765999973    16.927679695    26.749480496   0   0   0 # ohk
   1393      1   1  1.575000     6.778799951    18.097411701     3.924868994   0   0   0 # feok
   1394      1   2  0.425000     6.778799951    16.492579775    11.390650309   0   0   0 # hoy
   1395      1   3 -1.050000     6.778799951    15.045299733    10.419137164   0   0   0 # obsk
   1396      1   4 -0.950000     6.778799951    17.422319733    11.879380951   0   0   0 # ohk
   1397      1   1  1.575000     8.285199940    15.807411739     5.988838887   0   0   0 # feok
   1398      1   2  0.425000     8.285199940    14.202579814     8.436457269   0   0   0 # hoy
   1399      1   3 -1.050000     8.285199940    17.335299695     9.407970414   0   0   0 # obsk
   1400      1   4 -0.950000     8.285199940    15.132319771     7.947726626   0   0   0 # ohk
   1401      1   1  1.575000     8.285199940    13.962587765    10.945538735   0   0   0 # feok
   1402      1   2  0.425000     8.285199940    15.567419690     3.479757421   0   0   0 # hoy
   1403      1   3 -1.050000     8.285199940    17.014699733     4.451270565   0   0   0 # obsk
   1404      1   4 -0.950000     8.285199940    14.637679733     2.991026778   0   0   0 # ohk
   1405      1   1  1.575000     6.778799951    16.252587727     8.881568842   0   0   0 # feok
   1406      1   2  0.425000     6.778799951    17.857419652     6.433950460   0   0   0 # hoy
   1407      1   3 -1.050000     6.778799951    14.724699771     5.462437316   0   0   0 # obsk
   1408      1   4 -0.950000     6.778799951    16.927679695     6.922681103   0   0   0 # ohk
   1409      1   1  1.575000     6.778799951    18.097411701    13.838268690   0   0   0 # feok
   1410      1   2  0.425000     6.778799951    16.492579775    21.304050005   0   0   0 # hoy
   1411      1   3 -1.050000     6.778799951    15.045299733    20.332536860   0   0   0 # obsk
   1412      1   4 -0.950000     6.778799951    17.422319733    21.792780648   0   0   0 # ohk
   1413      1   1  1.575000     8.285199940    15.807411739    15.902238583   0   0   0 # feok
   1414      1   2  0.425000     8.285199940    14.202579814    18.349856965   0   0   0 # hoy
   1415      1   3 -1.050000     8.285199940    17.335299695    19.321370110   0   0   0 # obsk
   1416      1   4 -0.950000     8.285199940    15.132319771    17.861126322   0   0   0 # ohk
   1417      1   1  1.575000     8.285199940    13.962587765    20.858938431   0   0   0 # feok
   1418      1   2  0.425000     8.285199940    15.567419690    13.393157117   0   0   0 # hoy
   1419      1   3 -1.050000     8.285199940    17.014699733    14.364670262   0   0   0 # obsk
   1420      1   4 -0.950000     8.285199940    14.637679733    12.904426474   0   0   0 # ohk
   1421      1   1  1.575000     6.778799951    16.252587727    18.794968539   0   0   0 # feok
   1422      1   2  0.425000     6.778799951    17.857419652    16.347350157   0   0   0 # hoy
   1423      1   3 -1.050000     6.778799951    14.724699771    15.375837012   0   0   0 # obsk
   1424      1   4 -0.950000     6.778799951    16.927679695    16.836080799   0   0   0 # ohk
   1425      1   1  1.575000     6.778799951    18.097411701    23.751668387   0   0   0 # feok
   1426      1   2  0.425000     6.778799951    16.492579775    31.217449701   0   0   0 # hoy
   1427      1   3 -1.050000     6.778799951    15.045299733    30.245936556   0   0   0 # obsk
   1428      1   4 -0.950000     6.778799951    17.422319733    31.706180344   0   0   0 # ohk
   1429      1   1  1.575000     8.285199940    15.807411739    25.815638280   0   0   0 # feok
   1430      1   2  0.425000     8.285199940    14.202579814    28.263256661   0   0   0 # hoy
   1431      1   3 -1.050000     8.285199940    17.335299695    29.234769806   0   0   0 # obsk
   1432      1   4 -0.950000     8.285199940    15.132319771    27.774526019   0   0   0 # ohk
   1433      1   1  1.575000     8.285199940    13.962587765    30.772338128   0   0   0 # feok
   1434      1   2  0.425000     8.285199940    15.567419690    23.306556813   0   0   0 # hoy
   1435      1   3 -1.050000     8.285199940    17.014699733    24.278069958   0   0   0 # obsk
   1436      1   4 -0.950000     8.285199940    14.637679733    22.817826171   0   0   0 # ohk
   1437      1   1  1.575000     6.778799951    16.252587727    28.708368235   0   0   0 # feok
   1438      1   2  0.425000     6.778799951    17.857419652    26.260749853   0   0   0 # hoy
   1439      1   3 -1.050000     6.778799951    14.724699771    25.289236708   0   0   0 # obsk
   1440      1   4 -0.950000     6.778799951    16.927679695    26.749480496   0   0   0 # ohk
   1441      1   1  1.575000     9.791599929    18.097411701     3.924868994   0   0   0 # feok
   1442      1   2  0.425000     9.791599929    16.492579775    11.390650309   0   0   0 # hoy
   1443      1   3 -1.050000     9.791599929    15.045299733    10.419137164   0   0   0 # obsk
   1444      1   4 -0.950000     9.791599929    17.422319733    11.879380951   0   0   0 # ohk
   1445      1   1  1.575000    11.297999918    15.807411739     5.988838887   0   0   0 # feok
   1446      1   2  0.425000    11.297999918    14.202579814     8.436457269   0   0   0 # hoy
   1447      1   3 -1.050000    11.297999918    17.335299695     9.407970414   0   0   0 # obsk
   1448      1   4 -0.950000    11.297999918    15.132319771     7.947726626   0   0   0 # ohk
   1449      1   1  1.575000    11.297999918    13.962587765    10.945538735   0   0   0 # feok
   1450      1   2  0.425000    11.297999918    15.567419690     3.479757421   0   0   0 # hoy
   1451      1   3 -1.050000    11.297999918    17.014699733     4.451270565   0   0   0 # obsk
   1452      1   4 -0.950000    11.297999918    14.637679733     2.991026778   0   0   0 # ohk
   1453      1   1  1.575000     9.791599929    16.252587727     8.881568842   0   0   0 # feok
   1454      1   2  0.425000     9.791599929    17.857419652     6.433950460   0   0   0 # hoy
   1455      1   3 -1.050000     9.791599929    14.724699771     5.462437316   0   0   0 # obsk
   1456      1   4 -0.950000     9.791599929    16.927679695     6.922681103   0   0   0 # ohk
   1457      1   1  1.575000     9.791599929    18.097411701    13.838268690   0   0   0 # feok
   1458      1   2  0.425000     9.791599929    16.492579775    21.304050005   0   0   0 # hoy
   1459      1   3 -1.050000     9.791599929    15.045299733    20.332536860   0   0   0 # obsk
   1460      1   4 -0.950000     9.791599929    17.422319733    21.792780648   0   0   0 # ohk
   1461      1   1  1.575000    11.297999918    15.807411739    15.902238583   0   0   0 # feok
   1462      1   2  0.425000    11.297999918    14.202579814    18.349856965   0   0   0 # hoy
   1463      1   3 -1.050000    11.297999918    17.335299695    19.321370110   0   0   0 # obsk
   1464      1   4 -0.950000    11.297999918    15.132319771    17.861126322   0   0   0 # ohk
   1465      1   1  1.575000    11.297999918    13.962587765    20.858938431   0   0   0 # feok
   1466      1   2  0.425000    11.297999918    15.567419690    13.393157117   0   0   0 # hoy
   1467      1   3 -1.050000    11.297999918    17.014699733    14.364670262   0   0   0 # obsk
   1468      1   4 -0.950000    11.297999918    14.637679733    12.904426474   0   0   0 # ohk
   1469      1   1  1.575000     9.791599929    16.252587727    18.794968539   0   0   0 # feok
   1470      1   2  0.425000     9.791599929    17.857419652    16.347350157   0   0   0 # hoy
   1471      1   3 -1.050000     9.791599929    14.724699771    15.375837012   0   0   0 # obsk
   1472      1   4 -0.950000     9.791599929    16.927679695    16.836080799   0   0   0 # ohk
   1473      1   1  1.575000     9.791599929    18.097411701    23.751668387   0   0   0 # feok
   1474      1   2  0.425000     9.791599929    16.492579775    31.217449701   0   0   0 # hoy
   1475      1   3 -1.050000     9.791599929    15.045299733    30.245936556   0   0   0 # obsk
   1476      1   4 -0.950000     9.791599929    17.422319733    31.706180344   0   0   0 # ohk
   1477      1   1  1.575000    11.297999918    15.807411739    25.815638280   0   0   0 # feok
   1478      1   2  0.425000    11.297999918    14.202579814    28.263256661   0   0   0 # hoy
   1479      1   3 -1.050000    11.297999918    17.335299695    29.234769806   0   0   0 # obsk
   1480      1   4 -0.950000    11.297999918    15.132319771    27.774526019   0   0   0 # ohk
   1481      1   1  1.575000    11.297999918    13.962587765    30.772338128   0   0   0 # feok
   1482      1   2  0.425000    11.297999918    15.567419690    23.306556813   0   0   0 # hoy
   1483      1   3 -1.050000    11.297999918    17.014699733    24.278069958   0   0   0 # obsk
   1484      1   4 -0.950000    11.297999918    14.637679733    22.817826171   0   0   0 # ohk
   1485      1   1  1.575000     9.791599929    16.252587727    28.708368235   0   0   0 # feok
   1486      1   2  0.425000     9.791599929    17.857419652    26.260749853   0   0   0 # hoy
   1487      1   3 -1.050000     9.791599929    14.724699771    25.289236708   0   0   0 # obsk
   1488      1   4 -0.950000     9.791599929    16.927679695    26.749480496   0   0   0 # ohk
   1489      1   1  1.575000    12.804399908    18.097411701     3.924868994   0   0   0 # feok
   1490      1   2  0.425000    12.804399908    16.492579775    11.390650309   0   0   0 # hoy
   1491      1   3 -1.050000    12.804399908    15.045299733    10.419137164   0   0   0 # obsk
   1492      1   4 -0.950000    12.804399908    17.422319733    11.879380951   0   0   0 # ohk
   1493      1   1  1.575000    14.310799897    15.807411739     5.988838887   0   0   0 # feok
   1494      1   2  0.425000    14.310799897    14.202579814     8.436457269   0   0   0 # hoy
   1495      1   3 -1.050000    14.310799897    17.335299695     9.407970414   0   0   0 # obsk
   1496      1   4 -0.950000    14.310799897    15.132319771     7.947726626   0   0   0 # ohk
   1497      1   1  1.575000    14.310799897    13.962587765    10.945538735   0   0   0 # feok
   1498      1   2  0.425000    14.310799897    15.567419690     3.479757421   0   0   0 # hoy
   1499      1   3 -1.050000    14.310799897    17.014699733     4.451270565   0   0   0 # obsk
   1500      1   4 -0.950000    14.310799897    14.637679733     2.991026778   0   0   0 # ohk
   1501      1   1  1.575000    12.804399908    16.252587727     8.881568842   0   0   0 # feok
   1502      1   2  0.425000    12.804399908    17.857419652     6.433950460   0   0   0 # hoy
   1503      1   3 -1.050000    12.804399908    14.724699771     5.462437316   0   0   0 # obsk
   1504      1   4 -0.950000    12.804399908    16.927679695     6.922681103   0   0   0 # ohk
   1505      1   1  1.575000    12.804399908    18.097411701    13.838268690   0   0   0 # feok
   1506      1   2  0.425000    12.804399908    16.492579775    21.304050005   0   0   0 # hoy
   1507      1   3 -1.050000    12.804399908    15.045299733    20.332536860   0   0   0 # obsk
   1508      1   4 -0.950000    12.804399908    17.422319733    21.792780648   0   0   0 # ohk
   1509      1   1  1.575000    14.310799897    15.807411739    15.902238583   0   0   0 # feok
   1510      1   2  0.425000    14.310799897    14.202579814    18.349856965   0   0   0 # hoy
   1511      1   3 -1.050000    14.310799897    17.335299695    19.321370110   0   0   0 # obsk
   1512      1   4 -0.950000    14.310799897    15.132319771    17.861126322   0   0   0 # ohk
   1513      1   1  1.575000    14.310799897    13.962587765    20.858938431   0   0   0 # feok
   1514      1   2  0.425000    14.310799897    15.567419690    13.393157117   0   0   0 # hoy
   1515      1   3 -1.050000    14.310799897    17.014699733    14.364670262   0   0   0 # obsk
   1516      1   4 -0.950000    14.310799897    14.637679733    12.904426474   0   0   0 # ohk
   1517      1   1  1.575000    12.804399908    16.252587727    18.794968539   0   0   0 # feok
   1518      1   2  0.425000    12.804399908    17.857419652    16.347350157   0   0   0 # hoy
   1519      1   3 -1.050000    12.804399908    14.724699771    15.375837012   0   0   0 # obsk
   1520      1   4 -0.950000    12.804399908    16.927679695    16.836080799   0   0   0 # ohk
   1521      1   1  1.575000    12.804399908    18.097411701    23.751668387   0   0   0 # feok
   1522      1   2  0.425000    12.804399908    16.492579775    31.217449701   0   0   0 # hoy
   1523      1   3 -1.050000    12.804399908    15.045299733    30.245936556   0   0   0 # obsk
   1524      1   4 -0.950000    12.804399908    17.422319733    31.706180344   0   0   0 # ohk
   1525      1   1  1.575000    14.310799897    15.807411739    25.815638280   0   0   0 # feok
   1526      1   2  0.425000    14.310799897    14.202579814    28.263256661   0   0   0 # hoy
   1527      1   3 -1.050000    14.310799897    17.335299695    29.234769806   0   0   0 # obsk
   1528      1   4 -0.950000    14.310799897    15.132319771    27.774526019   0   0   0 # ohk
   1529      1   1  1.575000    14.310799897    13.962587765    30.772338128   0   0   0 # feok
   1530      1   2  0.425000    14.310799897    15.567419690    23.306556813   0   0   0 # hoy
   1531      1   3 -1.050000    14.310799897    17.014699733    24.278069958   0   0   0 # obsk
   1532      1   4 -0.950000    14.310799897    14.637679733    22.817826171   0   0   0 # ohk
   1533      1   1  1.575000    12.804399908    16.252587727    28.708368235   0   0   0 # feok
   1534      1   2  0.425000    12.804399908    17.857419652    26.260749853   0   0   0 # hoy
   1535      1   3 -1.050000    12.804399908    14.724699771    25.289236708   0   0   0 # obsk
   1536      1   4 -0.950000    12.804399908    16.927679695    26.749480496   0   0   0 # ohk
   1537      1   1  1.575000    15.817199886    18.097411701     3.924868994   0   0   0 # feok
   1538      1   2  0.425000    15.817199886    16.492579775    11.390650309   0   0   0 # hoy
   1539      1   3 -1.050000    15.817199886    15.045299733    10.419137164   0   0   0 # obsk
   1540      1   4 -0.950000    15.817199886    17.422319733    11.879380951   0   0   0 # ohk
   1541      1   1  1.575000    17.323599875    15.807411739     5.988838887   0   0   0 # feok
   1542      1   2  0.425000    17.323599875    14.202579814     8.436457269   0   0   0 # hoy
   1543      1   3 -1.050000    17.323599875    17.335299695     9.407970414   0   0   0 # obsk
   1544      1   4 -0.950000    17.323599875    15.132319771     7.947726626   0   0   0 # ohk
   1545      1   1  1.575000    17.323599875    13.962587765    10.945538735   0   0   0 # feok
   1546      1   2  0.425000    17.323599875    15.567419690     3.479757421   0   0   0 # hoy
   1547      1   3 -1.050000    17.323599875    17.014699733     4.451270565   0   0   0 # obsk
   1548      1   4 -0.950000    17.323599875    14.637679733     2.991026778   0   0   0 # ohk
   1549      1   1  1.575000    15.817199886    16.252587727     8.881568842   0   0   0 # feok
   1550      1   2  0.425000    15.817199886    17.857419652     6.433950460   0   0   0 # hoy
   1551      1   3 -1.050000    15.817199886    14.724699771     5.462437316   0   0   0 # obsk
   1552      1   4 -0.950000    15.817199886    16.927679695     6.922681103   0   0   0 # ohk
   1553      1   1  1.575000    15.817199886    18.097411701    13.838268690   0   0   0 # feok
   1554      1   2  0.425000    15.817199886    16.492579775    21.304050005   0   0   0 # hoy
   1555      1   3 -1.050000    15.817199886    15.045299733    20.332536860   0   0   0 # obsk
   1556      1   4 -0.950000    15.817199886    17.422319733    21.792780648   0   0   0 # ohk
   1557      1   1  1.575000    17.323599875    15.807411739    15.902238583   0   0   0 # feok
   1558      1   2  0.425000    17.323599875    14.202579814    18.349856965   0   0   0 # hoy
   1559      1   3 -1.050000    17.323599875    17.335299695    19.321370110   0   0   0 # obsk
   1560      1   4 -0.950000    17.323599875    15.132319771    17.861126322   0   0   0 # ohk
   1561      1   1  1.575000    17.323599875    13.962587765    20.858938431   0   0   0 # feok
   1562      1   2  0.425000    17.323599875    15.567419690    13.393157117   0   0   0 # hoy
   1563      1   3 -1.050000    17.323599875    17.014699733    14.364670262   0   0   0 # obsk
   1564      1   4 -0.950000    17.323599875    14.637679733    12.904426474   0   0   0 # ohk
   1565      1   1  1.575000    15.817199886    16.252587727    18.794968539   0   0   0 # feok
   1566      1   2  0.425000    15.817199886    17.857419652    16.347350157   0   0   0 # hoy
   1567      1   3 -1.050000    15.817199886    14.724699771    15.375837012   0   0   0 # obsk
   1568      1   4 -0.950000    15.817199886    16.927679695    16.836080799   0   0   0 # ohk
   1569      1   1  1.575000    15.817199886    18.097411701    23.751668387   0   0   0 # feok
   1570      1   2  0.425000    15.817199886    16.492579775    31.217449701   0   0   0 # hoy
   1571      1   3 -1.050000    15.817199886    15.045299733    30.245936556   0   0   0 # obsk
   1572      1   4 -0.950000    15.817199886    17.422319733    31.706180344   0   0   0 # ohk
   1573      1   1  1.575000    17.323599875    15.807411739    25.815638280   0   0   0 # feok
   1574      1   2  0.425000    17.323599875    14.202579814    28.263256661   0   0   0 # hoy
   1575      1   3 -1.050000    17.323599875    17.335299695    29.234769806   0   0   0 # obsk
   1576      1   4 -0.950000    17.323599875    15.132319771    27.774526019   0   0   0 # ohk
   1577      1   1  1.575000    17.323599875    13.962587765    30.772338128   0   0   0 # feok
   1578      1   2  0.425000    17.323599875    15.567419690    23.306556813   0   0   0 # hoy
   1579      1   3 -1.050000    17.323599875    17.014699733    24.278069958   0   0   0 # obsk
   1580      1   4 -0.950000    17.323599875    14.637679733    22.817826171   0   0   0 # ohk
   1581      1   1  1.575000    15.817199886    16.252587727    28.708368235   0   0   0 # feok
   1582      1   2  0.425000    15.817199886    17.857419652    26.260749853   0   0   0 # hoy
   1583      1   3 -1.050000    15.817199886    14.724699771    25.289236708   0   0   0 # obsk
   1584      1   4 -0.950000    15.817199886    16.927679695    26.749480496   0   0   0 # ohk
   1585      1   1  1.575000    18.829999864    18.097411701     3.924868994   0   0   0 # feok
   1586      1   2  0.425000    18.829999864    16.492579775    11.390650309   0   0   0 # hoy
   1587      1   3 -1.050000    18.829999864    15.045299733    10.419137164   0   0   0 # obsk
   1588      1   4 -0.950000    18.829999864    17.422319733    11.879380951   0   0   0 # ohk
   1589      1   1  1.575000    20.336399853    15.807411739     5.988838887   0   0   0 # feok
   1590      1   2  0.425000    20.336399853    14.202579814     8.436457269   0   0   0 # hoy
   1591      1   3 -1.050000    20.336399853    17.335299695     9.407970414   0   0   0 # obsk
   1592      1   4 -0.950000    20.336399853    15.132319771     7.947726626   0   0   0 # ohk
   1593      1   1  1.575000    20.336399853    13.962587765    10.945538735   0   0   0 # feok
   1594      1   2  0.425000    20.336399853    15.567419690     3.479757421   0   0   0 # hoy
   1595      1   3 -1.050000    20.336399853    17.014699733     4.451270565   0   0   0 # obsk
   1596      1   4 -0.950000    20.336399853    14.637679733     2.991026778   0   0   0 # ohk
   1597      1   1  1.575000    18.829999864    16.252587727     8.881568842   0   0   0 # feok
   1598      1   2  0.425000    18.829999864    17.857419652     6.433950460   0   0   0 # hoy
   1599      1   3 -1.050000    18.829999864    14.724699771     5.462437316   0   0   0 # obsk
   1600      1   4 -0.950000    18.829999864    16.927679695     6.922681103   0   0   0 # ohk
   1601      1   1  1.575000    18.829999864    18.097411701    13.838268690   0   0   0 # feok
   1602      1   2  0.425000    18.829999864    16.492579775    21.304050005   0   0   0 # hoy
   1603      1   3 -1.050000    18.829999864    15.045299733    20.332536860   0   0   0 # obsk
   1604      1   4 -0.950000    18.829999864    17.422319733    21.792780648   0   0   0 # ohk
   1605      1   1  1.575000    20.336399853    15.807411739    15.902238583   0   0   0 # feok
   1606      1   2  0.425000    20.336399853    14.202579814    18.349856965   0   0   0 # hoy
   1607      1   3 -1.050000    20.336399853    17.335299695    19.321370110   0   0   0 # obsk
   1608      1   4 -0.950000    20.336399853    15.132319771    17.861126322   0   0   0 # ohk
   1609      1   1  1.575000    20.336399853    13.962587765    20.858938431   0   0   0 # feok
   1610      1   2  0.425000    20.336399853    15.567419690    13.393157117   0   0   0 # hoy
   1611      1   3 -1.050000    20.336399853    17.014699733    14.364670262   0   0   0 # obsk
   1612      1   4 -0.950000    20.336399853    14.637679733    12.904426474   0   0   0 # ohk
   1613      1   1  1.575000    18.829999864    16.252587727    18.794968539   0   0   0 # feok
   1614      1   2  0.425000    18.829999864    17.857419652    16.347350157   0   0   0 # hoy
   1615      1   3 -1.050000    18.829999864    14.724699771    15.375837012   0   0   0 # obsk
   1616      1   4 -0.950000    18.829999864    16.927679695    16.836080799   0   0   0 # ohk
   1617      1   1  1.575000    18.829999864    18.097411701    23.751668387   0   0   0 # feok
   1618      1   2  0.425000    18.829999864    16.492579775    31.217449701   0   0   0 # hoy
   1619      1   3 -1.050000    18.829999864    15.045299733    30.245936556   0   0   0 # obsk
   1620      1   4 -0.950000    18.829999864    17.422319733    31.706180344   0   0   0 # ohk
   1621      1   1  1.575000    20.336399853    15.807411739    25.815638280   0   0   0 # feok
   1622      1   2  0.425000    20.336399853    14.202579814    28.263256661   0   0   0 # hoy
   1623      1   3 -1.050000    20.336399853    17.335299695    29.234769806   0   0   0 # obsk
   1624      1   4 -0.950000    20.336399853    15.132319771    27.774526019   0   0   0 # ohk
   1625      1   1  1.575000    20.336399853    13.962587765    30.772338128   0   0   0 # feok
   1626      1   2  0.425000    20.336399853    15.567419690    23.306556813   0   0   0 # hoy
   1627      1   3 -1.050000    20.336399853    17.014699733    24.278069958   0   0   0 # obsk
   1628      1   4 -0.950000    20.336399853    14.637679733    22.817826171   0   0   0 # ohk
   1629      1   1  1.575000    18.829999864    16.252587727    28.708368235   0   0   0 # feok
   1630      1   2  0.425000    18.829999864    17.857419652    26.260749853   0   0   0 # hoy
   1631      1   3 -1.050000    18.829999864    14.724699771    25.289236708   0   0   0 # obsk
   1632      1   4 -0.950000    18.829999864    16.927679695    26.749480496   0   0   0 # ohk
   1633      1   1  1.575000    21.842799842    18.097411701     3.924868994   0   0   0 # feok
   1634      1   2  0.425000    21.842799842    16.492579775    11.390650309   0   0   0 # hoy
   1635      1   3 -1.050000    21.842799842    15.045299733    10.419137164   0   0   0 # obsk
   1636      1   4 -0.950000    21.842799842    17.422319733    11.879380951   0   0   0 # ohk
   1637      1   1  1.575000    23.349199831    15.807411739     5.988838887   0   0   0 # feok
   1638      1   2  0.425000    23.349199831    14.202579814     8.436457269   0   0   0 # hoy
   1639      1   3 -1.050000    23.349199831    17.335299695     9.407970414   0   0   0 # obsk
   1640      1   4 -0.950000    23.349199831    15.132319771     7.947726626   0   0   0 # ohk
   1641      1   1  1.575000    23.349199831    13.962587765    10.945538735   0   0   0 # feok
   1642      1   2  0.425000    23.349199831    15.567419690     3.479757421   0   0   0 # hoy
   1643      1   3 -1.050000    23.349199831    17.014699733     4.451270565   0   0   0 # obsk
   1644      1   4 -0.950000    23.349199831    14.637679733     2.991026778   0   0   0 # ohk
   1645      1   1  1.575000    21.842799842    16.252587727     8.881568842   0   0   0 # feok
   1646      1   2  0.425000    21.842799842    17.857419652     6.433950460   0   0   0 # hoy
   1647      1   3 -1.050000    21.842799842    14.724699771     5.462437316   0   0   0 # obsk
   1648      1   4 -0.950000    21.842799842    16.927679695     6.922681103   0   0   0 # ohk
   1649      1   1  1.575000    21.842799842    18.097411701    13.838268690   0   0   0 # feok
   1650      1   2  0.425000    21.842799842    16.492579775    21.304050005   0   0   0 # hoy
   1651      1   3 -1.050000    21.842799842    15.045299733    20.332536860   0   0   0 # obsk
   1652      1   4 -0.950000    21.842799842    17.422319733    21.792780648   0   0   0 # ohk
   1653      1   1  1.575000    23.349199831    15.807411739    15.902238583   0   0   0 # feok
   1654      1   2  0.425000    23.349199831    14.202579814    18.349856965   0   0   0 # hoy
   1655      1   3 -1.050000    23.349199831    17.335299695    19.321370110   0   0   0 # obsk
   1656      1   4 -0.950000    23.349199831    15.132319771    17.861126322   0   0   0 # ohk
   1657      1   1  1.575000    23.349199831    13.962587765    20.858938431   0   0   0 # feok
   1658      1   2  0.425000    23.349199831    15.567419690    13.393157117   0   0   0 # hoy
   1659      1   3 -1.050000    23.349199831    17.014699733    14.364670262   0   0   0 # obsk
   1660      1   4 -0.950000    23.349199831    14.637679733    12.904426474   0   0   0 # ohk
   1661      1   1  1.575000    21.842799842    16.252587727    18.794968539   0   0   0 # feok
   1662      1   2  0.425000    21.842799842    17.857419652    16.347350157   0   0   0 # hoy
   1663      1   3 -1.050000    21.842799842    14.724699771    15.375837012   0   0   0 # obsk
   1664      1   4 -0.950000    21.842799842    16.927679695    16.836080799   0   0   0 # ohk
   1665      1   1  1.575000    21.842799842    18.097411701    23.751668387   0   0   0 # feok
   1666      1   2  0.425000    21.842799842    16.492579775    31.217449701   0   0   0 # hoy
   1667      1   3 -1.050000    21.842799842    15.045299733    30.245936556   0   0   0 # obsk
   1668      1   4 -0.950000    21.842799842    17.422319733    31.706180344   0   0   0 # ohk
   1669      1   1  1.575000    23.349199831    15.807411739    25.815638280   0   0   0 # feok
   1670      1   2  0.425000    23.349199831    14.202579814    28.263256661   0   0   0 # hoy
   1671      1   3 -1.050000    23.349199831    17.335299695    29.234769806   0   0   0 # obsk
   1672      1   4 -0.950000    23.349199831    15.132319771    27.774526019   0   0   0 # ohk
   1673      1   1  1.575000    23.349199831    13.962587765    30.772338128   0   0   0 # feok
   1674      1   2  0.425000    23.349199831    15.567419690    23.306556813   0   0   0 # hoy
   1675      1   3 -1.050000    23.349199831    17.014699733    24.278069958   0   0   0 # obsk
   1676      1   4 -0.950000    23.349199831    14.637679733    22.817826171   0   0   0 # ohk
   1677      1   1  1.575000    21.842799842    16.252587727    28.708368235   0   0   0 # feok
   1678      1   2  0.425000    21.842799842    17.857419652    26.260749853   0   0   0 # hoy
   1679      1   3 -1.050000    21.842799842    14.724699771    25.289236708   0   0   0 # obsk
   1680      1   4 -0.950000    21.842799842    16.927679695    26.749480496   0   0   0 # ohk
   1681      1   1  1.575000    24.855599821    18.097411701     3.924868994   0   0   0 # feok
   1682      1   2  0.425000    24.855599821    16.492579775    11.390650309   0   0   0 # hoy
   1683      1   3 -1.050000    24.855599821    15.045299733    10.419137164   0   0   0 # obsk
   1684      1   4 -0.950000    24.855599821    17.422319733    11.879380951   0   0   0 # ohk
   1685      1   1  1.575000    26.361999810    15.807411739     5.988838887   0   0   0 # feok
   1686      1   2  0.425000    26.361999810    14.202579814     8.436457269   0   0   0 # hoy
   1687      1   3 -1.050000    26.361999810    17.335299695     9.407970414   0   0   0 # obsk
   1688      1   4 -0.950000    26.361999810    15.132319771     7.947726626   0   0   0 # ohk
   1689      1   1  1.575000    26.361999810    13.962587765    10.945538735   0   0   0 # feok
   1690      1   2  0.425000    26.361999810    15.567419690     3.479757421   0   0   0 # hoy
   1691      1   3 -1.050000    26.361999810    17.014699733     4.451270565   0   0   0 # obsk
   1692      1   4 -0.950000    26.361999810    14.637679733     2.991026778   0   0   0 # ohk
   1693      1   1  1.575000    24.855599821    16.252587727     8.881568842   0   0   0 # feok
   1694      1   2  0.425000    24.855599821    17.857419652     6.433950460   0   0   0 # hoy
   1695      1   3 -1.050000    24.855599821    14.724699771     5.462437316   0   0   0 # obsk
   1696      1   4 -0.950000    24.855599821    16.927679695     6.922681103   0   0   0 # ohk
   1697      1   1  1.575000    24.855599821    18.097411701    13.838268690   0   0   0 # feok
   1698      1   2  0.425000    24.855599821    16.492579775    21.304050005   0   0   0 # hoy
   1699      1   3 -1.050000    24.855599821    15.045299733    20.332536860   0   0   0 # obsk
   1700      1   4 -0.950000    24.855599821    17.422319733    21.792780648   0   0   0 # ohk
   1701      1   1  1.575000    26.361999810    15.807411739    15.902238583   0   0   0 # feok
   1702      1   2  0.425000    26.361999810    14.202579814    18.349856965   0   0   0 # hoy
   1703      1   3 -1.050000    26.361999810    17.335299695    19.321370110   0   0   0 # obsk
   1704      1   4 -0.950000    26.361999810    15.132319771    17.861126322   0   0   0 # ohk
   1705      1   1  1.575000    26.361999810    13.962587765    20.858938431   0   0   0 # feok
   1706      1   2  0.425000    26.361999810    15.567419690    13.393157117   0   0   0 # hoy
   1707      1   3 -1.050000    26.361999810    17.014699733    14.364670262   0   0   0 # obsk
   1708      1   4 -0.950000    26.361999810    14.637679733    12.904426474   0   0   0 # ohk
   1709      1   1  1.575000    24.855599821    16.252587727    18.794968539   0   0   0 # feok
   1710      1   2  0.425000    24.855599821    17.857419652    16.347350157   0   0   0 # hoy
   1711      1   3 -1.050000    24.855599821    14.724699771    15.375837012   0   0   0 # obsk
   1712      1   4 -0.950000    24.855599821    16.927679695    16.836080799   0   0   0 # ohk
   1713      1   1  1.575000    24.855599821    18.097411701    23.751668387   0   0   0 # feok
   1714      1   2  0.425000    24.855599821    16.492579775    31.217449701   0   0   0 # hoy
   1715      1   3 -1.050000    24.855599821    15.045299733    30.245936556   0   0   0 # obsk
   1716      1   4 -0.950000    24.855599821    17.422319733    31.706180344   0   0   0 # ohk
   1717      1   1  1.575000    26.361999810    15.807411739    25.815638280   0   0   0 # feok
   1718      1   2  0.425000    26.361999810    14.202579814    28.263256661   0   0   0 # hoy
   1719      1   3 -1.050000    26.361999810    17.335299695    29.234769806   0   0   0 # obsk
   1720      1   4 -0.950000    26.361999810    15.132319771    27.774526019   0   0   0 # ohk
   1721      1   1  1.575000    26.361999810    13.962587765    30.772338128   0   0   0 # feok
   1722      1   2  0.425000    26.361999810    15.567419690    23.306556813   0   0   0 # hoy
   1723      1   3 -1.050000    26.361999810    17.014699733    24.278069958   0   0   0 # obsk
   1724      1   4 -0.950000    26.361999810    14.637679733    22.817826171   0   0   0 # ohk
   1725      1   1  1.575000    24.855599821    16.252587727    28.708368235   0   0   0 # feok
   1726      1   2  0.425000    24.855599821    17.857419652    26.260749853   0   0   0 # hoy
   1727      1   3 -1.050000    24.855599821    14.724699771    25.289236708   0   0   0 # obsk
   1728      1   4 -0.950000    24.855599821    16.927679695    26.749480496   0   0   0 # ohk
   1729      1   1  1.575000     0.753199995    22.677411625     3.924868994   0   0   0 # feok
   1730      1   2  0.425000     0.753199995    21.072579699    11.390650309   0   0   0 # hoy
   1731      1   3 -1.050000     0.753199995    19.625299657    10.419137164   0   0   0 # obsk
   1732      1   4 -0.950000     0.753199995    22.002319657    11.879380951   0   0   0 # ohk
   1733      1   1  1.575000     2.259599984    20.387411663     5.988838887   0   0   0 # feok
   1734      1   2  0.425000     2.259599984    18.782579737     8.436457269   0   0   0 # hoy
   1735      1   3 -1.050000     2.259599984    21.915299619     9.407970414   0   0   0 # obsk
   1736      1   4 -0.950000     2.259599984    19.712319695     7.947726626   0   0   0 # ohk
   1737      1   1  1.575000     2.259599984    18.542587688    10.945538735   0   0   0 # feok
   1738      1   2  0.425000     2.259599984    20.147419614     3.479757421   0   0   0 # hoy
   1739      1   3 -1.050000     2.259599984    21.594699657     4.451270565   0   0   0 # obsk
   1740      1   4 -0.950000     2.259599984    19.217679656     2.991026778   0   0   0 # ohk
   1741      1   1  1.575000     0.753199995    20.832587650     8.881568842   0   0   0 # feok
   1742      1   2  0.425000     0.753199995    22.437419576     6.433950460   0   0   0 # hoy
   1743      1   3 -1.050000     0.753199995    19.304699695     5.462437316   0   0   0 # obsk
   1744      1   4 -0.950000     0.753199995    21.507679618     6.922681103   0   0   0 # ohk
   1745      1   1  1.575000     0.753199995    22.677411625    13.838268690   0   0   0 # feok
   1746      1   2  0.425000     0.753199995    21.072579699    21.304050005   0   0   0 # hoy
   1747      1   3 -1.050000     0.753199995    19.625299657    20.332536860   0   0   0 # obsk
   1748      1   4 -0.950000     0.753199995    22.002319657    21.792780648   0   0   0 # ohk
   1749      1   1  1.575000     2.259599984    20.387411663    15.902238583   0   0   0 # feok
   1750      1   2  0.425000     2.259599984    18.782579737    18.349856965   0   0   0 # hoy
   1751      1   3 -1.050000     2.259599984    21.915299619    19.321370110   0   0   0 # obsk
   1752      1   4 -0.950000     2.259599984    19.712319695    17.861126322   0   0   0 # ohk
   1753      1   1  1.575000     2.259599984    18.542587688    20.858938431   0   0   0 # feok
   1754      1   2  0.425000     2.259599984    20.147419614    13.393157117   0   0   0 # hoy
   1755      1   3 -1.050000     2.259599984    21.594699657    14.364670262   0   0   0 # obsk
   1756      1   4 -0.950000     2.259599984    19.217679656    12.904426474   0   0   0 # ohk
   1757      1   1  1.575000     0.753199995    20.832587650    18.794968539   0   0   0 # feok
   1758      1   2  0.425000     0.753199995    22.437419576    16.347350157   0   0   0 # hoy
   1759      1   3 -1.050000     0.753199995    19.304699695    15.375837012   0   0   0 # obsk
   1760      1   4 -0.950000     0.753199995    21.507679618    16.836080799   0   0   0 # ohk
   1761      1   1  1.575000     0.753199995    22.677411625    23.751668387   0   0   0 # feok
   1762      1   2  0.425000     0.753199995    21.072579699    31.217449701   0   0   0 # hoy
   1763      1   3 -1.050000     0.753199995    19.625299657    30.245936556   0   0   0 # obsk
   1764      1   4 -0.950000     0.753199995    22.002319657    31.706180344   0   0   0 # ohk
   1765      1   1  1.575000     2.259599984    20.387411663    25.815638280   0   0   0 # feok
   1766      1   2  0.425000     2.259599984    18.782579737    28.263256661   0   0   0 # hoy
   1767      1   3 -1.050000     2.259599984    21.915299619    29.234769806   0   0   0 # obsk
   1768      1   4 -0.950000     2.259599984    19.712319695    27.774526019   0   0   0 # ohk
   1769      1   1  1.575000     2.259599984    18.542587688    30.772338128   0   0   0 # feok
   1770      1   2  0.425000     2.259599984    20.147419614    23.306556813   0   0   0 # hoy
   1771      1   3 -1.050000     2.259599984    21.594699657    24.278069958   0   0   0 # obsk
   1772      1   4 -0.950000     2.259599984    19.217679656    22.817826171   0   0   0 # ohk
   1773      1   1  1.575000     0.753199995    20.832587650    28.708368235   0   0   0 # feok
   1774      1   2  0.425000     0.753199995    22.437419576    26.260749853   0   0   0 # hoy
   1775      1   3 -1.050000     0.753199995    19.304699695    25.289236708   0   0   0 # obsk
   1776      1   4 -0.950000     0.753199995    21.507679618    26.749480496   0   0   0 # ohk
   1777      1   1  1.575000     3.765999973    22.677411625     3.924868994   0   0   0 # feok
   1778      1   2  0.425000     3.765999973    21.072579699    11.390650309   0   0   0 # hoy
   1779      1   3 -1.050000     3.765999973    19.625299657    10.419137164   0   0   0 # obsk
   1780      1   4 -0.950000     3.765999973    22.002319657    11.879380951   0   0   0 # ohk
   1781      1   1  1.575000     5.272399962    20.387411663     5.988838887   0   0   0 # feok
   1782      1   2  0.425000     5.272399962    18.782579737     8.436457269   0   0   0 # hoy
   1783      1   3 -1.050000     5.272399962    21.915299619     9.407970414   0   0   0 # obsk
   1784      1   4 -0.950000     5.272399962    19.712319695     7.947726626   0   0   0 # ohk
   1785      1   1  1.575000     5.272399962    18.542587688    10.945538735   0   0   0 # feok
   1786      1   2  0.425000     5.272399962    20.147419614     3.479757421   0   0   0 # hoy
   1787      1   3 -1.050000     5.272399962    21.594699657     4.451270565   0   0   0 # obsk
   1788      1   4 -0.950000     5.272399962    19.217679656     2.991026778   0   0   0 # ohk
   1789      1   1  1.575000     3.765999973    20.832587650     8.881568842   0   0   0 # feok
   1790      1   2  0.425000     3.765999973    22.437419576     6.433950460   0   0   0 # hoy
   1791      1   3 -1.050000     3.765999973    19.304699695     5.462437316   0   0   0 # obsk
   1792      1   4 -0.950000     3.765999973    21.507679618     6.922681103   0   0   0 # ohk
   1793      1   1  1.575000     3.765999973    22.677411625    13.838268690   0   0   0 # feok
   1794      1   2  0.425000     3.765999973    21.072579699    21.304050005   0   0   0 # hoy
   1795      1   3 -1.050000     3.765999973    19.625299657    20.332536860   0   0   0 # obsk
   1796      1   4 -0.950000     3.765999973    22.002319657    21.792780648   0   0   0 # ohk
   1797      1   1  1.575000     5.272399962    20.387411663    15.902238583   0   0   0 # feok
   1798      1   2  0.425000     5.272399962    18.782579737    18.349856965   0   0   0 # hoy
   1799      1   3 -1.050000     5.272399962    21.915299619    19.321370110   0   0   0 # obsk
   1800      1   4 -0.950000     5.272399962    19.712319695    17.861126322   0   0   0 # ohk
   1801      1   1  1.575000     5.272399962    18.542587688    20.858938431   0   0   0 # feok
   1802      1   2  0.425000     5.272399962    20.147419614    13.393157117   0   0   0 # hoy
   1803      1   3 -1.050000     5.272399962    21.594699657    14.364670262   0   0   0 # obsk
   1804      1   4 -0.950000     5.272399962    19.217679656    12.904426474   0   0   0 # ohk
   1805      1   1  1.575000     3.765999973    20.832587650    18.794968539   0   0   0 # feok
   1806      1   2  0.425000     3.765999973    22.437419576    16.347350157   0   0   0 # hoy
   1807      1   3 -1.050000     3.765999973    19.304699695    15.375837012   0   0   0 # obsk
   1808      1   4 -0.950000     3.765999973    21.507679618    16.836080799   0   0   0 # ohk
   1809      1   1  1.575000     3.765999973    22.677411625    23.751668387   0   0   0 # feok
   1810      1   2  0.425000     3.765999973    21.072579699    31.217449701   0   0   0 # hoy
   1811      1   3 -1.050000     3.765999973    19.625299657    30.245936556   0   0   0 # obsk
   1812      1   4 -0.950000     3.765999973    22.002319657    31.706180344   0   0   0 # ohk
   1813      1   1  1.575000     5.272399962    20.387411663    25.815638280   0   0   0 # feok
   1814      1   2  0.425000     5.272399962    18.782579737    28.263256661   0   0   0 # hoy
   1815      1   3 -1.050000     5.272399962    21.915299619    29.234769806   0   0   0 # obsk
   1816      1   4 -0.950000     5.272399962    19.712319695    27.774526019   0   0   0 # ohk
   1817      1   1  1.575000     5.272399962    18.542587688    30.772338128   0   0   0 # feok
   1818      1   2  0.425000     5.272399962    20.147419614    23.306556813   0   0   0 # hoy
   1819      1   3 -1.050000     5.272399962    21.594699657    24.278069958   0   0   0 # obsk
   1820      1   4 -0.950000     5.272399962    19.217679656    22.817826171   0   0   0 # ohk
   1821      1   1  1.575000     3.765999973    20.832587650    28.708368235   0   0   0 # feok
   1822      1   2  0.425000     3.765999973    22.437419576    26.260749853   0   0   0 # hoy
   1823      1   3 -1.050000     3.765999973    19.304699695    25.289236708   0   0   0 # obsk
   1824      1   4 -0.950000     3.765999973    21.507679618    26.749480496   0   0   0 # ohk
   1825      1   1  1.575000     6.778799951    22.677411625     3.924868994   0   0   0 # feok
   1826      1   2  0.425000     6.778799951    21.072579699    11.390650309   0   0   0 # hoy
   1827      1   3 -1.050000     6.778799951    19.625299657    10.419137164   0   0   0 # obsk
   1828      1   4 -0.950000     6.778799951    22.002319657    11.879380951   0   0   0 # ohk
   1829      1   1  1.575000     8.285199940    20.387411663     5.988838887   0   0   0 # feok
   1830      1   2  0.425000     8.285199940    18.782579737     8.436457269   0   0   0 # hoy
   1831      1   3 -1.050000     8.285199940    21.915299619     9.407970414   0   0   0 # obsk
   1832      1   4 -0.950000     8.285199940    19.712319695     7.947726626   0   0   0 # ohk
   1833      1   1  1.575000     8.285199940    18.542587688    10.945538735   0   0   0 # feok
   1834      1   2  0.425000     8.285199940    20.147419614     3.479757421   0   0   0 # hoy
   1835      1   3 -1.050000     8.285199940    21.594699657     4.451270565   0   0   0 # obsk
   1836      1   4 -0.950000     8.285199940    19.217679656     2.991026778   0   0   0 # ohk
   1837      1   1  1.575000     6.778799951    20.832587650     8.881568842   0   0   0 # feok
   1838      1   2  0.425000     6.778799951    22.437419576     6.433950460   0   0   0 # hoy
   1839      1   3 -1.050000     6.778799951    19.304699695     5.462437316   0   0   0 # obsk
   1840      1   4 -0.950000     6.778799951    21.507679618     6.922681103   0   0   0 # ohk
   1841      1   1  1.575000     6.778799951    22.677411625    13.838268690   0   0   0 # feok
   1842      1   2  0.425000     6.778799951    21.072579699    21.304050005   0   0   0 # hoy
   1843      1   3 -1.050000     6.778799951    19.625299657    20.332536860   0   0   0 # obsk
   1844      1   4 -0.950000     6.778799951    22.002319657    21.792780648   0   0   0 # ohk
   1845      1   1  1.575000     8.285199940    20.387411663    15.902238583   0   0   0 # feok
   1846      1   2  0.425000     8.285199940    18.782579737    18.349856965   0   0   0 # hoy
   1847      1   3 -1.050000     8.285199940    21.915299619    19.321370110   0   0   0 # obsk
   1848      1   4 -0.950000     8.285199940    19.712319695    17.861126322   0   0   0 # ohk
   1849      1   1  1.575000     8.285199940    18.542587688    20.858938431   0   0   0 # feok
   1850      1   2  0.425000     8.285199940    20.147419614    13.393157117   0   0   0 # hoy
   1851      1   3 -1.050000     8.285199940    21.594699657    14.364670262   0   0   0 # obsk
   1852      1   4 -0.950000     8.285199940    19.217679656    12.904426474   0   0   0 # ohk
   1853      1   1  1.575000     6.778799951    20.832587650    18.794968539   0   0   0 # feok
   1854      1   2  0.425000     6.778799951    22.437419576    16.347350157   0   0   0 # hoy
   1855      1   3 -1.050000     6.778799951    19.304699695    15.375837012   0   0   0 # obsk
   1856      1   4 -0.950000     6.778799951    21.507679618    16.836080799   0   0   0 # ohk
   1857      1   1  1.575000     6.778799951    22.677411625    23.751668387   0   0   0 # feok
   1858      1   2  0.425000     6.778799951    21.072579699    31.217449701   0   0   0 # hoy
   1859      1   3 -1.050000     6.778799951    19.625299657    30.245936556   0   0   0 # obsk
   1860      1   4 -0.950000     6.778799951    22.002319657    31.706180344   0   0   0 # ohk
   1861      1   1  1.575000     8.285199940    20.387411663    25.815638280   0   0   0 # feok
   1862      1   2  0.425000     8.285199940    18.782579737    28.263256661   0   0   0 # hoy
   1863      1   3 -1.050000     8.285199940    21.915299619    29.234769806   0   0   0 # obsk
   1864      1   4 -0.950000     8.285199940    19.712319695    27.774526019   0   0   0 # ohk
   1865      1   1  1.575000     8.285199940    18.542587688    30.772338128   0   0   0 # feok
   1866      1   2  0.425000     8.285199940    20.147419614    23.306556813   0   0   0 # hoy
   1867      1   3 -1.050000     8.285199940    21.594699657    24.278069958   0   0   0 # obsk
   1868      1   4 -0.950000     8.285199940    19.217679656    22.817826171   0   0   0 # ohk
   1869      1   1  1.575000     6.778799951    20.832587650    28.708368235   0   0   0 # feok
   1870      1   2  0.425000     6.778799951    22.437419576    26.260749853   0   0   0 # hoy
   1871      1   3 -1.050000     6.778799951    19.304699695    25.289236708   0   0   0 # obsk
   1872      1   4 -0.950000     6.778799951    21.507679618    26.749480496   0   0   0 # ohk
   1873      1   1  1.575000     9.791599929    22.677411625     3.924868994   0   0   0 # feok
   1874      1   2  0.425000     9.791599929    21.072579699    11.390650309   0   0   0 # hoy
   1875      1   3 -1.050000     9.791599929    19.625299657    10.419137164   0   0   0 # obsk
   1876      1   4 -0.950000     9.791599929    22.002319657    11.879380951   0   0   0 # ohk
   1877      1   1  1.575000    11.297999918    20.387411663     5.988838887   0   0   0 # feok
   1878      1   2  0.425000    11.297999918    18.782579737     8.436457269   0   0   0 # hoy
   1879      1   3 -1.050000    11.297999918    21.915299619     9.407970414   0   0   0 # obsk
   1880      1   4 -0.950000    11.297999918    19.712319695     7.947726626   0   0   0 # ohk
   1881      1   1  1.575000    11.297999918    18.542587688    10.945538735   0   0   0 # feok
   1882      1   2  0.425000    11.297999918    20.147419614     3.479757421   0   0   0 # hoy
   1883      1   3 -1.050000    11.297999918    21.594699657     4.451270565   0   0   0 # obsk
   1884      1   4 -0.950000    11.297999918    19.217679656     2.991026778   0   0   0 # ohk
   1885      1   1  1.575000     9.791599929    20.832587650     8.881568842   0   0   0 # feok
   1886      1   2  0.425000     9.791599929    22.437419576     6.433950460   0   0   0 # hoy
   1887      1   3 -1.050000     9.791599929    19.304699695     5.462437316   0   0   0 # obsk
   1888      1   4 -0.950000     9.791599929    21.507679618     6.922681103   0   0   0 # ohk
   1889      1   1  1.575000     9.791599929    22.677411625    13.838268690   0   0   0 # feok
   1890      1   2  0.425000     9.791599929    21.072579699    21.304050005   0   0   0 # hoy
   1891      1   3 -1.050000     9.791599929    19.625299657    20.332536860   0   0   0 # obsk
   1892      1   4 -0.950000     9.791599929    22.002319657    21.792780648   0   0   0 # ohk
   1893      1   1  1.575000    11.297999918    20.387411663    15.902238583   0   0   0 # feok
   1894      1   2  0.425000    11.297999918    18.782579737    18.349856965   0   0   0 # hoy
   1895      1   3 -1.050000    11.297999918    21.915299619    19.321370110   0   0   0 # obsk
   1896      1   4 -0.950000    11.297999918    19.712319695    17.861126322   0   0   0 # ohk
   1897      1   1  1.575000    11.297999918    18.542587688    20.858938431   0   0   0 # feok
   1898      1   2  0.425000    11.297999918    20.147419614    13.393157117   0   0   0 # hoy
   1899      1   3 -1.050000    11.297999918    21.594699657    14.364670262   0   0   0 # obsk
   1900      1   4 -0.950000    11.297999918    19.217679656    12.904426474   0   0   0 # ohk
   1901      1   1  1.575000     9.791599929    20.832587650    18.794968539   0   0   0 # feok
   1902      1   2  0.425000     9.791599929    22.437419576    16.347350157   0   0   0 # hoy
   1903      1   3 -1.050000     9.791599929    19.304699695    15.375837012   0   0   0 # obsk
   1904      1   4 -0.950000     9.791599929    21.507679618    16.836080799   0   0   0 # ohk
   1905      1   1  1.575000     9.791599929    22.677411625    23.751668387   0   0   0 # feok
   1906      1   2  0.425000     9.791599929    21.072579699    31.217449701   0   0   0 # hoy
   1907      1   3 -1.050000     9.791599929    19.625299657    30.245936556   0   0   0 # obsk
   1908      1   4 -0.950000     9.791599929    22.002319657    31.706180344   0   0   0 # ohk
   1909      1   1  1.575000    11.297999918    20.387411663    25.815638280   0   0   0 # feok
   1910      1   2  0.425000    11.297999918    18.782579737    28.263256661   0   0   0 # hoy
   1911      1   3 -1.050000    11.297999918    21.915299619    29.234769806   0   0   0 # obsk
   1912      1   4 -0.950000    11.297999918    19.712319695    27.774526019   0   0   0 # ohk
   1913      1   1  1.575000    11.297999918    18.542587688    30.772338128   0   0   0 # feok
   1914      1   2  0.425000    11.297999918    20.147419614    23.306556813   0   0   0 # hoy
   1915      1   3 -1.050000    11.297999918    21.594699657    24.278069958   0   0   0 # obsk
   1916      1   4 -0.950000    11.297999918    19.217679656    22.817826171   0   0   0 # ohk
   1917      1   1  1.575000     9.791599929    20.832587650    28.708368235   0   0   0 # feok
   1918      1   2  0.425000     9.791599929    22.437419576    26.260749853   0   0   0 # hoy
   1919      1   3 -1.050000     9.791599929    19.304699695    25.289236708   0   0   0 # obsk
   1920      1   4 -0.950000     9.791599929    21.507679618    26.749480496   0   0   0 # ohk
   1921      1   1  1.575000    12.804399908    22.677411625     3.924868994   0   0   0 # feok
   1922      1   2  0.425000    12.804399908    21.072579699    11.390650309   0   0   0 # hoy
   1923      1   3 -1.050000    12.804399908    19.625299657    10.419137164   0   0   0 # obsk
   1924      1   4 -0.950000    12.804399908    22.002319657    11.879380951   0   0   0 # ohk
   1925      1   1  1.575000    14.310799897    20.387411663     5.988838887   0   0   0 # feok
   1926      1   2  0.425000    14.310799897    18.782579737     8.436457269   0   0   0 # hoy
   1927      1   3 -1.050000    14.310799897    21.915299619     9.407970414   0   0   0 # obsk
   1928      1   4 -0.950000    14.310799897    19.712319695     7.947726626   0   0   0 # ohk
   1929      1   1  1.575000    14.310799897    18.542587688    10.945538735   0   0   0 # feok
   1930      1   2  0.425000    14.310799897    20.147419614     3.479757421   0   0   0 # hoy
   1931      1   3 -1.050000    14.310799897    21.594699657     4.451270565   0   0   0 # obsk
   1932      1   4 -0.950000    14.310799897    19.217679656     2.991026778   0   0   0 # ohk
   1933      1   1  1.575000    12.804399908    20.832587650     8.881568842   0   0   0 # feok
   1934      1   2  0.425000    12.804399908    22.437419576     6.433950460   0   0   0 # hoy
   1935      1   3 -1.050000    12.804399908    19.304699695     5.462437316   0   0   0 # obsk
   1936      1   4 -0.950000    12.804399908    21.507679618     6.922681103   0   0   0 # ohk
   1937      1   1  1.575000    12.804399908    22.677411625    13.838268690   0   0   0 # feok
   1938      1   2  0.425000    12.804399908    21.072579699    21.304050005   0   0   0 # hoy
   1939      1   3 -1.050000    12.804399908    19.625299657    20.332536860   0   0   0 # obsk
   1940      1   4 -0.950000    12.804399908    22.002319657    21.792780648   0   0   0 # ohk
   1941      1   1  1.575000    14.310799897    20.387411663    15.902238583   0   0   0 # feok
   1942      1   2  0.425000    14.310799897    18.782579737    18.349856965   0   0   0 # hoy
   1943      1   3 -1.050000    14.310799897    21.915299619    19.321370110   0   0   0 # obsk
   1944      1   4 -0.950000    14.310799897    19.712319695    17.861126322   0   0   0 # ohk
   1945      1   1  1.575000    14.310799897    18.542587688    20.858938431   0   0   0 # feok
   1946      1   2  0.425000    14.310799897    20.147419614    13.393157117   0   0   0 # hoy
   1947      1   3 -1.050000    14.310799897    21.594699657    14.364670262   0   0   0 # obsk
   1948      1   4 -0.950000    14.310799897    19.217679656    12.904426474   0   0   0 # ohk
   1949      1   1  1.575000    12.804399908    20.832587650    18.794968539   0   0   0 # feok
   1950      1   2  0.425000    12.804399908    22.437419576    16.347350157   0   0   0 # hoy
   1951      1   3 -1.050000    12.804399908    19.304699695    15.375837012   0   0   0 # obsk
   1952      1   4 -0.950000    12.804399908    21.507679618    16.836080799   0   0   0 # ohk
   1953      1   1  1.575000    12.804399908    22.677411625    23.751668387   0   0   0 # feok
   1954      1   2  0.425000    12.804399908    21.072579699    31.217449701   0   0   0 # hoy
   1955      1   3 -1.050000    12.804399908    19.625299657    30.245936556   0   0   0 # obsk
   1956      1   4 -0.950000    12.804399908    22.002319657    31.706180344   0   0   0 # ohk
   1957      1   1  1.575000    14.310799897    20.387411663    25.815638280   0   0   0 # feok
   1958      1   2  0.425000    14.310799897    18.782579737    28.263256661   0   0   0 # hoy
   1959      1   3 -1.050000    14.310799897    21.915299619    29.234769806   0   0   0 # obsk
   1960      1   4 -0.950000    14.310799897    19.712319695    27.774526019   0   0   0 # ohk
   1961      1   1  1.575000    14.310799897    18.542587688    30.772338128   0   0   0 # feok
   1962      1   2  0.425000    14.310799897    20.147419614    23.306556813   0   0   0 # hoy
   1963      1   3 -1.050000    14.310799897    21.594699657    24.278069958   0   0   0 # obsk
   1964      1   4 -0.950000    14.310799897    19.217679656    22.817826171   0   0   0 # ohk
   1965      1   1  1.575000    12.804399908    20.832587650    28.708368235   0   0   0 # feok
   1966      1   2  0.425000    12.804399908    22.437419576    26.260749853   0   0   0 # hoy
   1967      1   3 -1.050000    12.804399908    19.304699695    25.289236708   0   0   0 # obsk
   1968      1   4 -0.950000    12.804399908    21.507679618    26.749480496   0   0   0 # ohk
   1969      1   1  1.575000    15.817199886    22.677411625     3.924868994   0   0   0 # feok
   1970      1   2  0.425000    15.817199886    21.072579699    11.390650309   0   0   0 # hoy
   1971      1   3 -1.050000    15.817199886    19.625299657    10.419137164   0   0   0 # obsk
   1972      1   4 -0.950000    15.817199886    22.002319657    11.879380951   0   0   0 # ohk
   1973      1   1  1.575000    17.323599875    20.387411663     5.988838887   0   0   0 # feok
   1974      1   2  0.425000    17.323599875    18.782579737     8.436457269   0   0   0 # hoy
   1975      1   3 -1.050000    17.323599875    21.915299619     9.407970414   0   0   0 # obsk
   1976      1   4 -0.950000    17.323599875    19.712319695     7.947726626   0   0   0 # ohk
   1977      1   1  1.575000    17.323599875    18.542587688    10.945538735   0   0   0 # feok
   1978      1   2  0.425000    17.323599875    20.147419614     3.479757421   0   0   0 # hoy
   1979      1   3 -1.050000    17.323599875    21.594699657     4.451270565   0   0   0 # obsk
   1980      1   4 -0.950000    17.323599875    19.217679656     2.991026778   0   0   0 # ohk
   1981      1   1  1.575000    15.817199886    20.832587650     8.881568842   0   0   0 # feok
   1982      1   2  0.425000    15.817199886    22.437419576     6.433950460   0   0   0 # hoy
   1983      1   3 -1.050000    15.817199886    19.304699695     5.462437316   0   0   0 # obsk
   1984      1   4 -0.950000    15.817199886    21.507679618     6.922681103   0   0   0 # ohk
   1985      1   1  1.575000    15.817199886    22.677411625    13.838268690   0   0   0 # feok
   1986      1   2  0.425000    15.817199886    21.072579699    21.304050005   0   0   0 # hoy
   1987      1   3 -1.050000    15.817199886    19.625299657    20.332536860   0   0   0 # obsk
   1988      1   4 -0.950000    15.817199886    22.002319657    21.792780648   0   0   0 # ohk
   1989      1   1  1.575000    17.323599875    20.387411663    15.902238583   0   0   0 # feok
   1990      1   2  0.425000    17.323599875    18.782579737    18.349856965   0   0   0 # hoy
   1991      1   3 -1.050000    17.323599875    21.915299619    19.321370110   0   0   0 # obsk
   1992      1   4 -0.950000    17.323599875    19.712319695    17.861126322   0   0   0 # ohk
   1993      1   1  1.575000    17.323599875    18.542587688    20.858938431   0   0   0 # feok
   1994      1   2  0.425000    17.323599875    20.147419614    13.393157117   0   0   0 # hoy
   1995      1   3 -1.050000    17.323599875    21.594699657    14.364670262   0   0   0 # obsk
   1996      1   4 -0.950000    17.323599875    19.217679656    12.904426474   0   0   0 # ohk
   1997      1   1  1.575000    15.817199886    20.832587650    18.794968539   0   0   0 # feok
   1998      1   2  0.425000    15.817199886    22.437419576    16.347350157   0   0   0 # hoy
   1999      1   3 -1.050000    15.817199886    19.304699695    15.375837012   0   0   0 # obsk
   2000      1   4 -0.950000    15.817199886    21.507679618    16.836080799   0   0   0 # ohk
   2001      1   1  1.575000    15.817199886    22.677411625    23.751668387   0   0   0 # feok
   2002      1   2  0.425000    15.817199886    21.072579699    31.217449701   0   0   0 # hoy
   2003      1   3 -1.050000    15.817199886    19.625299657    30.245936556   0   0   0 # obsk
   2004      1   4 -0.950000    15.817199886    22.002319657    31.706180344   0   0   0 # ohk
   2005      1   1  1.575000    17.323599875    20.387411663    25.815638280   0   0   0 # feok
   2006      1   2  0.425000    17.323599875    18.782579737    28.263256661   0   0   0 # hoy
   2007      1   3 -1.050000    17.323599875    21.915299619    29.234769806   0   0   0 # obsk
   2008      1   4 -0.950000    17.323599875    19.712319695    27.774526019   0   0   0 # ohk
   2009      1   1  1.575000    17.323599875    18.542587688    30.772338128   0   0   0 # feok
   2010      1   2  0.425000    17.323599875    20.147419614    23.306556813   0   0   0 # hoy
   2011      1   3 -1.050000    17.323599875    21.594699657    24.278069958   0   0   0 # obsk
   2012      1   4 -0.950000    17.323599875    19.217679656    22.817826171   0   0   0 # ohk
   2013      1   1  1.575000    15.817199886    20.832587650    28.708368235   0   0   0 # feok
   2014      1   2  0.425000    15.817199886    22.437419576    26.260749853   0   0   0 # hoy
   2015      1   3 -1.050000    15.817199886    19.304699695    25.289236708   0   0   0 # obsk
   2016      1   4 -0.950000    15.817199886    21.507679618    26.749480496   0   0   0 # ohk
   2017      1   1  1.575000    18.829999864    22.677411625     3.924868994   0   0   0 # feok
   2018      1   2  0.425000    18.829999864    21.072579699    11.390650309   0   0   0 # hoy
   2019      1   3 -1.050000    18.829999864    19.625299657    10.419137164   0   0   0 # obsk
   2020      1   4 -0.950000    18.829999864    22.002319657    11.879380951   0   0   0 # ohk
   2021      1   1  1.575000    20.336399853    20.387411663     5.988838887   0   0   0 # feok
   2022      1   2  0.425000    20.336399853    18.782579737     8.436457269   0   0   0 # hoy
   2023      1   3 -1.050000    20.336399853    21.915299619     9.407970414   0   0   0 # obsk
   2024      1   4 -0.950000    20.336399853    19.712319695     7.947726626   0   0   0 # ohk
   2025      1   1  1.575000    20.336399853    18.542587688    10.945538735   0   0   0 # feok
   2026      1   2  0.425000    20.336399853    20.147419614     3.479757421   0   0   0 # hoy
   2027      1   3 -1.050000    20.336399853    21.594699657     4.451270565   0   0   0 # obsk
   2028      1   4 -0.950000    20.336399853    19.217679656     2.991026778   0   0   0 # ohk
   2029      1   1  1.575000    18.829999864    20.832587650     8.881568842   0   0   0 # feok
   2030      1   2  0.425000    18.829999864    22.437419576     6.433950460   0   0   0 # hoy
   2031      1   3 -1.050000    18.829999864    19.304699695     5.462437316   0   0   0 # obsk
   2032      1   4 -0.950000    18.829999864    21.507679618     6.922681103   0   0   0 # ohk
   2033      1   1  1.575000    18.829999864    22.677411625    13.838268690   0   0   0 # feok
   2034      1   2  0.425000    18.829999864    21.072579699    21.304050005   0   0   0 # hoy
   2035      1   3 -1.050000    18.829999864    19.625299657    20.332536860   0   0   0 # obsk
   2036      1   4 -0.950000    18.829999864    22.002319657    21.792780648   0   0   0 # ohk
   2037      1   1  1.575000    20.336399853    20.387411663    15.902238583   0   0   0 # feok
   2038      1   2  0.425000    20.336399853    18.782579737    18.349856965   0   0   0 # hoy
   2039      1   3 -1.050000    20.336399853    21.915299619    19.321370110   0   0   0 # obsk
   2040      1   4 -0.950000    20.336399853    19.712319695    17.861126322   0   0   0 # ohk
   2041      1   1  1.575000    20.336399853    18.542587688    20.858938431   0   0   0 # feok
   2042      1   2  0.425000    20.336399853    20.147419614    13.393157117   0   0   0 # hoy
   2043      1   3 -1.050000    20.336399853    21.594699657    14.364670262   0   0   0 # obsk
   2044      1   4 -0.950000    20.336399853    19.217679656    12.904426474   0   0   0 # ohk
   2045      1   1  1.575000    18.829999864    20.832587650    18.794968539   0   0   0 # feok
   2046      1   2  0.425000    18.829999864    22.437419576    16.347350157   0   0   0 # hoy
   2047      1   3 -1.050000    18.829999864    19.304699695    15.375837012   0   0   0 # obsk
   2048      1   4 -0.950000    18.829999864    21.507679618    16.836080799   0   0   0 # ohk
   2049      1   1  1.575000    18.829999864    22.677411625    23.751668387   0   0   0 # feok
   2050      1   2  0.425000    18.829999864    21.072579699    31.217449701   0   0   0 # hoy
   2051      1   3 -1.050000    18.829999864    19.625299657    30.245936556   0   0   0 # obsk
   2052      1   4 -0.950000    18.829999864    22.002319657    31.706180344   0   0   0 # ohk
   2053      1   1  1.575000    20.336399853    20.387411663    25.815638280   0   0   0 # feok
   2054      1   2  0.425000    20.336399853    18.782579737    28.263256661   0   0   0 # hoy
   2055      1   3 -1.050000    20.336399853    21.915299619    29.234769806   0   0   0 # obsk
   2056      1   4 -0.950000    20.336399853    19.712319695    27.774526019   0   0   0 # ohk
   2057      1   1  1.575000    20.336399853    18.542587688    30.772338128   0   0   0 # feok
   2058      1   2  0.425000    20.336399853    20.147419614    23.306556813   0   0   0 # hoy
   2059      1   3 -1.050000    20.336399853    21.594699657    24.278069958   0   0   0 # obsk
   2060      1   4 -0.950000    20.336399853    19.217679656    22.817826171   0   0   0 # ohk
   2061      1   1  1.575000    18.829999864    20.832587650    28.708368235   0   0   0 # feok
   2062      1   2  0.425000    18.829999864    22.437419576    26.260749853   0   0   0 # hoy
   2063      1   3 -1.050000    18.829999864    19.304699695    25.289236708   0   0   0 # obsk
   2064      1   4 -0.950000    18.829999864    21.507679618    26.749480496   0   0   0 # ohk
   2065      1   1  1.575000    21.842799842    22.677411625     3.924868994   0   0   0 # feok
   2066      1   2  0.425000    21.842799842    21.072579699    11.390650309   0   0   0 # hoy
   2067      1   3 -1.050000    21.842799842    19.625299657    10.419137164   0   0   0 # obsk
   2068      1   4 -0.950000    21.842799842    22.002319657    11.879380951   0   0   0 # ohk
   2069      1   1  1.575000    23.349199831    20.387411663     5.988838887   0   0   0 # feok
   2070      1   2  0.425000    23.349199831    18.782579737     8.436457269   0   0   0 # hoy
   2071      1   3 -1.050000    23.349199831    21.915299619     9.407970414   0   0   0 # obsk
   2072      1   4 -0.950000    23.349199831    19.712319695     7.947726626   0   0   0 # ohk
   2073      1   1  1.575000    23.349199831    18.542587688    10.945538735   0   0   0 # feok
   2074      1   2  0.425000    23.349199831    20.147419614     3.479757421   0   0   0 # hoy
   2075      1   3 -1.050000    23.349199831    21.594699657     4.451270565   0   0   0 # obsk
   2076      1   4 -0.950000    23.349199831    19.217679656     2.991026778   0   0   0 # ohk
   2077      1   1  1.575000    21.842799842    20.832587650     8.881568842   0   0   0 # feok
   2078      1   2  0.425000    21.842799842    22.437419576     6.433950460   0   0   0 # hoy
   2079      1   3 -1.050000    21.842799842    19.304699695     5.462437316   0   0   0 # obsk
   2080      1   4 -0.950000    21.842799842    21.507679618     6.922681103   0   0   0 # ohk
   2081      1   1  1.575000    21.842799842    22.677411625    13.838268690   0   0   0 # feok
   2082      1   2  0.425000    21.842799842    21.072579699    21.304050005   0   0   0 # hoy
   2083      1   3 -1.050000    21.842799842    19.625299657    20.332536860   0   0   0 # obsk
   2084      1   4 -0.950000    21.842799842    22.002319657    21.792780648   0   0   0 # ohk
   2085      1   1  1.575000    23.349199831    20.387411663    15.902238583   0   0   0 # feok
   2086      1   2  0.425000    23.349199831    18.782579737    18.349856965   0   0   0 # hoy
   2087      1   3 -1.050000    23.349199831    21.915299619    19.321370110   0   0   0 # obsk
   2088      1   4 -0.950000    23.349199831    19.712319695    17.861126322   0   0   0 # ohk
   2089      1   1  1.575000    23.349199831    18.542587688    20.858938431   0   0   0 # feok
   2090      1   2  0.425000    23.349199831    20.147419614    13.393157117   0   0   0 # hoy
   2091      1   3 -1.050000    23.349199831    21.594699657    14.364670262   0   0   0 # obsk
   2092      1   4 -0.950000    23.349199831    19.217679656    12.904426474   0   0   0 # ohk
   2093      1   1  1.575000    21.842799842    20.832587650    18.794968539   0   0   0 # feok
   2094      1   2  0.425000    21.842799842    22.437419576    16.347350157   0   0   0 # hoy
   2095      1   3 -1.050000    21.842799842    19.304699695    15.375837012   0   0   0 # obsk
   2096      1   4 -0.950000    21.842799842    21.507679618    16.836080799   0   0   0 # ohk
   2097      1   1  1.575000    21.842799842    22.677411625    23.751668387   0   0   0 # feok
   2098      1   2  0.425000    21.842799842    21.072579699    31.217449701   0   0   0 # hoy
   2099      1   3 -1.050000    21.842799842    19.625299657    30.245936556   0   0   0 # obsk
   2100      1   4 -0.950000    21.842799842    22.002319657    31.706180344   0   0   0 # ohk
   2101      1   1  1.575000    23.349199831    20.387411663    25.815638280   0   0   0 # feok
   2102      1   2  0.425000    23.349199831    18.782579737    28.263256661   0   0   0 # hoy
   2103      1   3 -1.050000    23.349199831    21.915299619    29.234769806   0   0   0 # obsk
   2104      1   4 -0.950000    23.349199831    19.712319695    27.774526019   0   0   0 # ohk
   2105      1   1  1.575000    23.349199831    18.542587688    30.772338128   0   0   0 # feok
   2106      1   2  0.425000    23.349199831    20.147419614    23.306556813   0   0   0 # hoy
   2107      1   3 -1.050000    23.349199831    21.594699657    24.278069958   0   0   0 # obsk
   2108      1   4 -0.950000    23.349199831    19.217679656    22.817826171   0   0   0 # ohk
   2109      1   1  1.575000    21.842799842    20.832587650    28.708368235   0   0   0 # feok
   2110      1   2  0.425000    21.842799842    22.437419576    26.260749853   0   0   0 # hoy
   2111      1   3 -1.050000    21.842799842    19.304699695    25.289236708   0   0   0 # obsk
   2112      1   4 -0.950000    21.842799842    21.507679618    26.749480496   0   0   0 # ohk
   2113      1   1  1.575000    24.855599821    22.677411625     3.924868994   0   0   0 # feok
   2114      1   2  0.425000    24.855599821    21.072579699    11.390650309   0   0   0 # hoy
   2115      1   3 -1.050000    24.855599821    19.625299657    10.419137164   0   0   0 # obsk
   2116      1   4 -0.950000    24.855599821    22.002319657    11.879380951   0   0   0 # ohk
   2117      1   1  1.575000    26.361999810    20.387411663     5.988838887   0   0   0 # feok
   2118      1   2  0.425000    26.361999810    18.782579737     8.436457269   0   0   0 # hoy
   2119      1   3 -1.050000    26.361999810    21.915299619     9.407970414   0   0   0 # obsk
   2120      1   4 -0.950000    26.361999810    19.712319695     7.947726626   0   0   0 # ohk
   2121      1   1  1.575000    26.361999810    18.542587688    10.945538735   0   0   0 # feok
   2122      1   2  0.425000    26.361999810    20.147419614     3.479757421   0   0   0 # hoy
   2123      1   3 -1.050000    26.361999810    21.594699657     4.451270565   0   0   0 # obsk
   2124      1   4 -0.950000    26.361999810    19.217679656     2.991026778   0   0   0 # ohk
   2125      1   1  1.575000    24.855599821    20.832587650     8.881568842   0   0   0 # feok
   2126      1   2  0.425000    24.855599821    22.437419576     6.433950460   0   0   0 # hoy
   2127      1   3 -1.050000    24.855599821    19.304699695     5.462437316   0   0   0 # obsk
   2128      1   4 -0.950000    24.855599821    21.507679618     6.922681103   0   0   0 # ohk
   2129      1   1  1.575000    24.855599821    22.677411625    13.838268690   0   0   0 # feok
   2130      1   2  0.425000    24.855599821    21.072579699    21.304050005   0   0   0 # hoy
   2131      1   3 -1.050000    24.855599821    19.625299657    20.332536860   0   0   0 # obsk
   2132      1   4 -0.950000    24.855599821    22.002319657    21.792780648   0   0   0 # ohk
   2133      1   1  1.575000    26.361999810    20.387411663    15.902238583   0   0   0 # feok
   2134      1   2  0.425000    26.361999810    18.782579737    18.349856965   0   0   0 # hoy
   2135      1   3 -1.050000    26.361999810    21.915299619    19.321370110   0   0   0 # obsk
   2136      1   4 -0.950000    26.361999810    19.712319695    17.861126322   0   0   0 # ohk
   2137      1   1  1.575000    26.361999810    18.542587688    20.858938431   0   0   0 # feok
   2138      1   2  0.425000    26.361999810    20.147419614    13.393157117   0   0   0 # hoy
   2139      1   3 -1.050000    26.361999810    21.594699657    14.364670262   0   0   0 # obsk
   2140      1   4 -0.950000    26.361999810    19.217679656    12.904426474   0   0   0 # ohk
   2141      1   1  1.575000    24.855599821    20.832587650    18.794968539   0   0   0 # feok
   2142      1   2  0.425000    24.855599821    22.437419576    16.347350157   0   0   0 # hoy
   2143      1   3 -1.050000    24.855599821    19.304699695    15.375837012   0   0   0 # obsk
   2144      1   4 -0.950000    24.855599821    21.507679618    16.836080799   0   0   0 # ohk
   2145      1   1  1.575000    24.855599821    22.677411625    23.751668387   0   0   0 # feok
   2146      1   2  0.425000    24.855599821    21.072579699    31.217449701   0   0   0 # hoy
   2147      1   3 -1.050000    24.855599821    19.625299657    30.245936556   0   0   0 # obsk
   2148      1   4 -0.950000    24.855599821    22.002319657    31.706180344   0   0   0 # ohk
   2149      1   1  1.575000    26.361999810    20.387411663    25.815638280   0   0   0 # feok
   2150      1   2  0.425000    26.361999810    18.782579737    28.263256661   0   0   0 # hoy
   2151      1   3 -1.050000    26.361999810    21.915299619    29.234769806   0   0   0 # obsk
   2152      1   4 -0.950000    26.361999810    19.712319695    27.774526019   0   0   0 # ohk
   2153      1   1  1.575000    26.361999810    18.542587688    30.772338128   0   0   0 # feok
   2154      1   2  0.425000    26.361999810    20.147419614    23.306556813   0   0   0 # hoy
   2155      1   3 -1.050000    26.361999810    21.594699657    24.278069958   0   0   0 # obsk
   2156      1   4 -0.950000    26.361999810    19.217679656    22.817826171   0   0   0 # ohk
   2157      1   1  1.575000    24.855599821    20.832587650    28.708368235   0   0   0 # feok
   2158      1   2  0.425000    24.855599821    22.437419576    26.260749853   0   0   0 # hoy
   2159      1   3 -1.050000    24.855599821    19.304699695    25.289236708   0   0   0 # obsk
   2160      1   4 -0.950000    24.855599821    21.507679618    26.749480496   0   0   0 # ohk
   2161      1   1  1.575000     0.753199995    27.257411549     3.924868994   0   0   0 # feok
   2162      1   2  0.425000     0.753199995    25.652579623    11.390650309   0   0   0 # hoy
   2163      1   3 -1.050000     0.753199995    24.205299580    10.419137164   0   0   0 # obsk
   2164      1   4 -0.950000     0.753199995    26.582319581    11.879380951   0   0   0 # ohk
   2165      1   1  1.575000     2.259599984    24.967411587     5.988838887   0   0   0 # feok
   2166      1   2  0.425000     2.259599984    23.362579661     8.436457269   0   0   0 # hoy
   2167      1   3 -1.050000     2.259599984    26.495299542     9.407970414   0   0   0 # obsk
   2168      1   4 -0.950000     2.259599984    24.292319619     7.947726626   0   0   0 # ohk
   2169      1   1  1.575000     2.259599984    23.122587612    10.945538735   0   0   0 # feok
   2170      1   2  0.425000     2.259599984    24.727419538     3.479757421   0   0   0 # hoy
   2171      1   3 -1.050000     2.259599984    26.174699580     4.451270565   0   0   0 # obsk
   2172      1   4 -0.950000     2.259599984    23.797679580     2.991026778   0   0   0 # ohk
   2173      1   1  1.575000     0.753199995    25.412587574     8.881568842   0   0   0 # feok
   2174      1   2  0.425000     0.753199995    27.017419500     6.433950460   0   0   0 # hoy
   2175      1   3 -1.050000     0.753199995    23.884699619     5.462437316   0   0   0 # obsk
   2176      1   4 -0.950000     0.753199995    26.087679542     6.922681103   0   0   0 # ohk
   2177      1   1  1.575000     0.753199995    27.257411549    13.838268690   0   0   0 # feok
   2178      1   2  0.425000     0.753199995    25.652579623    21.304050005   0   0   0 # hoy
   2179      1   3 -1.050000     0.753199995    24.205299580    20.332536860   0   0   0 # obsk
   2180      1   4 -0.950000     0.753199995    26.582319581    21.792780648   0   0   0 # ohk
   2181      1   1  1.575000     2.259599984    24.967411587    15.902238583   0   0   0 # feok
   2182      1   2  0.425000     2.259599984    23.362579661    18.349856965   0   0   0 # hoy
   2183      1   3 -1.050000     2.259599984    26.495299542    19.321370110   0   0   0 # obsk
   2184      1   4 -0.950000     2.259599984    24.292319619    17.861126322   0   0   0 # ohk
   2185      1   1  1.575000     2.259599984    23.122587612    20.858938431   0   0   0 # feok
   2186      1   2  0.425000     2.259599984    24.727419538    13.393157117   0   0   0 # hoy
   2187      1   3 -1.050000     2.259599984    26.174699580    14.364670262   0   0   0 # obsk
   2188      1   4 -0.950000     2.259599984    23.797679580    12.904426474   0   0   0 # ohk
   2189      1   1  1.575000     0.753199995    25.412587574    18.794968539   0   0   0 # feok
   2190      1   2  0.425000     0.753199995    27.017419500    16.347350157   0   0   0 # hoy
   2191      1   3 -1.050000     0.753199995    23.884699619    15.375837012   0   0   0 # obsk
   2192      1   4 -0.950000     0.753199995    26.087679542    16.836080799   0   0   0 # ohk
   2193      1   1  1.575000     0.753199995    27.257411549    23.751668387   0   0   0 # feok
   2194      1   2  0.425000     0.753199995    25.652579623    31.217449701   0   0   0 # hoy
   2195      1   3 -1.050000     0.753199995    24.205299580    30.245936556   0   0   0 # obsk
   2196      1   4 -0.950000     0.753199995    26.582319581    31.706180344   0   0   0 # ohk
   2197      1   1  1.575000     2.259599984    24.967411587    25.815638280   0   0   0 # feok
   2198      1   2  0.425000     2.259599984    23.362579661    28.263256661   0   0   0 # hoy
   2199      1   3 -1.050000     2.259599984    26.495299542    29.234769806   0   0   0 # obsk
   2200      1   4 -0.950000     2.259599984    24.292319619    27.774526019   0   0   0 # ohk
   2201      1   1  1.575000     2.259599984    23.122587612    30.772338128   0   0   0 # feok
   2202      1   2  0.425000     2.259599984    24.727419538    23.306556813   0   0   0 # hoy
   2203      1   3 -1.050000     2.259599984    26.174699580    24.278069958   0   0   0 # obsk
   2204      1   4 -0.950000     2.259599984    23.797679580    22.817826171   0   0   0 # ohk
   2205      1   1  1.575000     0.753199995    25.412587574    28.708368235   0   0   0 # feok
   2206      1   2  0.425000     0.753199995    27.017419500    26.260749853   0   0   0 # hoy
   2207      1   3 -1.050000     0.753199995    23.884699619    25.289236708   0   0   0 # obsk
   2208      1   4 -0.950000     0.753199995    26.087679542    26.749480496   0   0   0 # ohk
   2209      1   1  1.575000     3.765999973    27.257411549     3.924868994   0   0   0 # feok
   2210      1   2  0.425000     3.765999973    25.652579623    11.390650309   0   0   0 # hoy
   2211      1   3 -1.050000     3.765999973    24.205299580    10.419137164   0   0   0 # obsk
   2212      1   4 -0.950000     3.765999973    26.582319581    11.879380951   0   0   0 # ohk
   2213      1   1  1.575000     5.272399962    24.967411587     5.988838887   0   0   0 # feok
   2214      1   2  0.425000     5.272399962    23.362579661     8.436457269   0   0   0 # hoy
   2215      1   3 -1.050000     5.272399962    26.495299542     9.407970414   0   0   0 # obsk
   2216      1   4 -0.950000     5.272399962    24.292319619     7.947726626   0   0   0 # ohk
   2217      1   1  1.575000     5.272399962    23.122587612    10.945538735   0   0   0 # feok
   2218      1   2  0.425000     5.272399962    24.727419538     3.479757421   0   0   0 # hoy
   2219      1   3 -1.050000     5.272399962    26.174699580     4.451270565   0   0   0 # obsk
   2220      1   4 -0.950000     5.272399962    23.797679580     2.991026778   0   0   0 # ohk
   2221      1   1  1.575000     3.765999973    25.412587574     8.881568842   0   0   0 # feok
   2222      1   2  0.425000     3.765999973    27.017419500     6.433950460   0   0   0 # hoy
   2223      1   3 -1.050000     3.765999973    23.884699619     5.462437316   0   0   0 # obsk
   2224      1   4 -0.950000     3.765999973    26.087679542     6.922681103   0   0   0 # ohk
   2225      1   1  1.575000     3.765999973    27.257411549    13.838268690   0   0   0 # feok
   2226      1   2  0.425000     3.765999973    25.652579623    21.304050005   0   0   0 # hoy
   2227      1   3 -1.050000     3.765999973    24.205299580    20.332536860   0   0   0 # obsk
   2228      1   4 -0.950000     3.765999973    26.582319581    21.792780648   0   0   0 # ohk
   2229      1   1  1.575000     5.272399962    24.967411587    15.902238583   0   0   0 # feok
   2230      1   2  0.425000     5.272399962    23.362579661    18.349856965   0   0   0 # hoy
   2231      1   3 -1.050000     5.272399962    26.495299542    19.321370110   0   0   0 # obsk
   2232      1   4 -0.950000     5.272399962    24.292319619    17.861126322   0   0   0 # ohk
   2233      1   1  1.575000     5.272399962    23.122587612    20.858938431   0   0   0 # feok
   2234      1   2  0.425000     5.272399962    24.727419538    13.393157117   0   0   0 # hoy
   2235      1   3 -1.050000     5.272399962    26.174699580    14.364670262   0   0   0 # obsk
   2236      1   4 -0.950000     5.272399962    23.797679580    12.904426474   0   0   0 # ohk
   2237      1   1  1.575000     3.765999973    25.412587574    18.794968539   0   0   0 # feok
   2238      1   2  0.425000     3.765999973    27.017419500    16.347350157   0   0   0 # hoy
   2239      1   3 -1.050000     3.765999973    23.884699619    15.375837012   0   0   0 # obsk
   2240      1   4 -0.950000     3.765999973    26.087679542    16.836080799   0   0   0 # ohk
   2241      1   1  1.575000     3.765999973    27.257411549    23.751668387   0   0   0 # feok
   2242      1   2  0.425000     3.765999973    25.652579623    31.217449701   0   0   0 # hoy
   2243      1   3 -1.050000     3.765999973    24.205299580    30.245936556   0   0   0 # obsk
   2244      1   4 -0.950000     3.765999973    26.582319581    31.706180344   0   0   0 # ohk
   2245      1   1  1.575000     5.272399962    24.967411587    25.815638280   0   0   0 # feok
   2246      1   2  0.425000     5.272399962    23.362579661    28.263256661   0   0   0 # hoy
   2247      1   3 -1.050000     5.272399962    26.495299542    29.234769806   0   0   0 # obsk
   2248      1   4 -0.950000     5.272399962    24.292319619    27.774526019   0   0   0 # ohk
   2249      1   1  1.575000     5.272399962    23.122587612    30.772338128   0   0   0 # feok
   2250      1   2  0.425000     5.272399962    24.727419538    23.306556813   0   0   0 # hoy
   2251      1   3 -1.050000     5.272399962    26.174699580    24.278069958   0   0   0 # obsk
   2252      1   4 -0.950000     5.272399962    23.797679580    22.817826171   0   0   0 # ohk
   2253      1   1  1.575000     3.765999973    25.412587574    28.708368235   0   0   0 # feok
   2254      1   2  0.425000     3.765999973    27.017419500    26.260749853   0   0   0 # hoy
   2255      1   3 -1.050000     3.765999973    23.884699619    25.289236708   0   0   0 # obsk
   2256      1   4 -0.950000     3.765999973    26.087679542    26.749480496   0   0   0 # ohk
   2257      1   1  1.575000     6.778799951    27.257411549     3.924868994   0   0   0 # feok
   2258      1   2  0.425000     6.778799951    25.652579623    11.390650309   0   0   0 # hoy
   2259      1   3 -1.050000     6.778799951    24.205299580    10.419137164   0   0   0 # obsk
   2260      1   4 -0.950000     6.778799951    26.582319581    11.879380951   0   0   0 # ohk
   2261      1   1  1.575000     8.285199940    24.967411587     5.988838887   0   0   0 # feok
   2262      1   2  0.425000     8.285199940    23.362579661     8.436457269   0   0   0 # hoy
   2263      1   3 -1.050000     8.285199940    26.495299542     9.407970414   0   0   0 # obsk
   2264      1   4 -0.950000     8.285199940    24.292319619     7.947726626   0   0   0 # ohk
   2265      1   1  1.575000     8.285199940    23.122587612    10.945538735   0   0   0 # feok
   2266      1   2  0.425000     8.285199940    24.727419538     3.479757421   0   0   0 # hoy
   2267      1   3 -1.050000     8.285199940    26.174699580     4.451270565   0   0   0 # obsk
   2268      1   4 -0.950000     8.285199940    23.797679580     2.991026778   0   0   0 # ohk
   2269      1   1  1.575000     6.778799951    25.412587574     8.881568842   0   0   0 # feok
   2270      1   2  0.425000     6.778799951    27.017419500     6.433950460   0   0   0 # hoy
   2271      1   3 -1.050000     6.778799951    23.884699619     5.462437316   0   0   0 # obsk
   2272      1   4 -0.950000     6.778799951    26.087679542     6.922681103   0   0   0 # ohk
   2273      1   1  1.575000     6.778799951    27.257411549    13.838268690   0   0   0 # feok
   2274      1   2  0.425000     6.778799951    25.652579623    21.304050005   0   0   0 # hoy
   2275      1   3 -1.050000     6.778799951    24.205299580    20.332536860   0   0   0 # obsk
   2276      1   4 -0.950000     6.778799951    26.582319581    21.792780648   0   0   0 # ohk
   2277      1   1  1.575000     8.285199940    24.967411587    15.902238583   0   0   0 # feok
   2278      1   2  0.425000     8.285199940    23.362579661    18.349856965   0   0   0 # hoy
   2279      1   3 -1.050000     8.285199940    26.495299542    19.321370110   0   0   0 # obsk
   2280      1   4 -0.950000     8.285199940    24.292319619    17.861126322   0   0   0 # ohk
   2281      1   1  1.575000     8.285199940    23.122587612    20.858938431   0   0   0 # feok
   2282      1   2  0.425000     8.285199940    24.727419538    13.393157117   0   0   0 # hoy
   2283      1   3 -1.050000     8.285199940    26.174699580    14.364670262   0   0   0 # obsk
   2284      1   4 -0.950000     8.285199940    23.797679580    12.904426474   0   0   0 # ohk
   2285      1   1  1.575000     6.778799951    25.412587574    18.794968539   0   0   0 # feok
   2286      1   2  0.425000     6.778799951    27.017419500    16.347350157   0   0   0 # hoy
   2287      1   3 -1.050000     6.778799951    23.884699619    15.375837012   0   0   0 # obsk
   2288      1   4 -0.950000     6.778799951    26.087679542    16.836080799   0   0   0 # ohk
   2289      1   1  1.575000     6.778799951    27.257411549    23.751668387   0   0   0 # feok
   2290      1   2  0.425000     6.778799951    25.652579623    31.217449701   0   0   0 # hoy
   2291      1   3 -1.050000     6.778799951    24.205299580    30.245936556   0   0   0 # obsk
   2292      1   4 -0.950000     6.778799951    26.582319581    31.706180344   0   0   0 # ohk
   2293      1   1  1.575000     8.285199940    24.967411587    25.815638280   0   0   0 # feok
   2294      1   2  0.425000     8.285199940    23.362579661    28.263256661   0   0   0 # hoy
   2295      1   3 -1.050000     8.285199940    26.495299542    29.234769806   0   0   0 # obsk
   2296      1   4 -0.950000     8.285199940    24.292319619    27.774526019   0   0   0 # ohk
   2297      1   1  1.575000     8.285199940    23.122587612    30.772338128   0   0   0 # feok
   2298      1   2  0.425000     8.285199940    24.727419538    23.306556813   0   0   0 # hoy
   2299      1   3 -1.050000     8.285199940    26.174699580    24.278069958   0   0   0 # obsk
   2300      1   4 -0.950000     8.285199940    23.797679580    22.817826171   0   0   0 # ohk
   2301      1   1  1.575000     6.778799951    25.412587574    28.708368235   0   0   0 # feok
   2302      1   2  0.425000     6.778799951    27.017419500    26.260749853   0   0   0 # hoy
   2303      1   3 -1.050000     6.778799951    23.884699619    25.289236708   0   0   0 # obsk
   2304      1   4 -0.950000     6.778799951    26.087679542    26.749480496   0   0   0 # ohk
   2305      1   1  1.575000     9.791599929    27.257411549     3.924868994   0   0   0 # feok
   2306      1   2  0.425000     9.791599929    25.652579623    11.390650309   0   0   0 # hoy
   2307      1   3 -1.050000     9.791599929    24.205299580    10.419137164   0   0   0 # obsk
   2308      1   4 -0.950000     9.791599929    26.582319581    11.879380951   0   0   0 # ohk
   2309      1   1  1.575000    11.297999918    24.967411587     5.988838887   0   0   0 # feok
   2310      1   2  0.425000    11.297999918    23.362579661     8.436457269   0   0   0 # hoy
   2311      1   3 -1.050000    11.297999918    26.495299542     9.407970414   0   0   0 # obsk
   2312      1   4 -0.950000    11.297999918    24.292319619     7.947726626   0   0   0 # ohk
   2313      1   1  1.575000    11.297999918    23.122587612    10.945538735   0   0   0 # feok
   2314      1   2  0.425000    11.297999918    24.727419538     3.479757421   0   0   0 # hoy
   2315      1   3 -1.050000    11.297999918    26.174699580     4.451270565   0   0   0 # obsk
   2316      1   4 -0.950000    11.297999918    23.797679580     2.991026778   0   0   0 # ohk
   2317      1   1  1.575000     9.791599929    25.412587574     8.881568842   0   0   0 # feok
   2318      1   2  0.425000     9.791599929    27.017419500     6.433950460   0   0   0 # hoy
   2319      1   3 -1.050000     9.791599929    23.884699619     5.462437316   0   0   0 # obsk
   2320      1   4 -0.950000     9.791599929    26.087679542     6.922681103   0   0   0 # ohk
   2321      1   1  1.575000     9.791599929    27.257411549    13.838268690   0   0   0 # feok
   2322      1   2  0.425000     9.791599929    25.652579623    21.304050005   0   0   0 # hoy
   2323      1   3 -1.050000     9.791599929    24.205299580    20.332536860   0   0   0 # obsk
   2324      1   4 -0.950000     9.791599929    26.582319581    21.792780648   0   0   0 # ohk
   2325      1   1  1.575000    11.297999918    24.967411587    15.902238583   0   0   0 # feok
   2326      1   2  0.425000    11.297999918    23.362579661    18.349856965   0   0   0 # hoy
   2327      1   3 -1.050000    11.297999918    26.495299542    19.321370110   0   0   0 # obsk
   2328      1   4 -0.950000    11.297999918    24.292319619    17.861126322   0   0   0 # ohk
   2329      1   1  1.575000    11.297999918    23.122587612    20.858938431   0   0   0 # feok
   2330      1   2  0.425000    11.297999918    24.727419538    13.393157117   0   0   0 # hoy
   2331      1   3 -1.050000    11.297999918    26.174699580    14.364670262   0   0   0 # obsk
   2332      1   4 -0.950000    11.297999918    23.797679580    12.904426474   0   0   0 # ohk
   2333      1   1  1.575000     9.791599929    25.412587574    18.794968539   0   0   0 # feok
   2334      1   2  0.425000     9.791599929    27.017419500    16.347350157   0   0   0 # hoy
   2335      1   3 -1.050000     9.791599929    23.884699619    15.375837012   0   0   0 # obsk
   2336      1   4 -0.950000     9.791599929    26.087679542    16.836080799   0   0   0 # ohk
   2337      1   1  1.575000     9.791599929    27.257411549    23.751668387   0   0   0 # feok
   2338      1   2  0.425000     9.791599929    25.652579623    31.217449701   0   0   0 # hoy
   2339      1   3 -1.050000     9.791599929    24.205299580    30.245936556   0   0   0 # obsk
   2340      1   4 -0.950000     9.791599929    26.582319581    31.706180344   0   0   0 # ohk
   2341      1   1  1.575000    11.297999918    24.967411587    25.815638280   0   0   0 # feok
   2342      1   2  0.425000    11.297999918    23.362579661    28.263256661   0   0   0 # hoy
   2343      1   3 -1.050000    11.297999918    26.495299542    29.234769806   0   0   0 # obsk
   2344      1   4 -0.950000    11.297999918    24.292319619    27.774526019   0   0   0 # ohk
   2345      1   1  1.575000    11.297999918    23.122587612    30.772338128   0   0   0 # feok
   2346      1   2  0.425000    11.297999918    24.727419538    23.306556813   0   0   0 # hoy
   2347      1   3 -1.050000    11.297999918    26.174699580    24.278069958   0   0   0 # obsk
   2348      1   4 -0.950000    11.297999918    23.797679580    22.817826171   0   0   0 # ohk
   2349      1   1  1.575000     9.791599929    25.412587574    28.708368235   0   0   0 # feok
   2350      1   2  0.425000     9.791599929    27.017419500    26.260749853   0   0   0 # hoy
   2351      1   3 -1.050000     9.791599929    23.884699619    25.289236708   0   0   0 # obsk
   2352      1   4 -0.950000     9.791599929    26.087679542    26.749480496   0   0   0 # ohk
   2353      1   1  1.575000    12.804399908    27.257411549     3.924868994   0   0   0 # feok
   2354      1   2  0.425000    12.804399908    25.652579623    11.390650309   0   0   0 # hoy
   2355      1   3 -1.050000    12.804399908    24.205299580    10.419137164   0   0   0 # obsk
   2356      1   4 -0.950000    12.804399908    26.582319581    11.879380951   0   0   0 # ohk
   2357      1   1  1.575000    14.310799897    24.967411587     5.988838887   0   0   0 # feok
   2358      1   2  0.425000    14.310799897    23.362579661     8.436457269   0   0   0 # hoy
   2359      1   3 -1.050000    14.310799897    26.495299542     9.407970414   0   0   0 # obsk
   2360      1   4 -0.950000    14.310799897    24.292319619     7.947726626   0   0   0 # ohk
   2361      1   1  1.575000    14.310799897    23.122587612    10.945538735   0   0   0 # feok
   2362      1   2  0.425000    14.310799897    24.727419538     3.479757421   0   0   0 # hoy
   2363      1   3 -1.050000    14.310799897    26.174699580     4.451270565   0   0   0 # obsk
   2364      1   4 -0.950000    14.310799897    23.797679580     2.991026778   0   0   0 # ohk
   2365      1   1  1.575000    12.804399908    25.412587574     8.881568842   0   0   0 # feok
   2366      1   2  0.425000    12.804399908    27.017419500     6.433950460   0   0   0 # hoy
   2367      1   3 -1.050000    12.804399908    23.884699619     5.462437316   0   0   0 # obsk
   2368      1   4 -0.950000    12.804399908    26.087679542     6.922681103   0   0   0 # ohk
   2369      1   1  1.575000    12.804399908    27.257411549    13.838268690   0   0   0 # feok
   2370      1   2  0.425000    12.804399908    25.652579623    21.304050005   0   0   0 # hoy
   2371      1   3 -1.050000    12.804399908    24.205299580    20.332536860   0   0   0 # obsk
   2372      1   4 -0.950000    12.804399908    26.582319581    21.792780648   0   0   0 # ohk
   2373      1   1  1.575000    14.310799897    24.967411587    15.902238583   0   0   0 # feok
   2374      1   2  0.425000    14.310799897    23.362579661    18.349856965   0   0   0 # hoy
   2375      1   3 -1.050000    14.310799897    26.495299542    19.321370110   0   0   0 # obsk
   2376      1   4 -0.950000    14.310799897    24.292319619    17.861126322   0   0   0 # ohk
   2377      1   1  1.575000    14.310799897    23.122587612    20.858938431   0   0   0 # feok
   2378      1   2  0.425000    14.310799897    24.727419538    13.393157117   0   0   0 # hoy
   2379      1   3 -1.050000    14.310799897    26.174699580    14.364670262   0   0   0 # obsk
   2380      1   4 -0.950000    14.310799897    23.797679580    12.904426474   0   0   0 # ohk
   2381      1   1  1.575000    12.804399908    25.412587574    18.794968539   0   0   0 # feok
   2382      1   2  0.425000    12.804399908    27.017419500    16.347350157   0   0   0 # hoy
   2383      1   3 -1.050000    12.804399908    23.884699619    15.375837012   0   0   0 # obsk
   2384      1   4 -0.950000    12.804399908    26.087679542    16.836080799   0   0   0 # ohk
   2385      1   1  1.575000    12.804399908    27.257411549    23.751668387   0   0   0 # feok
   2386      1   2  0.425000    12.804399908    25.652579623    31.217449701   0   0   0 # hoy
   2387      1   3 -1.050000    12.804399908    24.205299580    30.245936556   0   0   0 # obsk
   2388      1   4 -0.950000    12.804399908    26.582319581    31.706180344   0   0   0 # ohk
   2389      1   1  1.575000    14.310799897    24.967411587    25.815638280   0   0   0 # feok
   2390      1   2  0.425000    14.310799897    23.362579661    28.263256661   0   0   0 # hoy
   2391      1   3 -1.050000    14.310799897    26.495299542    29.234769806   0   0   0 # obsk
   2392      1   4 -0.950000    14.310799897    24.292319619    27.774526019   0   0   0 # ohk
   2393      1   1  1.575000    14.310799897    23.122587612    30.772338128   0   0   0 # feok
   2394      1   2  0.425000    14.310799897    24.727419538    23.306556813   0   0   0 # hoy
   2395      1   3 -1.050000    14.310799897    26.174699580    24.278069958   0   0   0 # obsk
   2396      1   4 -0.950000    14.310799897    23.797679580    22.817826171   0   0   0 # ohk
   2397      1   1  1.575000    12.804399908    25.412587574    28.708368235   0   0   0 # feok
   2398      1   2  0.425000    12.804399908    27.017419500    26.260749853   0   0   0 # hoy
   2399      1   3 -1.050000    12.804399908    23.884699619    25.289236708   0   0   0 # obsk
   2400      1   4 -0.950000    12.804399908    26.087679542    26.749480496   0   0   0 # ohk
   2401      1   1  1.575000    15.817199886    27.257411549     3.924868994   0   0   0 # feok
   2402      1   2  0.425000    15.817199886    25.652579623    11.390650309   0   0   0 # hoy
   2403      1   3 -1.050000    15.817199886    24.205299580    10.419137164   0   0   0 # obsk
   2404      1   4 -0.950000    15.817199886    26.582319581    11.879380951   0   0   0 # ohk
   2405      1   1  1.575000    17.323599875    24.967411587     5.988838887   0   0   0 # feok
   2406      1   2  0.425000    17.323599875    23.362579661     8.436457269   0   0   0 # hoy
   2407      1   3 -1.050000    17.323599875    26.495299542     9.407970414   0   0   0 # obsk
   2408      1   4 -0.950000    17.323599875    24.292319619     7.947726626   0   0   0 # ohk
   2409      1   1  1.575000    17.323599875    23.122587612    10.945538735   0   0   0 # feok
   2410      1   2  0.425000    17.323599875    24.727419538     3.479757421   0   0   0 # hoy
   2411      1   3 -1.050000    17.323599875    26.174699580     4.451270565   0   0   0 # obsk
   2412      1   4 -0.950000    17.323599875    23.797679580     2.991026778   0   0   0 # ohk
   2413      1   1  1.575000    15.817199886    25.412587574     8.881568842   0   0   0 # feok
   2414      1   2  0.425000    15.817199886    27.017419500     6.433950460   0   0   0 # hoy
   2415      1   3 -1.050000    15.817199886    23.884699619     5.462437316   0   0   0 # obsk
   2416      1   4 -0.950000    15.817199886    26.087679542     6.922681103   0   0   0 # ohk
   2417      1   1  1.575000    15.817199886    27.257411549    13.838268690   0   0   0 # feok
   2418      1   2  0.425000    15.817199886    25.652579623    21.304050005   0   0   0 # hoy
   2419      1   3 -1.050000    15.817199886    24.205299580    20.332536860   0   0   0 # obsk
   2420      1   4 -0.950000    15.817199886    26.582319581    21.792780648   0   0   0 # ohk
   2421      1   1  1.575000    17.323599875    24.967411587    15.902238583   0   0   0 # feok
   2422      1   2  0.425000    17.323599875    23.362579661    18.349856965   0   0   0 # hoy
   2423      1   3 -1.050000    17.323599875    26.495299542    19.321370110   0   0   0 # obsk
   2424      1   4 -0.950000    17.323599875    24.292319619    17.861126322   0   0   0 # ohk
   2425      1   1  1.575000    17.323599875    23.122587612    20.858938431   0   0   0 # feok
   2426      1   2  0.425000    17.323599875    24.727419538    13.393157117   0   0   0 # hoy
   2427      1   3 -1.050000    17.323599875    26.174699580    14.364670262   0   0   0 # obsk
   2428      1   4 -0.950000    17.323599875    23.797679580    12.904426474   0   0   0 # ohk
   2429      1   1  1.575000    15.817199886    25.412587574    18.794968539   0   0   0 # feok
   2430      1   2  0.425000    15.817199886    27.017419500    16.347350157   0   0   0 # hoy
   2431      1   3 -1.050000    15.817199886    23.884699619    15.375837012   0   0   0 # obsk
   2432      1   4 -0.950000    15.817199886    26.087679542    16.836080799   0   0   0 # ohk
   2433      1   1  1.575000    15.817199886    27.257411549    23.751668387   0   0   0 # feok
   2434      1   2  0.425000    15.817199886    25.652579623    31.217449701   0   0   0 # hoy
   2435      1   3 -1.050000    15.817199886    24.205299580    30.245936556   0   0   0 # obsk
   2436      1   4 -0.950000    15.817199886    26.582319581    31.706180344   0   0   0 # ohk
   2437      1   1  1.575000    17.323599875    24.967411587    25.815638280   0   0   0 # feok
   2438      1   2  0.425000    17.323599875    23.362579661    28.263256661   0   0   0 # hoy
   2439      1   3 -1.050000    17.323599875    26.495299542    29.234769806   0   0   0 # obsk
   2440      1   4 -0.950000    17.323599875    24.292319619    27.774526019   0   0   0 # ohk
   2441      1   1  1.575000    17.323599875    23.122587612    30.772338128   0   0   0 # feok
   2442      1   2  0.425000    17.323599875    24.727419538    23.306556813   0   0   0 # hoy
   2443      1   3 -1.050000    17.323599875    26.174699580    24.278069958   0   0   0 # obsk
   2444      1   4 -0.950000    17.323599875    23.797679580    22.817826171   0   0   0 # ohk
   2445      1   1  1.575000    15.817199886    25.412587574    28.708368235   0   0   0 # feok
   2446      1   2  0.425000    15.817199886    27.017419500    26.260749853   0   0   0 # hoy
   2447      1   3 -1.050000    15.817199886    23.884699619    25.289236708   0   0   0 # obsk
   2448      1   4 -0.950000    15.817199886    26.087679542    26.749480496   0   0   0 # ohk
   2449      1   1  1.575000    18.829999864    27.257411549     3.924868994   0   0   0 # feok
   2450      1   2  0.425000    18.829999864    25.652579623    11.390650309   0   0   0 # hoy
   2451      1   3 -1.050000    18.829999864    24.205299580    10.419137164   0   0   0 # obsk
   2452      1   4 -0.950000    18.829999864    26.582319581    11.879380951   0   0   0 # ohk
   2453      1   1  1.575000    20.336399853    24.967411587     5.988838887   0   0   0 # feok
   2454      1   2  0.425000    20.336399853    23.362579661     8.436457269   0   0   0 # hoy
   2455      1   3 -1.050000    20.336399853    26.495299542     9.407970414   0   0   0 # obsk
   2456      1   4 -0.950000    20.336399853    24.292319619     7.947726626   0   0   0 # ohk
   2457      1   1  1.575000    20.336399853    23.122587612    10.945538735   0   0   0 # feok
   2458      1   2  0.425000    20.336399853    24.727419538     3.479757421   0   0   0 # hoy
   2459      1   3 -1.050000    20.336399853    26.174699580     4.451270565   0   0   0 # obsk
   2460      1   4 -0.950000    20.336399853    23.797679580     2.991026778   0   0   0 # ohk
   2461      1   1  1.575000    18.829999864    25.412587574     8.881568842   0   0   0 # feok
   2462      1   2  0.425000    18.829999864    27.017419500     6.433950460   0   0   0 # hoy
   2463      1   3 -1.050000    18.829999864    23.884699619     5.462437316   0   0   0 # obsk
   2464      1   4 -0.950000    18.829999864    26.087679542     6.922681103   0   0   0 # ohk
   2465      1   1  1.575000    18.829999864    27.257411549    13.838268690   0   0   0 # feok
   2466      1   2  0.425000    18.829999864    25.652579623    21.304050005   0   0   0 # hoy
   2467      1   3 -1.050000    18.829999864    24.205299580    20.332536860   0   0   0 # obsk
   2468      1   4 -0.950000    18.829999864    26.582319581    21.792780648   0   0   0 # ohk
   2469      1   1  1.575000    20.336399853    24.967411587    15.902238583   0   0   0 # feok
   2470      1   2  0.425000    20.336399853    23.362579661    18.349856965   0   0   0 # hoy
   2471      1   3 -1.050000    20.336399853    26.495299542    19.321370110   0   0   0 # obsk
   2472      1   4 -0.950000    20.336399853    24.292319619    17.861126322   0   0   0 # ohk
   2473      1   1  1.575000    20.336399853    23.122587612    20.858938431   0   0   0 # feok
   2474      1   2  0.425000    20.336399853    24.727419538    13.393157117   0   0   0 # hoy
   2475      1   3 -1.050000    20.336399853    26.174699580    14.364670262   0   0   0 # obsk
   2476      1   4 -0.950000    20.336399853    23.797679580    12.904426474   0   0   0 # ohk
   2477      1   1  1.575000    18.829999864    25.412587574    18.794968539   0   0   0 # feok
   2478      1   2  0.425000    18.829999864    27.017419500    16.347350157   0   0   0 # hoy
   2479      1   3 -1.050000    18.829999864    23.884699619    15.375837012   0   0   0 # obsk
   2480      1   4 -0.950000    18.829999864    26.087679542    16.836080799   0   0   0 # ohk
   2481      1   1  1.575000    18.829999864    27.257411549    23.751668387   0   0   0 # feok
   2482      1   2  0.425000    18.829999864    25.652579623    31.217449701   0   0   0 # hoy
   2483      1   3 -1.050000    18.829999864    24.205299580    30.245936556   0   0   0 # obsk
   2484      1   4 -0.950000    18.829999864    26.582319581    31.706180344   0   0   0 # ohk
   2485      1   1  1.575000    20.336399853    24.967411587    25.815638280   0   0   0 # feok
   2486      1   2  0.425000    20.336399853    23.362579661    28.263256661   0   0   0 # hoy
   2487      1   3 -1.050000    20.336399853    26.495299542    29.234769806   0   0   0 # obsk
   2488      1   4 -0.950000    20.336399853    24.292319619    27.774526019   0   0   0 # ohk
   2489      1   1  1.575000    20.336399853    23.122587612    30.772338128   0   0   0 # feok
   2490      1   2  0.425000    20.336399853    24.727419538    23.306556813   0   0   0 # hoy
   2491      1   3 -1.050000    20.336399853    26.174699580    24.278069958   0   0   0 # obsk
   2492      1   4 -0.950000    20.336399853    23.797679580    22.817826171   0   0   0 # ohk
   2493      1   1  1.575000    18.829999864    25.412587574    28.708368235   0   0   0 # feok
   2494      1   2  0.425000    18.829999864    27.017419500    26.260749853   0   0   0 # hoy
   2495      1   3 -1.050000    18.829999864    23.884699619    25.289236708   0   0   0 # obsk
   2496      1   4 -0.950000    18.829999864    26.087679542    26.749480496   0   0   0 # ohk
   2497      1   1  1.575000    21.842799842    27.257411549     3.924868994   0   0   0 # feok
   2498      1   2  0.425000    21.842799842    25.652579623    11.390650309   0   0   0 # hoy
   2499      1   3 -1.050000    21.842799842    24.205299580    10.419137164   0   0   0 # obsk
   2500      1   4 -0.950000    21.842799842    26.582319581    11.879380951   0   0   0 # ohk
   2501      1   1  1.575000    23.349199831    24.967411587     5.988838887   0   0   0 # feok
   2502      1   2  0.425000    23.349199831    23.362579661     8.436457269   0   0   0 # hoy
   2503      1   3 -1.050000    23.349199831    26.495299542     9.407970414   0   0   0 # obsk
   2504      1   4 -0.950000    23.349199831    24.292319619     7.947726626   0   0   0 # ohk
   2505      1   1  1.575000    23.349199831    23.122587612    10.945538735   0   0   0 # feok
   2506      1   2  0.425000    23.349199831    24.727419538     3.479757421   0   0   0 # hoy
   2507      1   3 -1.050000    23.349199831    26.174699580     4.451270565   0   0   0 # obsk
   2508      1   4 -0.950000    23.349199831    23.797679580     2.991026778   0   0   0 # ohk
   2509      1   1  1.575000    21.842799842    25.412587574     8.881568842   0   0   0 # feok
   2510      1   2  0.425000    21.842799842    27.017419500     6.433950460   0   0   0 # hoy
   2511      1   3 -1.050000    21.842799842    23.884699619     5.462437316   0   0   0 # obsk
   2512      1   4 -0.950000    21.842799842    26.087679542     6.922681103   0   0   0 # ohk
   2513      1   1  1.575000    21.842799842    27.257411549    13.838268690   0   0   0 # feok
   2514      1   2  0.425000    21.842799842    25.652579623    21.304050005   0   0   0 # hoy
   2515      1   3 -1.050000    21.842799842    24.205299580    20.332536860   0   0   0 # obsk
   2516      1   4 -0.950000    21.842799842    26.582319581    21.792780648   0   0   0 # ohk
   2517      1   1  1.575000    23.349199831    24.967411587    15.902238583   0   0   0 # feok
   2518      1   2  0.425000    23.349199831    23.362579661    18.349856965   0   0   0 # hoy
   2519      1   3 -1.050000    23.349199831    26.495299542    19.321370110   0   0   0 # obsk
   2520      1   4 -0.950000    23.349199831    24.292319619    17.861126322   0   0   0 # ohk
   2521      1   1  1.575000    23.349199831    23.122587612    20.858938431   0   0   0 # feok
   2522      1   2  0.425000    23.349199831    24.727419538    13.393157117   0   0   0 # hoy
   2523      1   3 -1.050000    23.349199831    26.174699580    14.364670262   0   0   0 # obsk
   2524      1   4 -0.950000    23.349199831    23.797679580    12.904426474   0   0   0 # ohk
   2525      1   1  1.575000    21.842799842    25.412587574    18.794968539   0   0   0 # feok
   2526      1   2  0.425000    21.842799842    27.017419500    16.347350157   0   0   0 # hoy
   2527      1   3 -1.050000    21.842799842    23.884699619    15.375837012   0   0   0 # obsk
   2528      1   4 -0.950000    21.842799842    26.087679542    16.836080799   0   0   0 # ohk
   2529      1   1  1.575000    21.842799842    27.257411549    23.751668387   0   0   0 # feok
   2530      1   2  0.425000    21.842799842    25.652579623    31.217449701   0   0   0 # hoy
   2531      1   3 -1.050000    21.842799842    24.205299580    30.245936556   0   0   0 # obsk
   2532      1   4 -0.950000    21.842799842    26.582319581    31.706180344   0   0   0 # ohk
   2533      1   1  1.575000    23.349199831    24.967411587    25.815638280   0   0   0 # feok
   2534      1   2  0.425000    23.349199831    23.362579661    28.263256661   0   0   0 # hoy
   2535      1   3 -1.050000    23.349199831    26.495299542    29.234769806   0   0   0 # obsk
   2536      1   4 -0.950000    23.349199831    24.292319619    27.774526019   0   0   0 # ohk
   2537      1   1  1.575000    23.349199831    23.122587612    30.772338128   0   0   0 # feok
   2538      1   2  0.425000    23.349199831    24.727419538    23.306556813   0   0   0 # hoy
   2539      1   3 -1.050000    23.349199831    26.174699580    24.278069958   0   0   0 # obsk
   2540      1   4 -0.950000    23.349199831    23.797679580    22.817826171   0   0   0 # ohk
   2541      1   1  1.575000    21.842799842    25.412587574    28.708368235   0   0   0 # feok
   2542      1   2  0.425000    21.842799842    27.017419500    26.260749853   0   0   0 # hoy
   2543      1   3 -1.050000    21.842799842    23.884699619    25.289236708   0   0   0 # obsk
   2544      1   4 -0.950000    21.842799842    26.087679542    26.749480496   0   0   0 # ohk
   2545      1   1  1.575000    24.855599821    27.257411549     3.924868994   0   0   0 # feok
   2546      1   2  0.425000    24.855599821    25.652579623    11.390650309   0   0   0 # hoy
   2547      1   3 -1.050000    24.855599821    24.205299580    10.419137164   0   0   0 # obsk
   2548      1   4 -0.950000    24.855599821    26.582319581    11.879380951   0   0   0 # ohk
   2549      1   1  1.575000    26.361999810    24.967411587     5.988838887   0   0   0 # feok
   2550      1   2  0.425000    26.361999810    23.362579661     8.436457269   0   0   0 # hoy
   2551      1   3 -1.050000    26.361999810    26.495299542     9.407970414   0   0   0 # obsk
   2552      1   4 -0.950000    26.361999810    24.292319619     7.947726626   0   0   0 # ohk
   2553      1   1  1.575000    26.361999810    23.122587612    10.945538735   0   0   0 # feok
   2554      1   2  0.425000    26.361999810    24.727419538     3.479757421   0   0   0 # hoy
   2555      1   3 -1.050000    26.361999810    26.174699580     4.451270565   0   0   0 # obsk
   2556      1   4 -0.950000    26.361999810    23.797679580     2.991026778   0   0   0 # ohk
   2557      1   1  1.575000    24.855599821    25.412587574     8.881568842   0   0   0 # feok
   2558      1   2  0.425000    24.855599821    27.017419500     6.433950460   0   0   0 # hoy
   2559      1   3 -1.050000    24.855599821    23.884699619     5.462437316   0   0   0 # obsk
   2560      1   4 -0.950000    24.855599821    26.087679542     6.922681103   0   0   0 # ohk
   2561      1   1  1.575000    24.855599821    27.257411549    13.838268690   0   0   0 # feok
   2562      1   2  0.425000    24.855599821    25.652579623    21.304050005   0   0   0 # hoy
   2563      1   3 -1.050000    24.855599821    24.205299580    20.332536860   0   0   0 # obsk
   2564      1   4 -0.950000    24.855599821    26.582319581    21.792780648   0   0   0 # ohk
   2565      1   1  1.575000    26.361999810    24.967411587    15.902238583   0   0   0 # feok
   2566      1   2  0.425000    26.361999810    23.362579661    18.349856965   0   0   0 # hoy
   2567      1   3 -1.050000    26.361999810    26.495299542    19.321370110   0   0   0 # obsk
   2568      1   4 -0.950000    26.361999810    24.292319619    17.861126322   0   0   0 # ohk
   2569      1   1  1.575000    26.361999810    23.122587612    20.858938431   0   0   0 # feok
   2570      1   2  0.425000    26.361999810    24.727419538    13.393157117   0   0   0 # hoy
   2571      1   3 -1.050000    26.361999810    26.174699580    14.364670262   0   0   0 # obsk
   2572      1   4 -0.950000    26.361999810    23.797679580    12.904426474   0   0   0 # ohk
   2573      1   1  1.575000    24.855599821    25.412587574    18.794968539   0   0   0 # feok
   2574      1   2  0.425000    24.855599821    27.017419500    16.347350157   0   0   0 # hoy
   2575      1   3 -1.050000    24.855599821    23.884699619    15.375837012   0   0   0 # obsk
   2576      1   4 -0.950000    24.855599821    26.087679542    16.836080799   0   0   0 # ohk
   2577      1   1  1.575000    24.855599821    27.257411549    23.751668387   0   0   0 # feok
   2578      1   2  0.425000    24.855599821    25.652579623    31.217449701   0   0   0 # hoy
   2579      1   3 -1.050000    24.855599821    24.205299580    30.245936556   0   0   0 # obsk
   2580      1   4 -0.950000    24.855599821    26.582319581    31.706180344   0   0   0 # ohk
   2581      1   1  1.575000    26.361999810    24.967411587    25.815638280   0   0   0 # feok
   2582      1   2  0.425000    26.361999810    23.362579661    28.263256661   0   0   0 # hoy
   2583      1   3 -1.050000    26.361999810    26.495299542    29.234769806   0   0   0 # obsk
   2584      1   4 -0.950000    26.361999810    24.292319619    27.774526019   0   0   0 # ohk
   2585      1   1  1.575000    26.361999810    23.122587612    30.772338128   0   0   0 # feok
   2586      1   2  0.425000    26.361999810    24.727419538    23.306556813   0   0   0 # hoy
   2587      1   3 -1.050000    26.361999810    26.174699580    24.278069958   0   0   0 # obsk
   2588      1   4 -0.950000    26.361999810    23.797679580    22.817826171   0   0   0 # ohk
   2589      1   1  1.575000    24.855599821    25.412587574    28.708368235   0   0   0 # feok
   2590      1   2  0.425000    24.855599821    27.017419500    26.260749853   0   0   0 # hoy
   2591      1   3 -1.050000    24.855599821    23.884699619    25.289236708   0   0   0 # obsk
   2592      1   4 -0.950000    24.855599821    26.087679542    26.749480496   0   0   0 # ohk
   2593      1   4 -1.009400    14.202031164    10.529564014    32.741259306   0   0   0 # ohk
   2594      1   2  0.365600    13.296170228    10.194583758    33.057833068   0   0   0 # hoy

Bonds

     1   1      2      4
     2   1      6      8
     3   1     10     12
     4   1     14     16
     5   1     18     20
     6   1     22     24
     7   1     26     28
     8   1     30     32
     9   1     34     36
    10   1     38     40
    11   1     42     44
    12   1     46     48
    13   1     50     52
    14   1     54     56
    15   1     58     60
    16   1     62     64
    17   1     66     68
    18   1     70     72
    19   1     74     76
    20   1     78     80
    21   1     82     84
    22   1     86     88
    23   1     90     92
    24   1     94     96
    25   1     98    100
    26   1    102    104
    27   1    106    108
    28   1    110    112
    29   1    114    116
    30   1    118    120
    31   1    122    124
    32   1    126    128
    33   1    130    132
    34   1    134    136
    35   1    138    140
    36   1    142    144
    37   1    146    148
    38   1    150    152
    39   1    154    156
    40   1    158    160
    41   1    162    164
    42   1    166    168
    43   1    170    172
    44   1    174    176
    45   1    178    180
    46   1    182    184
    47   1    186    188
    48   1    190    192
    49   1    194    196
    50   1    198    200
    51   1    202    204
    52   1    206    208
    53   1    210    212
    54   1    214    216
    55   1    218    220
    56   1    222    224
    57   1    226    228
    58   1    230    232
    59   1    234    236
    60   1    238    240
    61   1    242    244
    62   1    246    248
    63   1    250    252
    64   1    254    256
    65   1    258    260
    66   1    262    264
    67   1    266    268
    68   1    270    272
    69   1    274    276
    70   1    278    280
    71   1    282    284
    72   1    286    288
    73   1    290    292
    74   1    294    296
    75   1    298    300
    76   1    302    304
    77   1    306    308
    78   1    310    312
    79   1    314    316
    80   1    318    320
    81   1    322    324
    82   1    326    328
    83   1    330    332
    84   1    334    336
    85   1    338    340
    86   1    342    344
    87   1    346    348
    88   1    350    352
    89   1    354    356
    90   1    358    360
    91   1    362    364
    92   1    366    368
    93   1    370    372
    94   1    374    376
    95   1    378    380
    96   1    382    384
    97   1    386    388
    98   1    390    392
    99   1    394    396
   100   1    398    400
   101   1    402    404
   102   1    406    408
   103   1    410    412
   104   1    414    416
   105   1    418    420
   106   1    422    424
   107   1    426    428
   108   1    430    432
   109   1    434    436
   110   1    438    440
   111   1    442    444
   112   1    446    448
   113   1    450    452
   114   1    454    456
   115   1    458    460
   116   1    462    464
   117   1    466    468
   118   1    470    472
   119   1    474    476
   120   1    478    480
   121   1    482    484
   122   1    486    488
   123   1    490    492
   124   1    494    496
   125   1    498    500
   126   1    502    504
   127   1    506    508
   128   1    510    512
   129   1    514    516
   130   1    518    520
   131   1    522    524
   132   1    526    528
   133   1    530    532
   134   1    534    536
   135   1    538    540
   136   1    542    544
   137   1    546    548
   138   1    550    552
   139   1    554    556
   140   1    558    560
   141   1    562    564
   142   1    566    568
   143   1    570    572
   144   1    574    576
   145   1    578    580
   146   1    582    584
   147   1    586    588
   148   1    590    592
   149   1    594    596
   150   1    598    600
   151   1    602    604
   152   1    606    608
   153   1    610    612
   154   1    614    616
   155   1    618    620
   156   1    622    624
   157   1    626    628
   158   1    630    632
   159   1    634    636
   160   1    638    640
   161   1    642    644
   162   1    646    648
   163   1    650    652
   164   1    654    656
   165   1    658    660
   166   1    662    664
   167   1    666    668
   168   1    670    672
   169   1    674    676
   170   1    678    680
   171   1    682    684
   172   1    686    688
   173   1    690    692
   174   1    694    696
   175   1    698    700
   176   1    702    704
   177   1    706    708
   178   1    710    712
   179   1    714    716
   180   1    718    720
   181   1    722    724
   182   1    726    728
   183   1    730    732
   184   1    734    736
   185   1    738    740
   186   1    742    744
   187   1    746    748
   188   1    750    752
   189   1    754    756
   190   1    758    760
   191   1    762    764
   192   1    766    768
   193   1    770    772
   194   1    774    776
   195   1    778    780
   196   1    782    784
   197   1    786    788
   198   1    790    792
   199   1    794    796
   200   1    798    800
   201   1    802    804
   202   1    806    808
   203   1    810    812
   204   1    814    816
   205   1    818    820
   206   1    822    824
   207   1    826    828
   208   1    830    832
   209   1    834    836
   210   1    838    840
   211   1    842    844
   212   1    846    848
   213   1    850    852
   214   1    854    856
   215   1    858    860
   216   1    862    864
   217   1    866    868
   218   1    870    872
   219   1    874    876
   220   1    878    880
   221   1    882    884
   222   1    886    888
   223   1    890    892
   224   1    894    896
   225   1    898    900
   226   1    902    904
   227   1    906    908
   228   1    910    912
   229   1    914    916
   230   1    918    920
   231   1    922    924
   232   1    926    928
   233   1    930    932
   234   1    934    936
   235   1    938    940
   236   1    942    944
   237   1    946    948
   238   1    950    952
   239   1    954    956
   240   1    958    960
   241   1    962    964
   242   1    966    968
   243   1    970    972
   244   1    974    976
   245   1    978    980
   246   1    982    984
   247   1    986    988
   248   1    990    992
   249   1    994    996
   250   1    998   1000
   251   1   1002   1004
   252   1   1006   1008
   253   1   1010   1012
   254   1   1014   1016
   255   1   1018   1020
   256   1   1022   1024
   257   1   1026   1028
   258   1   1030   1032
   259   1   1034   1036
   260   1   1038   1040
   261   1   1042   1044
   262   1   1046   1048
   263   1   1050   1052
   264   1   1054   1056
   265   1   1058   1060
   266   1   1062   1064
   267   1   1066   1068
   268   1   1070   1072
   269   1   1074   1076
   270   1   1078   1080
   271   1   1082   1084
   272   1   1086   1088
   273   1   1090   1092
   274   1   1094   1096
   275   1   1098   1100
   276   1   1102   1104
   277   1   1106   1108
   278   1   1110   1112
   279   1   1114   1116
   280   1   1118   1120
   281   1   1122   1124
   282   1   1126   1128
   283   1   1130   1132
   284   1   1134   1136
   285   1   1138   1140
   286   1   1142   1144
   287   1   1146   1148
   288   1   1150   1152
   289   1   1154   1156
   290   1   1158   1160
   291   1   1162   1164
   292   1   1166   1168
   293   1   1170   1172
   294   1   1174   1176
   295   1   1178   1180
   296   1   1182   1184
   297   1   1186   1188
   298   1   1190   1192
   299   1   1194   1196
   300   1   1198   1200
   301   1   1202   1204
   302   1   1206   1208
   303   1   1210   1212
   304   1   1214   1216
   305   1   1218   1220
   306   1   1222   1224
   307   1   1226   1228
   308   1   1230   1232
   309   1   1234   1236
   310   1   1238   1240
   311   1   1242   1244
   312   1   1246   1248
   313   1   1250   1252
   314   1   1254   1256
   315   1   1258   1260
   316   1   1262   1264
   317   1   1266   1268
   318   1   1270   1272
   319   1   1274   1276
   320   1   1278   1280
   321   1   1282   1284
   322   1   1286   1288
   323   1   1290   1292
   324   1   1294   1296
   325   1   1298   1300
   326   1   1302   1304
   327   1   1306   1308
   328   1   1310   1312
   329   1   1314   1316
   330   1   1318   1320
   331   1   1322   1324
   332   1   1326   1328
   333   1   1330   1332
   334   1   1334   1336
   335   1   1338   1340
   336   1   1342   1344
   337   1   1346   1348
   338   1   1350   1352
   339   1   1354   1356
   340   1   1358   1360
   341   1   1362   1364
   342   1   1366   1368
   343   1   1370   1372
   344   1   1374   1376
   345   1   1378   1380
   346   1   1382   1384
   347   1   1386   1388
   348   1   1390   1392
   349   1   1394   1396
   350   1   1398   1400
   351   1   1402   1404
   352   1   1406   1408
   353   1   1410   1412
   354   1   1414   1416
   355   1   1418   1420
   356   1   1422   1424
   357   1   1426   1428
   358   1   1430   1432
   359   1   1434   1436
   360   1   1438   1440
   361   1   1442   1444
   362   1   1446   1448
   363   1   1450   1452
   364   1   1454   1456
   365   1   1458   1460
   366   1   1462   1464
   367   1   1466   1468
   368   1   1470   1472
   369   1   1474   1476
   370   1   1478   1480
   371   1   1482   1484
   372   1   1486   1488
   373   1   1490   1492
   374   1   1494   1496
   375   1   1498   1500
   376   1   1502   1504
   377   1   1506   1508
   378   1   1510   1512
   379   1   1514   1516
   380   1   1518   1520
   381   1   1522   1524
   382   1   1526   1528
   383   1   1530   1532
   384   1   1534   1536
   385   1   1538   1540
   386   1   1542   1544
   387   1   1546   1548
   388   1   1550   1552
   389   1   1554   1556
   390   1   1558   1560
   391   1   1562   1564
   392   1   1566   1568
   393   1   1570   1572
   394   1   1574   1576
   395   1   1578   1580
   396   1   1582   1584
   397   1   1586   1588
   398   1   1590   1592
   399   1   1594   1596
   400   1   1598   1600
   401   1   1602   1604
   402   1   1606   1608
   403   1   1610   1612
   404   1   1614   1616
   405   1   1618   1620
   406   1   1622   1624
   407   1   1626   1628
   408   1   1630   1632
   409   1   1634   1636
   410   1   1638   1640
   411   1   1642   1644
   412   1   1646   1648
   413   1   1650   1652
   414   1   1654   1656
   415   1   1658   1660
   416   1   1662   1664
   417   1   1666   1668
   418   1   1670   1672
   419   1   1674   1676
   420   1   1678   1680
   421   1   1682   1684
   422   1   1686   1688
   423   1   1690   1692
   424   1   1694   1696
   425   1   1698   1700
   426   1   1702   1704
   427   1   1706   1708
   428   1   1710   1712
   429   1   1714   1716
   430   1   1718   1720
   431   1   1722   1724
   432   1   1726   1728
   433   1   1730   1732
   434   1   1734   1736
   435   1   1738   1740
   436   1   1742   1744
   437   1   1746   1748
   438   1   1750   1752
   439   1   1754   1756
   440   1   1758   1760
   441   1   1762   1764
   442   1   1766   1768
   443   1   1770   1772
   444   1   1774   1776
   445   1   1778   1780
   446   1   1782   1784
   447   1   1786   1788
   448   1   1790   1792
   449   1   1794   1796
   450   1   1798   1800
   451   1   1802   1804
   452   1   1806   1808
   453   1   1810   1812
   454   1   1814   1816
   455   1   1818   1820
   456   1   1822   1824
   457   1   1826   1828
   458   1   1830   1832
   459   1   1834   1836
   460   1   1838   1840
   461   1   1842   1844
   462   1   1846   1848
   463   1   1850   1852
   464   1   1854   1856
   465   1   1858   1860
   466   1   1862   1864
   467   1   1866   1868
   468   1   1870   1872
   469   1   1874   1876
   470   1   1878   1880
   471   1   1882   1884
   472   1   1886   1888
   473   1   1890   1892
   474   1   1894   1896
   475   1   1898   1900
   476   1   1902   1904
   477   1   1906   1908
   478   1   1910   1912
   479   1   1914   1916
   480   1   1918   1920
   481   1   1922   1924
   482   1   1926   1928
   483   1   1930   1932
   484   1   1934   1936
   485   1   1938   1940
   486   1   1942   1944
   487   1   1946   1948
   488   1   1950   1952
   489   1   1954   1956
   490   1   1958   1960
   491   1   1962   1964
   492   1   1966   1968
   493   1   1970   1972
   494   1   1974   1976
   495   1   1978   1980
   496   1   1982   1984
   497   1   1986   1988
   498   1   1990   1992
   499   1   1994   1996
   500   1   1998   2000
   501   1   2002   2004
   502   1   2006   2008
   503   1   2010   2012
   504   1   2014   2016
   505   1   2018   2020
   506   1   2022   2024
   507   1   2026   2028
   508   1   2030   2032
   509   1   2034   2036
   510   1   2038   2040
   511   1   2042   2044
   512   1   2046   2048
   513   1   2050   2052
   514   1   2054   2056
   515   1   2058   2060
   516   1   2062   2064
   517   1   2066   2068
   518   1   2070   2072
   519   1   2074   2076
   520   1   2078   2080
   521   1   2082   2084
   522   1   2086   2088
   523   1   2090   2092
   524   1   2094   2096
   525   1   2098   2100
   526   1   2102   2104
   527   1   2106   2108
   528   1   2110   2112
   529   1   2114   2116
   530   1   2118   2120
   531   1   2122   2124
   532   1   2126   2128
   533   1   2130   2132
   534   1   2134   2136
   535   1   2138   2140
   536   1   2142   2144
   537   1   2146   2148
   538   1   2150   2152
   539   1   2154   2156
   540   1   2158   2160
   541   1   2162   2164
   542   1   2166   2168
   543   1   2170   2172
   544   1   2174   2176
   545   1   2178   2180
   546   1   2182   2184
   547   1   2186   2188
   548   1   2190   2192
   549   1   2194   2196
   550   1   2198   2200
   551   1   2202   2204
   552   1   2206   2208
   553   1   2210   2212
   554   1   2214   2216
   555   1   2218   2220
   556   1   2222   2224
   557   1   2226   2228
   558   1   2230   2232
   559   1   2234   2236
   560   1   2238   2240
   561   1   2242   2244
   562   1   2246   2248
   563   1   2250   2252
   564   1   2254   2256
   565   1   2258   2260
   566   1   2262   2264
   567   1   2266   2268
   568   1   2270   2272
   569   1   2274   2276
   570   1   2278   2280
   571   1   2282   2284
   572   1   2286   2288
   573   1   2290   2292
   574   1   2294   2296
   575   1   2298   2300
   576   1   2302   2304
   577   1   2306   2308
   578   1   2310   2312
   579   1   2314   2316
   580   1   2318   2320
   581   1   2322   2324
   582   1   2326   2328
   583   1   2330   2332
   584   1   2334   2336
   585   1   2338   2340
   586   1   2342   2344
   587   1   2346   2348
   588   1   2350   2352
   589   1   2354   2356
   590   1   2358   2360
   591   1   2362   2364
   592   1   2366   2368
   593   1   2370   2372
   594   1   2374   2376
   595   1   2378   2380
   596   1   2382   2384
   597   1   2386   2388
   598   1   2390   2392
   599   1   2394   2396
   600   1   2398   2400
   601   1   2402   2404
   602   1   2406   2408
   603   1   2410   2412
   604   1   2414   2416
   605   1   2418   2420
   606   1   2422   2424
   607   1   2426   2428
   608   1   2430   2432
   609   1   2434   2436
   610   1   2438   2440
   611   1   2442   2444
   612   1   2446   2448
   613   1   2450   2452
   614   1   2454   2456
   615   1   2458   2460
   616   1   2462   2464
   617   1   2466   2468
   618   1   2470   2472
   619   1   2474   2476
   620   1   2478   2480
   621   1   2482   2484
   622   1   2486   2488
   623   1   2490   2492
   624   1   2494   2496
   625   1   2498   2500
   626   1   2502   2504
   627   1   2506   2508
   628   1   2510   2512
   629   1   2514   2516
   630   1   2518   2520
   631   1   2522   2524
   632   1   2526   2528
   633   1   2530   2532
   634   1   2534   2536
   635   1   2538   2540
   636   1   2542   2544
   637   1   2546   2548
   638   1   2550   2552
   639   1   2554   2556
   640   1   2558   2560
   641   1   2562   2564
   642   1   2566   2568
   643   1   2570   2572
   644   1   2574   2576
   645   1   2578   2580
   646   1   2582   2584
   647   1   2586   2588
   648   1   2590   2592
   649   1   2594   2593

Angles

     1   1   2161     12     10
     2   1   2209     12     10
     3   1    473     36     34
     4   1    857     36     34
     5   1   2209     60     58
     6   1   2257     60     58
     7   1    521     84     82
     8   1    473     84     82
     9   1   2257    108    106
    10   1   2305    108    106
    11   1    569    132    130
    12   1    521    132    130
    13   1   2305    156    154
    14   1   2353    156    154
    15   1    617    180    178
    16   1    569    180    178
    17   1   2353    204    202
    18   1   2401    204    202
    19   1    665    228    226
    20   1    617    228    226
    21   1   2401    252    250
    22   1   2449    252    250
    23   1    713    276    274
    24   1    665    276    274
    25   1   2449    300    298
    26   1   2497    300    298
    27   1    761    324    322
    28   1    713    324    322
    29   1   2497    348    346
    30   1   2545    348    346
    31   1    809    372    370
    32   1    761    372    370
    33   1   2545    396    394
    34   1   2161    396    394
    35   1    857    420    418
    36   1    809    420    418
    37   1      1    444    442
    38   1     49    444    442
    39   1    905    468    466
    40   1   1289    468    466
    41   1     49    492    490
    42   1     97    492    490
    43   1    953    516    514
    44   1    905    516    514
    45   1     97    540    538
    46   1    145    540    538
    47   1   1001    564    562
    48   1    953    564    562
    49   1    145    588    586
    50   1    193    588    586
    51   1   1049    612    610
    52   1   1001    612    610
    53   1    193    636    634
    54   1    241    636    634
    55   1   1097    660    658
    56   1   1049    660    658
    57   1    241    684    682
    58   1    289    684    682
    59   1   1145    708    706
    60   1   1097    708    706
    61   1    289    732    730
    62   1    337    732    730
    63   1   1193    756    754
    64   1   1145    756    754
    65   1    337    780    778
    66   1    385    780    778
    67   1   1241    804    802
    68   1   1193    804    802
    69   1    385    828    826
    70   1      1    828    826
    71   1   1289    852    850
    72   1   1241    852    850
    73   1    433    876    874
    74   1    481    876    874
    75   1   1337    900    898
    76   1   1721    900    898
    77   1    481    924    922
    78   1    529    924    922
    79   1   1385    948    946
    80   1   1337    948    946
    81   1    529    972    970
    82   1    577    972    970
    83   1   1433    996    994
    84   1   1385    996    994
    85   1    577   1020   1018
    86   1    625   1020   1018
    87   1   1481   1044   1042
    88   1   1433   1044   1042
    89   1    625   1068   1066
    90   1    673   1068   1066
    91   1   1529   1092   1090
    92   1   1481   1092   1090
    93   1    673   1116   1114
    94   1    721   1116   1114
    95   1   1577   1140   1138
    96   1   1529   1140   1138
    97   1    721   1164   1162
    98   1    769   1164   1162
    99   1   1625   1188   1186
   100   1   1577   1188   1186
   101   1    769   1212   1210
   102   1    817   1212   1210
   103   1   1673   1236   1234
   104   1   1625   1236   1234
   105   1    817   1260   1258
   106   1    433   1260   1258
   107   1   1721   1284   1282
   108   1   1673   1284   1282
   109   1    865   1308   1306
   110   1    913   1308   1306
   111   1   1769   1332   1330
   112   1   2153   1332   1330
   113   1    913   1356   1354
   114   1    961   1356   1354
   115   1   1817   1380   1378
   116   1   1769   1380   1378
   117   1    961   1404   1402
   118   1   1009   1404   1402
   119   1   1865   1428   1426
   120   1   1817   1428   1426
   121   1   1009   1452   1450
   122   1   1057   1452   1450
   123   1   1913   1476   1474
   124   1   1865   1476   1474
   125   1   1057   1500   1498
   126   1   1105   1500   1498
   127   1   1961   1524   1522
   128   1   1913   1524   1522
   129   1   1105   1548   1546
   130   1   1153   1548   1546
   131   1   2009   1572   1570
   132   1   1961   1572   1570
   133   1   1153   1596   1594
   134   1   1201   1596   1594
   135   1   2057   1620   1618
   136   1   2009   1620   1618
   137   1   1201   1644   1642
   138   1   1249   1644   1642
   139   1   2105   1668   1666
   140   1   2057   1668   1666
   141   1   1249   1692   1690
   142   1    865   1692   1690
   143   1   2153   1716   1714
   144   1   2105   1716   1714
   145   1   1297   1740   1738
   146   1   1345   1740   1738
   147   1   2201   1764   1762
   148   1   2585   1764   1762
   149   1   1345   1788   1786
   150   1   1393   1788   1786
   151   1   2249   1812   1810
   152   1   2201   1812   1810
   153   1   1393   1836   1834
   154   1   1441   1836   1834
   155   1   2297   1860   1858
   156   1   2249   1860   1858
   157   1   1441   1884   1882
   158   1   1489   1884   1882
   159   1   2345   1908   1906
   160   1   2297   1908   1906
   161   1   1489   1932   1930
   162   1   1537   1932   1930
   163   1   2393   1956   1954
   164   1   2345   1956   1954
   165   1   1537   1980   1978
   166   1   1585   1980   1978
   167   1   2441   2004   2002
   168   1   2393   2004   2002
   169   1   1585   2028   2026
   170   1   1633   2028   2026
   171   1   2489   2052   2050
   172   1   2441   2052   2050
   173   1   1633   2076   2074
   174   1   1681   2076   2074
   175   1   2537   2100   2098
   176   1   2489   2100   2098
   177   1   1681   2124   2122
   178   1   1297   2124   2122
   179   1   2585   2148   2146
   180   1   2537   2148   2146
   181   1   1729   2172   2170
   182   1   1777   2172   2170
   183   1     41   2196   2194
   184   1    425   2196   2194
   185   1   1777   2220   2218
   186   1   1825   2220   2218
   187   1     89   2244   2242
   188   1     41   2244   2242
   189   1   1825   2268   2266
   190   1   1873   2268   2266
   191   1    137   2292   2290
   192   1     89   2292   2290
   193   1   1873   2316   2314
   194   1   1921   2316   2314
   195   1    185   2340   2338
   196   1    137   2340   2338
   197   1   1921   2364   2362
   198   1   1969   2364   2362
   199   1    233   2388   2386
   200   1    185   2388   2386
   201   1   1969   2412   2410
   202   1   2017   2412   2410
   203   1    281   2436   2434
   204   1    233   2436   2434
   205   1   2017   2460   2458
   206   1   2065   2460   2458
   207   1    329   2484   2482
   208   1    281   2484   2482
   209   1   2065   2508   2506
   210   1   2113   2508   2506
   211   1    377   2532   2530
   212   1    329   2532   2530
   213   1   2113   2556   2554
   214   1   1729   2556   2554
   215   1    425   2580   2578
   216   1    377   2580   2578
   217   1   1097   2593   2594

