LAMMPS data file for goe-100-14

   2620 atoms
   662 bonds
   230 angles
      0 dihedrals
      0 impropers

   4 atom types
   1 bond types
   1 angle types

    -0.011752608    27.103447392 xlo xhi
     0.086266211    27.566266211 ylo yhi
   -74.132353159   109.161946841 zlo zhi

Masses

   1  55.847000 # feok
   2   1.007940 # hoy
   3  15.999400 # obsk
   4  15.999400 # ohk

Pair Coeffs # lj/cut/coul/long

   1   0.0000090298   4.0722178483 # feok
   2   0.0000000000   0.0000000000 # hoy
   3   0.1554000000   3.1655413253 # obsk
   4   0.1554000000   3.1655413253 # ohk

Bond Coeffs # harmonic

   1   554.1348     1.0000 # hoy-ohk

Angle Coeffs # harmonic

   1    30.0000   109.4700 # feok-ohk-hoy

Atoms # full

      1      1   1  1.575000     0.753199995     4.357411930     3.924868994   0   0   0 # feok
      2      1   2  0.425000     0.753199995     2.752580004    11.390650309   0   0   0 # hoy
      3      1   3 -1.050000     0.753199995     1.305299962    10.419137164   0   0   0 # obsk
      4      1   4 -0.950000     0.753199995     3.682319962    11.879380951   0   0   0 # ohk
      5      1   1  1.575000     2.259599984     2.067411968     5.988838887   0   0   0 # feok
      6      1   2  0.425000     2.259599984     0.462580043     8.436457269   0   0   0 # hoy
      7      1   3 -1.050000     2.259599984     3.595299924     9.407970414   0   0   0 # obsk
      8      1   4 -0.950000     2.259599984     1.392320000     7.947726626   0   0   0 # ohk
      9      1   1  1.575000     2.259599984     0.222587994    10.945538735   0   0   0 # feok
     10      1   2  0.425000     2.259599984     1.827419919     3.479757421   0   0   0 # hoy
     11      1   3 -1.050000     2.259599984     3.274699962     4.451270565   0   0   0 # obsk
     12      1   4 -0.950000     2.259599984     0.897679962     2.991026778   0   0   0 # ohk
     13      1   1  1.575000     0.753199995     2.512587955     8.881568842   0   0   0 # feok
     14      1   2  0.425000     0.753199995     4.117419881     6.433950460   0   0   0 # hoy
     15      1   3 -1.050000     0.753199995     0.984700000     5.462437316   0   0   0 # obsk
     16      1   4 -0.950000     0.753199995     3.187679923     6.922681103   0   0   0 # ohk
     17      1   1  1.575000     0.753199995     4.357411930    13.838268690   0   0   0 # feok
     18      1   2  0.425000     0.753199995     2.752580004    21.304050005   0   0   0 # hoy
     19      1   3 -1.050000     0.753199995     1.305299962    20.332536860   0   0   0 # obsk
     20      1   4 -0.950000     0.753199995     3.682319962    21.792780648   0   0   0 # ohk
     21      1   1  1.575000     2.259599984     2.067411968    15.902238583   0   0   0 # feok
     22      1   2  0.425000     2.259599984     0.462580043    18.349856965   0   0   0 # hoy
     23      1   3 -1.050000     2.259599984     3.595299924    19.321370110   0   0   0 # obsk
     24      1   4 -0.950000     2.259599984     1.392320000    17.861126322   0   0   0 # ohk
     25      1   1  1.575000     2.259599984     0.222587994    20.858938431   0   0   0 # feok
     26      1   2  0.425000     2.259599984     1.827419919    13.393157117   0   0   0 # hoy
     27      1   3 -1.050000     2.259599984     3.274699962    14.364670262   0   0   0 # obsk
     28      1   4 -0.950000     2.259599984     0.897679962    12.904426474   0   0   0 # ohk
     29      1   1  1.575000     0.753199995     2.512587955    18.794968539   0   0   0 # feok
     30      1   2  0.425000     0.753199995     4.117419881    16.347350157   0   0   0 # hoy
     31      1   3 -1.050000     0.753199995     0.984700000    15.375837012   0   0   0 # obsk
     32      1   4 -0.950000     0.753199995     3.187679923    16.836080799   0   0   0 # ohk
     33      1   1  1.575000     0.753199995     4.357411930    23.751668387   0   0   0 # feok
     34      1   3 -1.109400     0.753199995     1.305299962    30.245936556   0   0   0 # obsk
     35      1   1  1.575000     2.259599984     2.067411968    25.815638280   0   0   0 # feok
     36      1   2  0.425000     2.259599984     0.462580043    28.263256661   0   0   0 # hoy
     37      1   3 -1.050000     2.259599984     3.595299924    29.234769806   0   0   0 # obsk
     38      1   4 -0.950000     2.259599984     1.392320000    27.774526019   0   0   0 # ohk
     39      1   2  0.425000     2.259599984     1.827419919    23.306556813   0   0   0 # hoy
     40      1   3 -1.050000     2.259599984     3.274699962    24.278069958   0   0   0 # obsk
     41      1   4 -0.950000     2.259599984     0.897679962    22.817826171   0   0   0 # ohk
     42      1   1  1.575000     0.753199995     2.512587955    28.708368235   0   0   0 # feok
     43      1   2  0.425000     0.753199995     4.117419881    26.260749853   0   0   0 # hoy
     44      1   3 -1.050000     0.753199995     0.984700000    25.289236708   0   0   0 # obsk
     45      1   4 -0.950000     0.753199995     3.187679923    26.749480496   0   0   0 # ohk
     46      1   1  1.575000     3.765999973     4.357411930     3.924868994   0   0   0 # feok
     47      1   2  0.425000     3.765999973     2.752580004    11.390650309   0   0   0 # hoy
     48      1   3 -1.050000     3.765999973     1.305299962    10.419137164   0   0   0 # obsk
     49      1   4 -0.950000     3.765999973     3.682319962    11.879380951   0   0   0 # ohk
     50      1   1  1.575000     5.272399962     2.067411968     5.988838887   0   0   0 # feok
     51      1   2  0.425000     5.272399962     0.462580043     8.436457269   0   0   0 # hoy
     52      1   3 -1.050000     5.272399962     3.595299924     9.407970414   0   0   0 # obsk
     53      1   4 -0.950000     5.272399962     1.392320000     7.947726626   0   0   0 # ohk
     54      1   1  1.575000     5.272399962     0.222587994    10.945538735   0   0   0 # feok
     55      1   2  0.425000     5.272399962     1.827419919     3.479757421   0   0   0 # hoy
     56      1   3 -1.050000     5.272399962     3.274699962     4.451270565   0   0   0 # obsk
     57      1   4 -0.950000     5.272399962     0.897679962     2.991026778   0   0   0 # ohk
     58      1   1  1.575000     3.765999973     2.512587955     8.881568842   0   0   0 # feok
     59      1   2  0.425000     3.765999973     4.117419881     6.433950460   0   0   0 # hoy
     60      1   3 -1.050000     3.765999973     0.984700000     5.462437316   0   0   0 # obsk
     61      1   4 -0.950000     3.765999973     3.187679923     6.922681103   0   0   0 # ohk
     62      1   1  1.575000     3.765999973     4.357411930    13.838268690   0   0   0 # feok
     63      1   2  0.425000     3.765999973     2.752580004    21.304050005   0   0   0 # hoy
     64      1   3 -1.050000     3.765999973     1.305299962    20.332536860   0   0   0 # obsk
     65      1   4 -0.950000     3.765999973     3.682319962    21.792780648   0   0   0 # ohk
     66      1   1  1.575000     5.272399962     2.067411968    15.902238583   0   0   0 # feok
     67      1   2  0.425000     5.272399962     0.462580043    18.349856965   0   0   0 # hoy
     68      1   3 -1.050000     5.272399962     3.595299924    19.321370110   0   0   0 # obsk
     69      1   4 -0.950000     5.272399962     1.392320000    17.861126322   0   0   0 # ohk
     70      1   1  1.575000     5.272399962     0.222587994    20.858938431   0   0   0 # feok
     71      1   2  0.425000     5.272399962     1.827419919    13.393157117   0   0   0 # hoy
     72      1   3 -1.050000     5.272399962     3.274699962    14.364670262   0   0   0 # obsk
     73      1   4 -0.950000     5.272399962     0.897679962    12.904426474   0   0   0 # ohk
     74      1   1  1.575000     3.765999973     2.512587955    18.794968539   0   0   0 # feok
     75      1   2  0.425000     3.765999973     4.117419881    16.347350157   0   0   0 # hoy
     76      1   3 -1.050000     3.765999973     0.984700000    15.375837012   0   0   0 # obsk
     77      1   4 -0.950000     3.765999973     3.187679923    16.836080799   0   0   0 # ohk
     78      1   1  1.575000     3.765999973     4.357411930    23.751668387   0   0   0 # feok
     79      1   3 -1.109400     3.765999973     1.305299962    30.245936556   0   0   0 # obsk
     80      1   1  1.575000     5.272399962     2.067411968    25.815638280   0   0   0 # feok
     81      1   2  0.425000     5.272399962     0.462580043    28.263256661   0   0   0 # hoy
     82      1   3 -1.050000     5.272399962     3.595299924    29.234769806   0   0   0 # obsk
     83      1   4 -0.950000     5.272399962     1.392320000    27.774526019   0   0   0 # ohk
     84      1   2  0.425000     5.272399962     1.827419919    23.306556813   0   0   0 # hoy
     85      1   3 -1.050000     5.272399962     3.274699962    24.278069958   0   0   0 # obsk
     86      1   4 -0.950000     5.272399962     0.897679962    22.817826171   0   0   0 # ohk
     87      1   1  1.575000     3.765999973     2.512587955    28.708368235   0   0   0 # feok
     88      1   2  0.425000     3.765999973     4.117419881    26.260749853   0   0   0 # hoy
     89      1   3 -1.050000     3.765999973     0.984700000    25.289236708   0   0   0 # obsk
     90      1   4 -0.950000     3.765999973     3.187679923    26.749480496   0   0   0 # ohk
     91      1   1  1.575000     6.778799951     4.357411930     3.924868994   0   0   0 # feok
     92      1   2  0.425000     6.778799951     2.752580004    11.390650309   0   0   0 # hoy
     93      1   3 -1.050000     6.778799951     1.305299962    10.419137164   0   0   0 # obsk
     94      1   4 -0.950000     6.778799951     3.682319962    11.879380951   0   0   0 # ohk
     95      1   1  1.575000     8.285199940     2.067411968     5.988838887   0   0   0 # feok
     96      1   2  0.425000     8.285199940     0.462580043     8.436457269   0   0   0 # hoy
     97      1   3 -1.050000     8.285199940     3.595299924     9.407970414   0   0   0 # obsk
     98      1   4 -0.950000     8.285199940     1.392320000     7.947726626   0   0   0 # ohk
     99      1   1  1.575000     8.285199940     0.222587994    10.945538735   0   0   0 # feok
    100      1   2  0.425000     8.285199940     1.827419919     3.479757421   0   0   0 # hoy
    101      1   3 -1.050000     8.285199940     3.274699962     4.451270565   0   0   0 # obsk
    102      1   4 -0.950000     8.285199940     0.897679962     2.991026778   0   0   0 # ohk
    103      1   1  1.575000     6.778799951     2.512587955     8.881568842   0   0   0 # feok
    104      1   2  0.425000     6.778799951     4.117419881     6.433950460   0   0   0 # hoy
    105      1   3 -1.050000     6.778799951     0.984700000     5.462437316   0   0   0 # obsk
    106      1   4 -0.950000     6.778799951     3.187679923     6.922681103   0   0   0 # ohk
    107      1   1  1.575000     6.778799951     4.357411930    13.838268690   0   0   0 # feok
    108      1   2  0.425000     6.778799951     2.752580004    21.304050005   0   0   0 # hoy
    109      1   3 -1.050000     6.778799951     1.305299962    20.332536860   0   0   0 # obsk
    110      1   4 -0.950000     6.778799951     3.682319962    21.792780648   0   0   0 # ohk
    111      1   1  1.575000     8.285199940     2.067411968    15.902238583   0   0   0 # feok
    112      1   2  0.425000     8.285199940     0.462580043    18.349856965   0   0   0 # hoy
    113      1   3 -1.050000     8.285199940     3.595299924    19.321370110   0   0   0 # obsk
    114      1   4 -0.950000     8.285199940     1.392320000    17.861126322   0   0   0 # ohk
    115      1   1  1.575000     8.285199940     0.222587994    20.858938431   0   0   0 # feok
    116      1   2  0.425000     8.285199940     1.827419919    13.393157117   0   0   0 # hoy
    117      1   3 -1.050000     8.285199940     3.274699962    14.364670262   0   0   0 # obsk
    118      1   4 -0.950000     8.285199940     0.897679962    12.904426474   0   0   0 # ohk
    119      1   1  1.575000     6.778799951     2.512587955    18.794968539   0   0   0 # feok
    120      1   2  0.425000     6.778799951     4.117419881    16.347350157   0   0   0 # hoy
    121      1   3 -1.050000     6.778799951     0.984700000    15.375837012   0   0   0 # obsk
    122      1   4 -0.950000     6.778799951     3.187679923    16.836080799   0   0   0 # ohk
    123      1   1  1.575000     6.778799951     4.357411930    23.751668387   0   0   0 # feok
    124      1   3 -1.050000     6.778799951     1.305299962    30.245936556   0   0   0 # obsk
    125      1   1  1.575000     8.285199940     2.067411968    25.815638280   0   0   0 # feok
    126      1   2  0.425000     8.285199940     0.462580043    28.263256661   0   0   0 # hoy
    127      1   3 -1.109400     8.285199940     3.595299924    29.234769806   0   0   0 # obsk
    128      1   4 -0.950000     8.285199940     1.392320000    27.774526019   0   0   0 # ohk
    129      1   2  0.425000     8.285199940     1.827419919    23.306556813   0   0   0 # hoy
    130      1   3 -1.050000     8.285199940     3.274699962    24.278069958   0   0   0 # obsk
    131      1   4 -0.950000     8.285199940     0.897679962    22.817826171   0   0   0 # ohk
    132      1   1  1.575000     6.778799951     2.512587955    28.708368235   0   0   0 # feok
    133      1   2  0.425000     6.778799951     4.117419881    26.260749853   0   0   0 # hoy
    134      1   3 -1.050000     6.778799951     0.984700000    25.289236708   0   0   0 # obsk
    135      1   4 -0.950000     6.778799951     3.187679923    26.749480496   0   0   0 # ohk
    136      1   1  1.575000     9.791599929     4.357411930     3.924868994   0   0   0 # feok
    137      1   2  0.425000     9.791599929     2.752580004    11.390650309   0   0   0 # hoy
    138      1   3 -1.050000     9.791599929     1.305299962    10.419137164   0   0   0 # obsk
    139      1   4 -0.950000     9.791599929     3.682319962    11.879380951   0   0   0 # ohk
    140      1   1  1.575000    11.297999918     2.067411968     5.988838887   0   0   0 # feok
    141      1   2  0.425000    11.297999918     0.462580043     8.436457269   0   0   0 # hoy
    142      1   3 -1.050000    11.297999918     3.595299924     9.407970414   0   0   0 # obsk
    143      1   4 -0.950000    11.297999918     1.392320000     7.947726626   0   0   0 # ohk
    144      1   1  1.575000    11.297999918     0.222587994    10.945538735   0   0   0 # feok
    145      1   2  0.425000    11.297999918     1.827419919     3.479757421   0   0   0 # hoy
    146      1   3 -1.050000    11.297999918     3.274699962     4.451270565   0   0   0 # obsk
    147      1   4 -0.950000    11.297999918     0.897679962     2.991026778   0   0   0 # ohk
    148      1   1  1.575000     9.791599929     2.512587955     8.881568842   0   0   0 # feok
    149      1   2  0.425000     9.791599929     4.117419881     6.433950460   0   0   0 # hoy
    150      1   3 -1.050000     9.791599929     0.984700000     5.462437316   0   0   0 # obsk
    151      1   4 -0.950000     9.791599929     3.187679923     6.922681103   0   0   0 # ohk
    152      1   1  1.575000     9.791599929     4.357411930    13.838268690   0   0   0 # feok
    153      1   2  0.425000     9.791599929     2.752580004    21.304050005   0   0   0 # hoy
    154      1   3 -1.050000     9.791599929     1.305299962    20.332536860   0   0   0 # obsk
    155      1   4 -0.950000     9.791599929     3.682319962    21.792780648   0   0   0 # ohk
    156      1   1  1.575000    11.297999918     2.067411968    15.902238583   0   0   0 # feok
    157      1   2  0.425000    11.297999918     0.462580043    18.349856965   0   0   0 # hoy
    158      1   3 -1.050000    11.297999918     3.595299924    19.321370110   0   0   0 # obsk
    159      1   4 -0.950000    11.297999918     1.392320000    17.861126322   0   0   0 # ohk
    160      1   1  1.575000    11.297999918     0.222587994    20.858938431   0   0   0 # feok
    161      1   2  0.425000    11.297999918     1.827419919    13.393157117   0   0   0 # hoy
    162      1   3 -1.050000    11.297999918     3.274699962    14.364670262   0   0   0 # obsk
    163      1   4 -0.950000    11.297999918     0.897679962    12.904426474   0   0   0 # ohk
    164      1   1  1.575000     9.791599929     2.512587955    18.794968539   0   0   0 # feok
    165      1   2  0.425000     9.791599929     4.117419881    16.347350157   0   0   0 # hoy
    166      1   3 -1.050000     9.791599929     0.984700000    15.375837012   0   0   0 # obsk
    167      1   4 -0.950000     9.791599929     3.187679923    16.836080799   0   0   0 # ohk
    168      1   1  1.575000     9.791599929     4.357411930    23.751668387   0   0   0 # feok
    169      1   3 -1.050000     9.791599929     1.305299962    30.245936556   0   0   0 # obsk
    170      1   1  1.575000    11.297999918     2.067411968    25.815638280   0   0   0 # feok
    171      1   2  0.425000    11.297999918     0.462580043    28.263256661   0   0   0 # hoy
    172      1   3 -1.050000    11.297999918     3.595299924    29.234769806   0   0   0 # obsk
    173      1   4 -0.950000    11.297999918     1.392320000    27.774526019   0   0   0 # ohk
    174      1   2  0.425000    11.297999918     1.827419919    23.306556813   0   0   0 # hoy
    175      1   3 -1.050000    11.297999918     3.274699962    24.278069958   0   0   0 # obsk
    176      1   4 -0.950000    11.297999918     0.897679962    22.817826171   0   0   0 # ohk
    177      1   1  1.575000     9.791599929     2.512587955    28.708368235   0   0   0 # feok
    178      1   2  0.425000     9.791599929     4.117419881    26.260749853   0   0   0 # hoy
    179      1   3 -1.050000     9.791599929     0.984700000    25.289236708   0   0   0 # obsk
    180      1   4 -0.950000     9.791599929     3.187679923    26.749480496   0   0   0 # ohk
    181      1   1  1.575000    12.804399908     4.357411930     3.924868994   0   0   0 # feok
    182      1   2  0.425000    12.804399908     2.752580004    11.390650309   0   0   0 # hoy
    183      1   3 -1.050000    12.804399908     1.305299962    10.419137164   0   0   0 # obsk
    184      1   4 -0.950000    12.804399908     3.682319962    11.879380951   0   0   0 # ohk
    185      1   1  1.575000    14.310799897     2.067411968     5.988838887   0   0   0 # feok
    186      1   2  0.425000    14.310799897     0.462580043     8.436457269   0   0   0 # hoy
    187      1   3 -1.050000    14.310799897     3.595299924     9.407970414   0   0   0 # obsk
    188      1   4 -0.950000    14.310799897     1.392320000     7.947726626   0   0   0 # ohk
    189      1   1  1.575000    14.310799897     0.222587994    10.945538735   0   0   0 # feok
    190      1   2  0.425000    14.310799897     1.827419919     3.479757421   0   0   0 # hoy
    191      1   3 -1.050000    14.310799897     3.274699962     4.451270565   0   0   0 # obsk
    192      1   4 -0.950000    14.310799897     0.897679962     2.991026778   0   0   0 # ohk
    193      1   1  1.575000    12.804399908     2.512587955     8.881568842   0   0   0 # feok
    194      1   2  0.425000    12.804399908     4.117419881     6.433950460   0   0   0 # hoy
    195      1   3 -1.050000    12.804399908     0.984700000     5.462437316   0   0   0 # obsk
    196      1   4 -0.950000    12.804399908     3.187679923     6.922681103   0   0   0 # ohk
    197      1   1  1.575000    12.804399908     4.357411930    13.838268690   0   0   0 # feok
    198      1   2  0.425000    12.804399908     2.752580004    21.304050005   0   0   0 # hoy
    199      1   3 -1.050000    12.804399908     1.305299962    20.332536860   0   0   0 # obsk
    200      1   4 -0.950000    12.804399908     3.682319962    21.792780648   0   0   0 # ohk
    201      1   1  1.575000    14.310799897     2.067411968    15.902238583   0   0   0 # feok
    202      1   2  0.425000    14.310799897     0.462580043    18.349856965   0   0   0 # hoy
    203      1   3 -1.050000    14.310799897     3.595299924    19.321370110   0   0   0 # obsk
    204      1   4 -0.950000    14.310799897     1.392320000    17.861126322   0   0   0 # ohk
    205      1   1  1.575000    14.310799897     0.222587994    20.858938431   0   0   0 # feok
    206      1   2  0.425000    14.310799897     1.827419919    13.393157117   0   0   0 # hoy
    207      1   3 -1.050000    14.310799897     3.274699962    14.364670262   0   0   0 # obsk
    208      1   4 -0.950000    14.310799897     0.897679962    12.904426474   0   0   0 # ohk
    209      1   1  1.575000    12.804399908     2.512587955    18.794968539   0   0   0 # feok
    210      1   2  0.425000    12.804399908     4.117419881    16.347350157   0   0   0 # hoy
    211      1   3 -1.050000    12.804399908     0.984700000    15.375837012   0   0   0 # obsk
    212      1   4 -0.950000    12.804399908     3.187679923    16.836080799   0   0   0 # ohk
    213      1   1  1.575000    12.804399908     4.357411930    23.751668387   0   0   0 # feok
    214      1   3 -1.109400    12.804399908     1.305299962    30.245936556   0   0   0 # obsk
    215      1   1  1.575000    14.310799897     2.067411968    25.815638280   0   0   0 # feok
    216      1   2  0.425000    14.310799897     0.462580043    28.263256661   0   0   0 # hoy
    217      1   3 -1.050000    14.310799897     3.595299924    29.234769806   0   0   0 # obsk
    218      1   4 -0.950000    14.310799897     1.392320000    27.774526019   0   0   0 # ohk
    219      1   2  0.425000    14.310799897     1.827419919    23.306556813   0   0   0 # hoy
    220      1   3 -1.050000    14.310799897     3.274699962    24.278069958   0   0   0 # obsk
    221      1   4 -0.950000    14.310799897     0.897679962    22.817826171   0   0   0 # ohk
    222      1   1  1.575000    12.804399908     2.512587955    28.708368235   0   0   0 # feok
    223      1   2  0.425000    12.804399908     4.117419881    26.260749853   0   0   0 # hoy
    224      1   3 -1.050000    12.804399908     0.984700000    25.289236708   0   0   0 # obsk
    225      1   4 -0.950000    12.804399908     3.187679923    26.749480496   0   0   0 # ohk
    226      1   1  1.575000    15.817199886     4.357411930     3.924868994   0   0   0 # feok
    227      1   2  0.425000    15.817199886     2.752580004    11.390650309   0   0   0 # hoy
    228      1   3 -1.050000    15.817199886     1.305299962    10.419137164   0   0   0 # obsk
    229      1   4 -0.950000    15.817199886     3.682319962    11.879380951   0   0   0 # ohk
    230      1   1  1.575000    17.323599875     2.067411968     5.988838887   0   0   0 # feok
    231      1   2  0.425000    17.323599875     0.462580043     8.436457269   0   0   0 # hoy
    232      1   3 -1.050000    17.323599875     3.595299924     9.407970414   0   0   0 # obsk
    233      1   4 -0.950000    17.323599875     1.392320000     7.947726626   0   0   0 # ohk
    234      1   1  1.575000    17.323599875     0.222587994    10.945538735   0   0   0 # feok
    235      1   2  0.425000    17.323599875     1.827419919     3.479757421   0   0   0 # hoy
    236      1   3 -1.050000    17.323599875     3.274699962     4.451270565   0   0   0 # obsk
    237      1   4 -0.950000    17.323599875     0.897679962     2.991026778   0   0   0 # ohk
    238      1   1  1.575000    15.817199886     2.512587955     8.881568842   0   0   0 # feok
    239      1   2  0.425000    15.817199886     4.117419881     6.433950460   0   0   0 # hoy
    240      1   3 -1.050000    15.817199886     0.984700000     5.462437316   0   0   0 # obsk
    241      1   4 -0.950000    15.817199886     3.187679923     6.922681103   0   0   0 # ohk
    242      1   1  1.575000    15.817199886     4.357411930    13.838268690   0   0   0 # feok
    243      1   2  0.425000    15.817199886     2.752580004    21.304050005   0   0   0 # hoy
    244      1   3 -1.050000    15.817199886     1.305299962    20.332536860   0   0   0 # obsk
    245      1   4 -0.950000    15.817199886     3.682319962    21.792780648   0   0   0 # ohk
    246      1   1  1.575000    17.323599875     2.067411968    15.902238583   0   0   0 # feok
    247      1   2  0.425000    17.323599875     0.462580043    18.349856965   0   0   0 # hoy
    248      1   3 -1.050000    17.323599875     3.595299924    19.321370110   0   0   0 # obsk
    249      1   4 -0.950000    17.323599875     1.392320000    17.861126322   0   0   0 # ohk
    250      1   1  1.575000    17.323599875     0.222587994    20.858938431   0   0   0 # feok
    251      1   2  0.425000    17.323599875     1.827419919    13.393157117   0   0   0 # hoy
    252      1   3 -1.050000    17.323599875     3.274699962    14.364670262   0   0   0 # obsk
    253      1   4 -0.950000    17.323599875     0.897679962    12.904426474   0   0   0 # ohk
    254      1   1  1.575000    15.817199886     2.512587955    18.794968539   0   0   0 # feok
    255      1   2  0.425000    15.817199886     4.117419881    16.347350157   0   0   0 # hoy
    256      1   3 -1.050000    15.817199886     0.984700000    15.375837012   0   0   0 # obsk
    257      1   4 -0.950000    15.817199886     3.187679923    16.836080799   0   0   0 # ohk
    258      1   1  1.575000    15.817199886     4.357411930    23.751668387   0   0   0 # feok
    259      1   3 -1.109400    15.817199886     1.305299962    30.245936556   0   0   0 # obsk
    260      1   1  1.575000    17.323599875     2.067411968    25.815638280   0   0   0 # feok
    261      1   2  0.425000    17.323599875     0.462580043    28.263256661   0   0   0 # hoy
    262      1   3 -1.050000    17.323599875     3.595299924    29.234769806   0   0   0 # obsk
    263      1   4 -0.950000    17.323599875     1.392320000    27.774526019   0   0   0 # ohk
    264      1   2  0.425000    17.323599875     1.827419919    23.306556813   0   0   0 # hoy
    265      1   3 -1.050000    17.323599875     3.274699962    24.278069958   0   0   0 # obsk
    266      1   4 -0.950000    17.323599875     0.897679962    22.817826171   0   0   0 # ohk
    267      1   1  1.575000    15.817199886     2.512587955    28.708368235   0   0   0 # feok
    268      1   2  0.425000    15.817199886     4.117419881    26.260749853   0   0   0 # hoy
    269      1   3 -1.050000    15.817199886     0.984700000    25.289236708   0   0   0 # obsk
    270      1   4 -0.950000    15.817199886     3.187679923    26.749480496   0   0   0 # ohk
    271      1   1  1.575000    18.829999864     4.357411930     3.924868994   0   0   0 # feok
    272      1   2  0.425000    18.829999864     2.752580004    11.390650309   0   0   0 # hoy
    273      1   3 -1.050000    18.829999864     1.305299962    10.419137164   0   0   0 # obsk
    274      1   4 -0.950000    18.829999864     3.682319962    11.879380951   0   0   0 # ohk
    275      1   1  1.575000    20.336399853     2.067411968     5.988838887   0   0   0 # feok
    276      1   2  0.425000    20.336399853     0.462580043     8.436457269   0   0   0 # hoy
    277      1   3 -1.050000    20.336399853     3.595299924     9.407970414   0   0   0 # obsk
    278      1   4 -0.950000    20.336399853     1.392320000     7.947726626   0   0   0 # ohk
    279      1   1  1.575000    20.336399853     0.222587994    10.945538735   0   0   0 # feok
    280      1   2  0.425000    20.336399853     1.827419919     3.479757421   0   0   0 # hoy
    281      1   3 -1.050000    20.336399853     3.274699962     4.451270565   0   0   0 # obsk
    282      1   4 -0.950000    20.336399853     0.897679962     2.991026778   0   0   0 # ohk
    283      1   1  1.575000    18.829999864     2.512587955     8.881568842   0   0   0 # feok
    284      1   2  0.425000    18.829999864     4.117419881     6.433950460   0   0   0 # hoy
    285      1   3 -1.050000    18.829999864     0.984700000     5.462437316   0   0   0 # obsk
    286      1   4 -0.950000    18.829999864     3.187679923     6.922681103   0   0   0 # ohk
    287      1   1  1.575000    18.829999864     4.357411930    13.838268690   0   0   0 # feok
    288      1   2  0.425000    18.829999864     2.752580004    21.304050005   0   0   0 # hoy
    289      1   3 -1.050000    18.829999864     1.305299962    20.332536860   0   0   0 # obsk
    290      1   4 -0.950000    18.829999864     3.682319962    21.792780648   0   0   0 # ohk
    291      1   1  1.575000    20.336399853     2.067411968    15.902238583   0   0   0 # feok
    292      1   2  0.425000    20.336399853     0.462580043    18.349856965   0   0   0 # hoy
    293      1   3 -1.050000    20.336399853     3.595299924    19.321370110   0   0   0 # obsk
    294      1   4 -0.950000    20.336399853     1.392320000    17.861126322   0   0   0 # ohk
    295      1   1  1.575000    20.336399853     0.222587994    20.858938431   0   0   0 # feok
    296      1   2  0.425000    20.336399853     1.827419919    13.393157117   0   0   0 # hoy
    297      1   3 -1.050000    20.336399853     3.274699962    14.364670262   0   0   0 # obsk
    298      1   4 -0.950000    20.336399853     0.897679962    12.904426474   0   0   0 # ohk
    299      1   1  1.575000    18.829999864     2.512587955    18.794968539   0   0   0 # feok
    300      1   2  0.425000    18.829999864     4.117419881    16.347350157   0   0   0 # hoy
    301      1   3 -1.050000    18.829999864     0.984700000    15.375837012   0   0   0 # obsk
    302      1   4 -0.950000    18.829999864     3.187679923    16.836080799   0   0   0 # ohk
    303      1   1  1.575000    18.829999864     4.357411930    23.751668387   0   0   0 # feok
    304      1   3 -1.050000    18.829999864     1.305299962    30.245936556   0   0   0 # obsk
    305      1   1  1.575000    20.336399853     2.067411968    25.815638280   0   0   0 # feok
    306      1   2  0.425000    20.336399853     0.462580043    28.263256661   0   0   0 # hoy
    307      1   3 -1.109400    20.336399853     3.595299924    29.234769806   0   0   0 # obsk
    308      1   4 -0.950000    20.336399853     1.392320000    27.774526019   0   0   0 # ohk
    309      1   2  0.425000    20.336399853     1.827419919    23.306556813   0   0   0 # hoy
    310      1   3 -1.050000    20.336399853     3.274699962    24.278069958   0   0   0 # obsk
    311      1   4 -0.950000    20.336399853     0.897679962    22.817826171   0   0   0 # ohk
    312      1   1  1.575000    18.829999864     2.512587955    28.708368235   0   0   0 # feok
    313      1   2  0.425000    18.829999864     4.117419881    26.260749853   0   0   0 # hoy
    314      1   3 -1.050000    18.829999864     0.984700000    25.289236708   0   0   0 # obsk
    315      1   4 -0.950000    18.829999864     3.187679923    26.749480496   0   0   0 # ohk
    316      1   1  1.575000    21.842799842     4.357411930     3.924868994   0   0   0 # feok
    317      1   2  0.425000    21.842799842     2.752580004    11.390650309   0   0   0 # hoy
    318      1   3 -1.050000    21.842799842     1.305299962    10.419137164   0   0   0 # obsk
    319      1   4 -0.950000    21.842799842     3.682319962    11.879380951   0   0   0 # ohk
    320      1   1  1.575000    23.349199831     2.067411968     5.988838887   0   0   0 # feok
    321      1   2  0.425000    23.349199831     0.462580043     8.436457269   0   0   0 # hoy
    322      1   3 -1.050000    23.349199831     3.595299924     9.407970414   0   0   0 # obsk
    323      1   4 -0.950000    23.349199831     1.392320000     7.947726626   0   0   0 # ohk
    324      1   1  1.575000    23.349199831     0.222587994    10.945538735   0   0   0 # feok
    325      1   2  0.425000    23.349199831     1.827419919     3.479757421   0   0   0 # hoy
    326      1   3 -1.050000    23.349199831     3.274699962     4.451270565   0   0   0 # obsk
    327      1   4 -0.950000    23.349199831     0.897679962     2.991026778   0   0   0 # ohk
    328      1   1  1.575000    21.842799842     2.512587955     8.881568842   0   0   0 # feok
    329      1   2  0.425000    21.842799842     4.117419881     6.433950460   0   0   0 # hoy
    330      1   3 -1.050000    21.842799842     0.984700000     5.462437316   0   0   0 # obsk
    331      1   4 -0.950000    21.842799842     3.187679923     6.922681103   0   0   0 # ohk
    332      1   1  1.575000    21.842799842     4.357411930    13.838268690   0   0   0 # feok
    333      1   2  0.425000    21.842799842     2.752580004    21.304050005   0   0   0 # hoy
    334      1   3 -1.050000    21.842799842     1.305299962    20.332536860   0   0   0 # obsk
    335      1   4 -0.950000    21.842799842     3.682319962    21.792780648   0   0   0 # ohk
    336      1   1  1.575000    23.349199831     2.067411968    15.902238583   0   0   0 # feok
    337      1   2  0.425000    23.349199831     0.462580043    18.349856965   0   0   0 # hoy
    338      1   3 -1.050000    23.349199831     3.595299924    19.321370110   0   0   0 # obsk
    339      1   4 -0.950000    23.349199831     1.392320000    17.861126322   0   0   0 # ohk
    340      1   1  1.575000    23.349199831     0.222587994    20.858938431   0   0   0 # feok
    341      1   2  0.425000    23.349199831     1.827419919    13.393157117   0   0   0 # hoy
    342      1   3 -1.050000    23.349199831     3.274699962    14.364670262   0   0   0 # obsk
    343      1   4 -0.950000    23.349199831     0.897679962    12.904426474   0   0   0 # ohk
    344      1   1  1.575000    21.842799842     2.512587955    18.794968539   0   0   0 # feok
    345      1   2  0.425000    21.842799842     4.117419881    16.347350157   0   0   0 # hoy
    346      1   3 -1.050000    21.842799842     0.984700000    15.375837012   0   0   0 # obsk
    347      1   4 -0.950000    21.842799842     3.187679923    16.836080799   0   0   0 # ohk
    348      1   1  1.575000    21.842799842     4.357411930    23.751668387   0   0   0 # feok
    349      1   3 -1.050000    21.842799842     1.305299962    30.245936556   0   0   0 # obsk
    350      1   1  1.575000    23.349199831     2.067411968    25.815638280   0   0   0 # feok
    351      1   2  0.425000    23.349199831     0.462580043    28.263256661   0   0   0 # hoy
    352      1   3 -1.050000    23.349199831     3.595299924    29.234769806   0   0   0 # obsk
    353      1   4 -0.950000    23.349199831     1.392320000    27.774526019   0   0   0 # ohk
    354      1   2  0.425000    23.349199831     1.827419919    23.306556813   0   0   0 # hoy
    355      1   3 -1.050000    23.349199831     3.274699962    24.278069958   0   0   0 # obsk
    356      1   4 -0.950000    23.349199831     0.897679962    22.817826171   0   0   0 # ohk
    357      1   1  1.575000    21.842799842     2.512587955    28.708368235   0   0   0 # feok
    358      1   2  0.425000    21.842799842     4.117419881    26.260749853   0   0   0 # hoy
    359      1   3 -1.050000    21.842799842     0.984700000    25.289236708   0   0   0 # obsk
    360      1   4 -0.950000    21.842799842     3.187679923    26.749480496   0   0   0 # ohk
    361      1   1  1.575000    24.855599821     4.357411930     3.924868994   0   0   0 # feok
    362      1   2  0.425000    24.855599821     2.752580004    11.390650309   0   0   0 # hoy
    363      1   3 -1.050000    24.855599821     1.305299962    10.419137164   0   0   0 # obsk
    364      1   4 -0.950000    24.855599821     3.682319962    11.879380951   0   0   0 # ohk
    365      1   1  1.575000    26.361999810     2.067411968     5.988838887   0   0   0 # feok
    366      1   2  0.425000    26.361999810     0.462580043     8.436457269   0   0   0 # hoy
    367      1   3 -1.050000    26.361999810     3.595299924     9.407970414   0   0   0 # obsk
    368      1   4 -0.950000    26.361999810     1.392320000     7.947726626   0   0   0 # ohk
    369      1   1  1.575000    26.361999810     0.222587994    10.945538735   0   0   0 # feok
    370      1   2  0.425000    26.361999810     1.827419919     3.479757421   0   0   0 # hoy
    371      1   3 -1.050000    26.361999810     3.274699962     4.451270565   0   0   0 # obsk
    372      1   4 -0.950000    26.361999810     0.897679962     2.991026778   0   0   0 # ohk
    373      1   1  1.575000    24.855599821     2.512587955     8.881568842   0   0   0 # feok
    374      1   2  0.425000    24.855599821     4.117419881     6.433950460   0   0   0 # hoy
    375      1   3 -1.050000    24.855599821     0.984700000     5.462437316   0   0   0 # obsk
    376      1   4 -0.950000    24.855599821     3.187679923     6.922681103   0   0   0 # ohk
    377      1   1  1.575000    24.855599821     4.357411930    13.838268690   0   0   0 # feok
    378      1   2  0.425000    24.855599821     2.752580004    21.304050005   0   0   0 # hoy
    379      1   3 -1.050000    24.855599821     1.305299962    20.332536860   0   0   0 # obsk
    380      1   4 -0.950000    24.855599821     3.682319962    21.792780648   0   0   0 # ohk
    381      1   1  1.575000    26.361999810     2.067411968    15.902238583   0   0   0 # feok
    382      1   2  0.425000    26.361999810     0.462580043    18.349856965   0   0   0 # hoy
    383      1   3 -1.050000    26.361999810     3.595299924    19.321370110   0   0   0 # obsk
    384      1   4 -0.950000    26.361999810     1.392320000    17.861126322   0   0   0 # ohk
    385      1   1  1.575000    26.361999810     0.222587994    20.858938431   0   0   0 # feok
    386      1   2  0.425000    26.361999810     1.827419919    13.393157117   0   0   0 # hoy
    387      1   3 -1.050000    26.361999810     3.274699962    14.364670262   0   0   0 # obsk
    388      1   4 -0.950000    26.361999810     0.897679962    12.904426474   0   0   0 # ohk
    389      1   1  1.575000    24.855599821     2.512587955    18.794968539   0   0   0 # feok
    390      1   2  0.425000    24.855599821     4.117419881    16.347350157   0   0   0 # hoy
    391      1   3 -1.050000    24.855599821     0.984700000    15.375837012   0   0   0 # obsk
    392      1   4 -0.950000    24.855599821     3.187679923    16.836080799   0   0   0 # ohk
    393      1   1  1.575000    24.855599821     4.357411930    23.751668387   0   0   0 # feok
    394      1   3 -1.050000    24.855599821     1.305299962    30.245936556   0   0   0 # obsk
    395      1   1  1.575000    26.361999810     2.067411968    25.815638280   0   0   0 # feok
    396      1   2  0.425000    26.361999810     0.462580043    28.263256661   0   0   0 # hoy
    397      1   3 -1.050000    26.361999810     3.595299924    29.234769806   0   0   0 # obsk
    398      1   4 -0.950000    26.361999810     1.392320000    27.774526019   0   0   0 # ohk
    399      1   2  0.425000    26.361999810     1.827419919    23.306556813   0   0   0 # hoy
    400      1   3 -1.050000    26.361999810     3.274699962    24.278069958   0   0   0 # obsk
    401      1   4 -0.950000    26.361999810     0.897679962    22.817826171   0   0   0 # ohk
    402      1   1  1.575000    24.855599821     2.512587955    28.708368235   0   0   0 # feok
    403      1   2  0.425000    24.855599821     4.117419881    26.260749853   0   0   0 # hoy
    404      1   3 -1.050000    24.855599821     0.984700000    25.289236708   0   0   0 # obsk
    405      1   4 -0.950000    24.855599821     3.187679923    26.749480496   0   0   0 # ohk
    406      1   1  1.575000     0.753199995     8.937411854     3.924868994   0   0   0 # feok
    407      1   2  0.425000     0.753199995     7.332579928    11.390650309   0   0   0 # hoy
    408      1   3 -1.050000     0.753199995     5.885299886    10.419137164   0   0   0 # obsk
    409      1   4 -0.950000     0.753199995     8.262319886    11.879380951   0   0   0 # ohk
    410      1   1  1.575000     2.259599984     6.647411892     5.988838887   0   0   0 # feok
    411      1   2  0.425000     2.259599984     5.042579966     8.436457269   0   0   0 # hoy
    412      1   3 -1.050000     2.259599984     8.175299847     9.407970414   0   0   0 # obsk
    413      1   4 -0.950000     2.259599984     5.972319924     7.947726626   0   0   0 # ohk
    414      1   1  1.575000     2.259599984     4.802587917    10.945538735   0   0   0 # feok
    415      1   2  0.425000     2.259599984     6.407419843     3.479757421   0   0   0 # hoy
    416      1   3 -1.050000     2.259599984     7.854699886     4.451270565   0   0   0 # obsk
    417      1   4 -0.950000     2.259599984     5.477679885     2.991026778   0   0   0 # ohk
    418      1   1  1.575000     0.753199995     7.092587879     8.881568842   0   0   0 # feok
    419      1   2  0.425000     0.753199995     8.697419805     6.433950460   0   0   0 # hoy
    420      1   3 -1.050000     0.753199995     5.564699924     5.462437316   0   0   0 # obsk
    421      1   4 -0.950000     0.753199995     7.767679847     6.922681103   0   0   0 # ohk
    422      1   1  1.575000     0.753199995     8.937411854    13.838268690   0   0   0 # feok
    423      1   2  0.425000     0.753199995     7.332579928    21.304050005   0   0   0 # hoy
    424      1   3 -1.050000     0.753199995     5.885299886    20.332536860   0   0   0 # obsk
    425      1   4 -0.950000     0.753199995     8.262319886    21.792780648   0   0   0 # ohk
    426      1   1  1.575000     2.259599984     6.647411892    15.902238583   0   0   0 # feok
    427      1   2  0.425000     2.259599984     5.042579966    18.349856965   0   0   0 # hoy
    428      1   3 -1.050000     2.259599984     8.175299847    19.321370110   0   0   0 # obsk
    429      1   4 -0.950000     2.259599984     5.972319924    17.861126322   0   0   0 # ohk
    430      1   1  1.575000     2.259599984     4.802587917    20.858938431   0   0   0 # feok
    431      1   2  0.425000     2.259599984     6.407419843    13.393157117   0   0   0 # hoy
    432      1   3 -1.050000     2.259599984     7.854699886    14.364670262   0   0   0 # obsk
    433      1   4 -0.950000     2.259599984     5.477679885    12.904426474   0   0   0 # ohk
    434      1   1  1.575000     0.753199995     7.092587879    18.794968539   0   0   0 # feok
    435      1   2  0.425000     0.753199995     8.697419805    16.347350157   0   0   0 # hoy
    436      1   3 -1.050000     0.753199995     5.564699924    15.375837012   0   0   0 # obsk
    437      1   4 -0.950000     0.753199995     7.767679847    16.836080799   0   0   0 # ohk
    438      1   1  1.575000     0.753199995     8.937411854    23.751668387   0   0   0 # feok
    439      1   3 -1.050000     0.753199995     5.885299886    30.245936556   0   0   0 # obsk
    440      1   1  1.575000     2.259599984     6.647411892    25.815638280   0   0   0 # feok
    441      1   2  0.425000     2.259599984     5.042579966    28.263256661   0   0   0 # hoy
    442      1   3 -1.109400     2.259599984     8.175299847    29.234769806   0   0   0 # obsk
    443      1   4 -0.950000     2.259599984     5.972319924    27.774526019   0   0   0 # ohk
    444      1   2  0.425000     2.259599984     6.407419843    23.306556813   0   0   0 # hoy
    445      1   3 -1.050000     2.259599984     7.854699886    24.278069958   0   0   0 # obsk
    446      1   4 -0.950000     2.259599984     5.477679885    22.817826171   0   0   0 # ohk
    447      1   1  1.575000     0.753199995     7.092587879    28.708368235   0   0   0 # feok
    448      1   2  0.425000     0.753199995     8.697419805    26.260749853   0   0   0 # hoy
    449      1   3 -1.050000     0.753199995     5.564699924    25.289236708   0   0   0 # obsk
    450      1   4 -0.950000     0.753199995     7.767679847    26.749480496   0   0   0 # ohk
    451      1   1  1.575000     3.765999973     8.937411854     3.924868994   0   0   0 # feok
    452      1   2  0.425000     3.765999973     7.332579928    11.390650309   0   0   0 # hoy
    453      1   3 -1.050000     3.765999973     5.885299886    10.419137164   0   0   0 # obsk
    454      1   4 -0.950000     3.765999973     8.262319886    11.879380951   0   0   0 # ohk
    455      1   1  1.575000     5.272399962     6.647411892     5.988838887   0   0   0 # feok
    456      1   2  0.425000     5.272399962     5.042579966     8.436457269   0   0   0 # hoy
    457      1   3 -1.050000     5.272399962     8.175299847     9.407970414   0   0   0 # obsk
    458      1   4 -0.950000     5.272399962     5.972319924     7.947726626   0   0   0 # ohk
    459      1   1  1.575000     5.272399962     4.802587917    10.945538735   0   0   0 # feok
    460      1   2  0.425000     5.272399962     6.407419843     3.479757421   0   0   0 # hoy
    461      1   3 -1.050000     5.272399962     7.854699886     4.451270565   0   0   0 # obsk
    462      1   4 -0.950000     5.272399962     5.477679885     2.991026778   0   0   0 # ohk
    463      1   1  1.575000     3.765999973     7.092587879     8.881568842   0   0   0 # feok
    464      1   2  0.425000     3.765999973     8.697419805     6.433950460   0   0   0 # hoy
    465      1   3 -1.050000     3.765999973     5.564699924     5.462437316   0   0   0 # obsk
    466      1   4 -0.950000     3.765999973     7.767679847     6.922681103   0   0   0 # ohk
    467      1   1  1.575000     3.765999973     8.937411854    13.838268690   0   0   0 # feok
    468      1   2  0.425000     3.765999973     7.332579928    21.304050005   0   0   0 # hoy
    469      1   3 -1.050000     3.765999973     5.885299886    20.332536860   0   0   0 # obsk
    470      1   4 -0.950000     3.765999973     8.262319886    21.792780648   0   0   0 # ohk
    471      1   1  1.575000     5.272399962     6.647411892    15.902238583   0   0   0 # feok
    472      1   2  0.425000     5.272399962     5.042579966    18.349856965   0   0   0 # hoy
    473      1   3 -1.050000     5.272399962     8.175299847    19.321370110   0   0   0 # obsk
    474      1   4 -0.950000     5.272399962     5.972319924    17.861126322   0   0   0 # ohk
    475      1   1  1.575000     5.272399962     4.802587917    20.858938431   0   0   0 # feok
    476      1   2  0.425000     5.272399962     6.407419843    13.393157117   0   0   0 # hoy
    477      1   3 -1.050000     5.272399962     7.854699886    14.364670262   0   0   0 # obsk
    478      1   4 -0.950000     5.272399962     5.477679885    12.904426474   0   0   0 # ohk
    479      1   1  1.575000     3.765999973     7.092587879    18.794968539   0   0   0 # feok
    480      1   2  0.425000     3.765999973     8.697419805    16.347350157   0   0   0 # hoy
    481      1   3 -1.050000     3.765999973     5.564699924    15.375837012   0   0   0 # obsk
    482      1   4 -0.950000     3.765999973     7.767679847    16.836080799   0   0   0 # ohk
    483      1   1  1.575000     3.765999973     8.937411854    23.751668387   0   0   0 # feok
    484      1   3 -1.050000     3.765999973     5.885299886    30.245936556   0   0   0 # obsk
    485      1   1  1.575000     5.272399962     6.647411892    25.815638280   0   0   0 # feok
    486      1   2  0.425000     5.272399962     5.042579966    28.263256661   0   0   0 # hoy
    487      1   3 -1.050000     5.272399962     8.175299847    29.234769806   0   0   0 # obsk
    488      1   4 -0.950000     5.272399962     5.972319924    27.774526019   0   0   0 # ohk
    489      1   2  0.425000     5.272399962     6.407419843    23.306556813   0   0   0 # hoy
    490      1   3 -1.050000     5.272399962     7.854699886    24.278069958   0   0   0 # obsk
    491      1   4 -0.950000     5.272399962     5.477679885    22.817826171   0   0   0 # ohk
    492      1   1  1.575000     3.765999973     7.092587879    28.708368235   0   0   0 # feok
    493      1   2  0.425000     3.765999973     8.697419805    26.260749853   0   0   0 # hoy
    494      1   3 -1.050000     3.765999973     5.564699924    25.289236708   0   0   0 # obsk
    495      1   4 -0.950000     3.765999973     7.767679847    26.749480496   0   0   0 # ohk
    496      1   1  1.575000     6.778799951     8.937411854     3.924868994   0   0   0 # feok
    497      1   2  0.425000     6.778799951     7.332579928    11.390650309   0   0   0 # hoy
    498      1   3 -1.050000     6.778799951     5.885299886    10.419137164   0   0   0 # obsk
    499      1   4 -0.950000     6.778799951     8.262319886    11.879380951   0   0   0 # ohk
    500      1   1  1.575000     8.285199940     6.647411892     5.988838887   0   0   0 # feok
    501      1   2  0.425000     8.285199940     5.042579966     8.436457269   0   0   0 # hoy
    502      1   3 -1.050000     8.285199940     8.175299847     9.407970414   0   0   0 # obsk
    503      1   4 -0.950000     8.285199940     5.972319924     7.947726626   0   0   0 # ohk
    504      1   1  1.575000     8.285199940     4.802587917    10.945538735   0   0   0 # feok
    505      1   2  0.425000     8.285199940     6.407419843     3.479757421   0   0   0 # hoy
    506      1   3 -1.050000     8.285199940     7.854699886     4.451270565   0   0   0 # obsk
    507      1   4 -0.950000     8.285199940     5.477679885     2.991026778   0   0   0 # ohk
    508      1   1  1.575000     6.778799951     7.092587879     8.881568842   0   0   0 # feok
    509      1   2  0.425000     6.778799951     8.697419805     6.433950460   0   0   0 # hoy
    510      1   3 -1.050000     6.778799951     5.564699924     5.462437316   0   0   0 # obsk
    511      1   4 -0.950000     6.778799951     7.767679847     6.922681103   0   0   0 # ohk
    512      1   1  1.575000     6.778799951     8.937411854    13.838268690   0   0   0 # feok
    513      1   2  0.425000     6.778799951     7.332579928    21.304050005   0   0   0 # hoy
    514      1   3 -1.050000     6.778799951     5.885299886    20.332536860   0   0   0 # obsk
    515      1   4 -0.950000     6.778799951     8.262319886    21.792780648   0   0   0 # ohk
    516      1   1  1.575000     8.285199940     6.647411892    15.902238583   0   0   0 # feok
    517      1   2  0.425000     8.285199940     5.042579966    18.349856965   0   0   0 # hoy
    518      1   3 -1.050000     8.285199940     8.175299847    19.321370110   0   0   0 # obsk
    519      1   4 -0.950000     8.285199940     5.972319924    17.861126322   0   0   0 # ohk
    520      1   1  1.575000     8.285199940     4.802587917    20.858938431   0   0   0 # feok
    521      1   2  0.425000     8.285199940     6.407419843    13.393157117   0   0   0 # hoy
    522      1   3 -1.050000     8.285199940     7.854699886    14.364670262   0   0   0 # obsk
    523      1   4 -0.950000     8.285199940     5.477679885    12.904426474   0   0   0 # ohk
    524      1   1  1.575000     6.778799951     7.092587879    18.794968539   0   0   0 # feok
    525      1   2  0.425000     6.778799951     8.697419805    16.347350157   0   0   0 # hoy
    526      1   3 -1.050000     6.778799951     5.564699924    15.375837012   0   0   0 # obsk
    527      1   4 -0.950000     6.778799951     7.767679847    16.836080799   0   0   0 # ohk
    528      1   1  1.575000     6.778799951     8.937411854    23.751668387   0   0   0 # feok
    529      1   3 -1.109400     6.778799951     5.885299886    30.245936556   0   0   0 # obsk
    530      1   1  1.575000     8.285199940     6.647411892    25.815638280   0   0   0 # feok
    531      1   2  0.425000     8.285199940     5.042579966    28.263256661   0   0   0 # hoy
    532      1   3 -1.050000     8.285199940     8.175299847    29.234769806   0   0   0 # obsk
    533      1   4 -0.950000     8.285199940     5.972319924    27.774526019   0   0   0 # ohk
    534      1   2  0.425000     8.285199940     6.407419843    23.306556813   0   0   0 # hoy
    535      1   3 -1.050000     8.285199940     7.854699886    24.278069958   0   0   0 # obsk
    536      1   4 -0.950000     8.285199940     5.477679885    22.817826171   0   0   0 # ohk
    537      1   1  1.575000     6.778799951     7.092587879    28.708368235   0   0   0 # feok
    538      1   2  0.425000     6.778799951     8.697419805    26.260749853   0   0   0 # hoy
    539      1   3 -1.050000     6.778799951     5.564699924    25.289236708   0   0   0 # obsk
    540      1   4 -0.950000     6.778799951     7.767679847    26.749480496   0   0   0 # ohk
    541      1   1  1.575000     9.791599929     8.937411854     3.924868994   0   0   0 # feok
    542      1   2  0.425000     9.791599929     7.332579928    11.390650309   0   0   0 # hoy
    543      1   3 -1.050000     9.791599929     5.885299886    10.419137164   0   0   0 # obsk
    544      1   4 -0.950000     9.791599929     8.262319886    11.879380951   0   0   0 # ohk
    545      1   1  1.575000    11.297999918     6.647411892     5.988838887   0   0   0 # feok
    546      1   2  0.425000    11.297999918     5.042579966     8.436457269   0   0   0 # hoy
    547      1   3 -1.050000    11.297999918     8.175299847     9.407970414   0   0   0 # obsk
    548      1   4 -0.950000    11.297999918     5.972319924     7.947726626   0   0   0 # ohk
    549      1   1  1.575000    11.297999918     4.802587917    10.945538735   0   0   0 # feok
    550      1   2  0.425000    11.297999918     6.407419843     3.479757421   0   0   0 # hoy
    551      1   3 -1.050000    11.297999918     7.854699886     4.451270565   0   0   0 # obsk
    552      1   4 -0.950000    11.297999918     5.477679885     2.991026778   0   0   0 # ohk
    553      1   1  1.575000     9.791599929     7.092587879     8.881568842   0   0   0 # feok
    554      1   2  0.425000     9.791599929     8.697419805     6.433950460   0   0   0 # hoy
    555      1   3 -1.050000     9.791599929     5.564699924     5.462437316   0   0   0 # obsk
    556      1   4 -0.950000     9.791599929     7.767679847     6.922681103   0   0   0 # ohk
    557      1   1  1.575000     9.791599929     8.937411854    13.838268690   0   0   0 # feok
    558      1   2  0.425000     9.791599929     7.332579928    21.304050005   0   0   0 # hoy
    559      1   3 -1.050000     9.791599929     5.885299886    20.332536860   0   0   0 # obsk
    560      1   4 -0.950000     9.791599929     8.262319886    21.792780648   0   0   0 # ohk
    561      1   1  1.575000    11.297999918     6.647411892    15.902238583   0   0   0 # feok
    562      1   2  0.425000    11.297999918     5.042579966    18.349856965   0   0   0 # hoy
    563      1   3 -1.050000    11.297999918     8.175299847    19.321370110   0   0   0 # obsk
    564      1   4 -0.950000    11.297999918     5.972319924    17.861126322   0   0   0 # ohk
    565      1   1  1.575000    11.297999918     4.802587917    20.858938431   0   0   0 # feok
    566      1   2  0.425000    11.297999918     6.407419843    13.393157117   0   0   0 # hoy
    567      1   3 -1.050000    11.297999918     7.854699886    14.364670262   0   0   0 # obsk
    568      1   4 -0.950000    11.297999918     5.477679885    12.904426474   0   0   0 # ohk
    569      1   1  1.575000     9.791599929     7.092587879    18.794968539   0   0   0 # feok
    570      1   2  0.425000     9.791599929     8.697419805    16.347350157   0   0   0 # hoy
    571      1   3 -1.050000     9.791599929     5.564699924    15.375837012   0   0   0 # obsk
    572      1   4 -0.950000     9.791599929     7.767679847    16.836080799   0   0   0 # ohk
    573      1   1  1.575000     9.791599929     8.937411854    23.751668387   0   0   0 # feok
    574      1   3 -1.109400     9.791599929     5.885299886    30.245936556   0   0   0 # obsk
    575      1   1  1.575000    11.297999918     6.647411892    25.815638280   0   0   0 # feok
    576      1   2  0.425000    11.297999918     5.042579966    28.263256661   0   0   0 # hoy
    577      1   3 -1.050000    11.297999918     8.175299847    29.234769806   0   0   0 # obsk
    578      1   4 -0.950000    11.297999918     5.972319924    27.774526019   0   0   0 # ohk
    579      1   2  0.425000    11.297999918     6.407419843    23.306556813   0   0   0 # hoy
    580      1   3 -1.050000    11.297999918     7.854699886    24.278069958   0   0   0 # obsk
    581      1   4 -0.950000    11.297999918     5.477679885    22.817826171   0   0   0 # ohk
    582      1   1  1.575000     9.791599929     7.092587879    28.708368235   0   0   0 # feok
    583      1   2  0.425000     9.791599929     8.697419805    26.260749853   0   0   0 # hoy
    584      1   3 -1.050000     9.791599929     5.564699924    25.289236708   0   0   0 # obsk
    585      1   4 -0.950000     9.791599929     7.767679847    26.749480496   0   0   0 # ohk
    586      1   1  1.575000    12.804399908     8.937411854     3.924868994   0   0   0 # feok
    587      1   2  0.425000    12.804399908     7.332579928    11.390650309   0   0   0 # hoy
    588      1   3 -1.050000    12.804399908     5.885299886    10.419137164   0   0   0 # obsk
    589      1   4 -0.950000    12.804399908     8.262319886    11.879380951   0   0   0 # ohk
    590      1   1  1.575000    14.310799897     6.647411892     5.988838887   0   0   0 # feok
    591      1   2  0.425000    14.310799897     5.042579966     8.436457269   0   0   0 # hoy
    592      1   3 -1.050000    14.310799897     8.175299847     9.407970414   0   0   0 # obsk
    593      1   4 -0.950000    14.310799897     5.972319924     7.947726626   0   0   0 # ohk
    594      1   1  1.575000    14.310799897     4.802587917    10.945538735   0   0   0 # feok
    595      1   2  0.425000    14.310799897     6.407419843     3.479757421   0   0   0 # hoy
    596      1   3 -1.050000    14.310799897     7.854699886     4.451270565   0   0   0 # obsk
    597      1   4 -0.950000    14.310799897     5.477679885     2.991026778   0   0   0 # ohk
    598      1   1  1.575000    12.804399908     7.092587879     8.881568842   0   0   0 # feok
    599      1   2  0.425000    12.804399908     8.697419805     6.433950460   0   0   0 # hoy
    600      1   3 -1.050000    12.804399908     5.564699924     5.462437316   0   0   0 # obsk
    601      1   4 -0.950000    12.804399908     7.767679847     6.922681103   0   0   0 # ohk
    602      1   1  1.575000    12.804399908     8.937411854    13.838268690   0   0   0 # feok
    603      1   2  0.425000    12.804399908     7.332579928    21.304050005   0   0   0 # hoy
    604      1   3 -1.050000    12.804399908     5.885299886    20.332536860   0   0   0 # obsk
    605      1   4 -0.950000    12.804399908     8.262319886    21.792780648   0   0   0 # ohk
    606      1   1  1.575000    14.310799897     6.647411892    15.902238583   0   0   0 # feok
    607      1   2  0.425000    14.310799897     5.042579966    18.349856965   0   0   0 # hoy
    608      1   3 -1.050000    14.310799897     8.175299847    19.321370110   0   0   0 # obsk
    609      1   4 -0.950000    14.310799897     5.972319924    17.861126322   0   0   0 # ohk
    610      1   1  1.575000    14.310799897     4.802587917    20.858938431   0   0   0 # feok
    611      1   2  0.425000    14.310799897     6.407419843    13.393157117   0   0   0 # hoy
    612      1   3 -1.050000    14.310799897     7.854699886    14.364670262   0   0   0 # obsk
    613      1   4 -0.950000    14.310799897     5.477679885    12.904426474   0   0   0 # ohk
    614      1   1  1.575000    12.804399908     7.092587879    18.794968539   0   0   0 # feok
    615      1   2  0.425000    12.804399908     8.697419805    16.347350157   0   0   0 # hoy
    616      1   3 -1.050000    12.804399908     5.564699924    15.375837012   0   0   0 # obsk
    617      1   4 -0.950000    12.804399908     7.767679847    16.836080799   0   0   0 # ohk
    618      1   1  1.575000    12.804399908     8.937411854    23.751668387   0   0   0 # feok
    619      1   3 -1.050000    12.804399908     5.885299886    30.245936556   0   0   0 # obsk
    620      1   1  1.575000    14.310799897     6.647411892    25.815638280   0   0   0 # feok
    621      1   2  0.425000    14.310799897     5.042579966    28.263256661   0   0   0 # hoy
    622      1   3 -1.109400    14.310799897     8.175299847    29.234769806   0   0   0 # obsk
    623      1   4 -0.950000    14.310799897     5.972319924    27.774526019   0   0   0 # ohk
    624      1   2  0.425000    14.310799897     6.407419843    23.306556813   0   0   0 # hoy
    625      1   3 -1.050000    14.310799897     7.854699886    24.278069958   0   0   0 # obsk
    626      1   4 -0.950000    14.310799897     5.477679885    22.817826171   0   0   0 # ohk
    627      1   1  1.575000    12.804399908     7.092587879    28.708368235   0   0   0 # feok
    628      1   2  0.425000    12.804399908     8.697419805    26.260749853   0   0   0 # hoy
    629      1   3 -1.050000    12.804399908     5.564699924    25.289236708   0   0   0 # obsk
    630      1   4 -0.950000    12.804399908     7.767679847    26.749480496   0   0   0 # ohk
    631      1   1  1.575000    15.817199886     8.937411854     3.924868994   0   0   0 # feok
    632      1   2  0.425000    15.817199886     7.332579928    11.390650309   0   0   0 # hoy
    633      1   3 -1.050000    15.817199886     5.885299886    10.419137164   0   0   0 # obsk
    634      1   4 -0.950000    15.817199886     8.262319886    11.879380951   0   0   0 # ohk
    635      1   1  1.575000    17.323599875     6.647411892     5.988838887   0   0   0 # feok
    636      1   2  0.425000    17.323599875     5.042579966     8.436457269   0   0   0 # hoy
    637      1   3 -1.050000    17.323599875     8.175299847     9.407970414   0   0   0 # obsk
    638      1   4 -0.950000    17.323599875     5.972319924     7.947726626   0   0   0 # ohk
    639      1   1  1.575000    17.323599875     4.802587917    10.945538735   0   0   0 # feok
    640      1   2  0.425000    17.323599875     6.407419843     3.479757421   0   0   0 # hoy
    641      1   3 -1.050000    17.323599875     7.854699886     4.451270565   0   0   0 # obsk
    642      1   4 -0.950000    17.323599875     5.477679885     2.991026778   0   0   0 # ohk
    643      1   1  1.575000    15.817199886     7.092587879     8.881568842   0   0   0 # feok
    644      1   2  0.425000    15.817199886     8.697419805     6.433950460   0   0   0 # hoy
    645      1   3 -1.050000    15.817199886     5.564699924     5.462437316   0   0   0 # obsk
    646      1   4 -0.950000    15.817199886     7.767679847     6.922681103   0   0   0 # ohk
    647      1   1  1.575000    15.817199886     8.937411854    13.838268690   0   0   0 # feok
    648      1   2  0.425000    15.817199886     7.332579928    21.304050005   0   0   0 # hoy
    649      1   3 -1.050000    15.817199886     5.885299886    20.332536860   0   0   0 # obsk
    650      1   4 -0.950000    15.817199886     8.262319886    21.792780648   0   0   0 # ohk
    651      1   1  1.575000    17.323599875     6.647411892    15.902238583   0   0   0 # feok
    652      1   2  0.425000    17.323599875     5.042579966    18.349856965   0   0   0 # hoy
    653      1   3 -1.050000    17.323599875     8.175299847    19.321370110   0   0   0 # obsk
    654      1   4 -0.950000    17.323599875     5.972319924    17.861126322   0   0   0 # ohk
    655      1   1  1.575000    17.323599875     4.802587917    20.858938431   0   0   0 # feok
    656      1   2  0.425000    17.323599875     6.407419843    13.393157117   0   0   0 # hoy
    657      1   3 -1.050000    17.323599875     7.854699886    14.364670262   0   0   0 # obsk
    658      1   4 -0.950000    17.323599875     5.477679885    12.904426474   0   0   0 # ohk
    659      1   1  1.575000    15.817199886     7.092587879    18.794968539   0   0   0 # feok
    660      1   2  0.425000    15.817199886     8.697419805    16.347350157   0   0   0 # hoy
    661      1   3 -1.050000    15.817199886     5.564699924    15.375837012   0   0   0 # obsk
    662      1   4 -0.950000    15.817199886     7.767679847    16.836080799   0   0   0 # ohk
    663      1   1  1.575000    15.817199886     8.937411854    23.751668387   0   0   0 # feok
    664      1   3 -1.050000    15.817199886     5.885299886    30.245936556   0   0   0 # obsk
    665      1   1  1.575000    17.323599875     6.647411892    25.815638280   0   0   0 # feok
    666      1   2  0.425000    17.323599875     5.042579966    28.263256661   0   0   0 # hoy
    667      1   3 -1.050000    17.323599875     8.175299847    29.234769806   0   0   0 # obsk
    668      1   4 -0.950000    17.323599875     5.972319924    27.774526019   0   0   0 # ohk
    669      1   2  0.425000    17.323599875     6.407419843    23.306556813   0   0   0 # hoy
    670      1   3 -1.050000    17.323599875     7.854699886    24.278069958   0   0   0 # obsk
    671      1   4 -0.950000    17.323599875     5.477679885    22.817826171   0   0   0 # ohk
    672      1   1  1.575000    15.817199886     7.092587879    28.708368235   0   0   0 # feok
    673      1   2  0.425000    15.817199886     8.697419805    26.260749853   0   0   0 # hoy
    674      1   3 -1.050000    15.817199886     5.564699924    25.289236708   0   0   0 # obsk
    675      1   4 -0.950000    15.817199886     7.767679847    26.749480496   0   0   0 # ohk
    676      1   1  1.575000    18.829999864     8.937411854     3.924868994   0   0   0 # feok
    677      1   2  0.425000    18.829999864     7.332579928    11.390650309   0   0   0 # hoy
    678      1   3 -1.050000    18.829999864     5.885299886    10.419137164   0   0   0 # obsk
    679      1   4 -0.950000    18.829999864     8.262319886    11.879380951   0   0   0 # ohk
    680      1   1  1.575000    20.336399853     6.647411892     5.988838887   0   0   0 # feok
    681      1   2  0.425000    20.336399853     5.042579966     8.436457269   0   0   0 # hoy
    682      1   3 -1.050000    20.336399853     8.175299847     9.407970414   0   0   0 # obsk
    683      1   4 -0.950000    20.336399853     5.972319924     7.947726626   0   0   0 # ohk
    684      1   1  1.575000    20.336399853     4.802587917    10.945538735   0   0   0 # feok
    685      1   2  0.425000    20.336399853     6.407419843     3.479757421   0   0   0 # hoy
    686      1   3 -1.050000    20.336399853     7.854699886     4.451270565   0   0   0 # obsk
    687      1   4 -0.950000    20.336399853     5.477679885     2.991026778   0   0   0 # ohk
    688      1   1  1.575000    18.829999864     7.092587879     8.881568842   0   0   0 # feok
    689      1   2  0.425000    18.829999864     8.697419805     6.433950460   0   0   0 # hoy
    690      1   3 -1.050000    18.829999864     5.564699924     5.462437316   0   0   0 # obsk
    691      1   4 -0.950000    18.829999864     7.767679847     6.922681103   0   0   0 # ohk
    692      1   1  1.575000    18.829999864     8.937411854    13.838268690   0   0   0 # feok
    693      1   2  0.425000    18.829999864     7.332579928    21.304050005   0   0   0 # hoy
    694      1   3 -1.050000    18.829999864     5.885299886    20.332536860   0   0   0 # obsk
    695      1   4 -0.950000    18.829999864     8.262319886    21.792780648   0   0   0 # ohk
    696      1   1  1.575000    20.336399853     6.647411892    15.902238583   0   0   0 # feok
    697      1   2  0.425000    20.336399853     5.042579966    18.349856965   0   0   0 # hoy
    698      1   3 -1.050000    20.336399853     8.175299847    19.321370110   0   0   0 # obsk
    699      1   4 -0.950000    20.336399853     5.972319924    17.861126322   0   0   0 # ohk
    700      1   1  1.575000    20.336399853     4.802587917    20.858938431   0   0   0 # feok
    701      1   2  0.425000    20.336399853     6.407419843    13.393157117   0   0   0 # hoy
    702      1   3 -1.050000    20.336399853     7.854699886    14.364670262   0   0   0 # obsk
    703      1   4 -0.950000    20.336399853     5.477679885    12.904426474   0   0   0 # ohk
    704      1   1  1.575000    18.829999864     7.092587879    18.794968539   0   0   0 # feok
    705      1   2  0.425000    18.829999864     8.697419805    16.347350157   0   0   0 # hoy
    706      1   3 -1.050000    18.829999864     5.564699924    15.375837012   0   0   0 # obsk
    707      1   4 -0.950000    18.829999864     7.767679847    16.836080799   0   0   0 # ohk
    708      1   1  1.575000    18.829999864     8.937411854    23.751668387   0   0   0 # feok
    709      1   3 -1.109400    18.829999864     5.885299886    30.245936556   0   0   0 # obsk
    710      1   1  1.575000    20.336399853     6.647411892    25.815638280   0   0   0 # feok
    711      1   2  0.425000    20.336399853     5.042579966    28.263256661   0   0   0 # hoy
    712      1   3 -1.050000    20.336399853     8.175299847    29.234769806   0   0   0 # obsk
    713      1   4 -0.950000    20.336399853     5.972319924    27.774526019   0   0   0 # ohk
    714      1   2  0.425000    20.336399853     6.407419843    23.306556813   0   0   0 # hoy
    715      1   3 -1.050000    20.336399853     7.854699886    24.278069958   0   0   0 # obsk
    716      1   4 -0.950000    20.336399853     5.477679885    22.817826171   0   0   0 # ohk
    717      1   1  1.575000    18.829999864     7.092587879    28.708368235   0   0   0 # feok
    718      1   2  0.425000    18.829999864     8.697419805    26.260749853   0   0   0 # hoy
    719      1   3 -1.050000    18.829999864     5.564699924    25.289236708   0   0   0 # obsk
    720      1   4 -0.950000    18.829999864     7.767679847    26.749480496   0   0   0 # ohk
    721      1   1  1.575000    21.842799842     8.937411854     3.924868994   0   0   0 # feok
    722      1   2  0.425000    21.842799842     7.332579928    11.390650309   0   0   0 # hoy
    723      1   3 -1.050000    21.842799842     5.885299886    10.419137164   0   0   0 # obsk
    724      1   4 -0.950000    21.842799842     8.262319886    11.879380951   0   0   0 # ohk
    725      1   1  1.575000    23.349199831     6.647411892     5.988838887   0   0   0 # feok
    726      1   2  0.425000    23.349199831     5.042579966     8.436457269   0   0   0 # hoy
    727      1   3 -1.050000    23.349199831     8.175299847     9.407970414   0   0   0 # obsk
    728      1   4 -0.950000    23.349199831     5.972319924     7.947726626   0   0   0 # ohk
    729      1   1  1.575000    23.349199831     4.802587917    10.945538735   0   0   0 # feok
    730      1   2  0.425000    23.349199831     6.407419843     3.479757421   0   0   0 # hoy
    731      1   3 -1.050000    23.349199831     7.854699886     4.451270565   0   0   0 # obsk
    732      1   4 -0.950000    23.349199831     5.477679885     2.991026778   0   0   0 # ohk
    733      1   1  1.575000    21.842799842     7.092587879     8.881568842   0   0   0 # feok
    734      1   2  0.425000    21.842799842     8.697419805     6.433950460   0   0   0 # hoy
    735      1   3 -1.050000    21.842799842     5.564699924     5.462437316   0   0   0 # obsk
    736      1   4 -0.950000    21.842799842     7.767679847     6.922681103   0   0   0 # ohk
    737      1   1  1.575000    21.842799842     8.937411854    13.838268690   0   0   0 # feok
    738      1   2  0.425000    21.842799842     7.332579928    21.304050005   0   0   0 # hoy
    739      1   3 -1.050000    21.842799842     5.885299886    20.332536860   0   0   0 # obsk
    740      1   4 -0.950000    21.842799842     8.262319886    21.792780648   0   0   0 # ohk
    741      1   1  1.575000    23.349199831     6.647411892    15.902238583   0   0   0 # feok
    742      1   2  0.425000    23.349199831     5.042579966    18.349856965   0   0   0 # hoy
    743      1   3 -1.050000    23.349199831     8.175299847    19.321370110   0   0   0 # obsk
    744      1   4 -0.950000    23.349199831     5.972319924    17.861126322   0   0   0 # ohk
    745      1   1  1.575000    23.349199831     4.802587917    20.858938431   0   0   0 # feok
    746      1   2  0.425000    23.349199831     6.407419843    13.393157117   0   0   0 # hoy
    747      1   3 -1.050000    23.349199831     7.854699886    14.364670262   0   0   0 # obsk
    748      1   4 -0.950000    23.349199831     5.477679885    12.904426474   0   0   0 # ohk
    749      1   1  1.575000    21.842799842     7.092587879    18.794968539   0   0   0 # feok
    750      1   2  0.425000    21.842799842     8.697419805    16.347350157   0   0   0 # hoy
    751      1   3 -1.050000    21.842799842     5.564699924    15.375837012   0   0   0 # obsk
    752      1   4 -0.950000    21.842799842     7.767679847    16.836080799   0   0   0 # ohk
    753      1   1  1.575000    21.842799842     8.937411854    23.751668387   0   0   0 # feok
    754      1   3 -1.109400    21.842799842     5.885299886    30.245936556   0   0   0 # obsk
    755      1   1  1.575000    23.349199831     6.647411892    25.815638280   0   0   0 # feok
    756      1   2  0.425000    23.349199831     5.042579966    28.263256661   0   0   0 # hoy
    757      1   3 -1.109400    23.349199831     8.175299847    29.234769806   0   0   0 # obsk
    758      1   4 -0.950000    23.349199831     5.972319924    27.774526019   0   0   0 # ohk
    759      1   2  0.425000    23.349199831     6.407419843    23.306556813   0   0   0 # hoy
    760      1   3 -1.050000    23.349199831     7.854699886    24.278069958   0   0   0 # obsk
    761      1   4 -0.950000    23.349199831     5.477679885    22.817826171   0   0   0 # ohk
    762      1   1  1.575000    21.842799842     7.092587879    28.708368235   0   0   0 # feok
    763      1   2  0.425000    21.842799842     8.697419805    26.260749853   0   0   0 # hoy
    764      1   3 -1.050000    21.842799842     5.564699924    25.289236708   0   0   0 # obsk
    765      1   4 -0.950000    21.842799842     7.767679847    26.749480496   0   0   0 # ohk
    766      1   1  1.575000    24.855599821     8.937411854     3.924868994   0   0   0 # feok
    767      1   2  0.425000    24.855599821     7.332579928    11.390650309   0   0   0 # hoy
    768      1   3 -1.050000    24.855599821     5.885299886    10.419137164   0   0   0 # obsk
    769      1   4 -0.950000    24.855599821     8.262319886    11.879380951   0   0   0 # ohk
    770      1   1  1.575000    26.361999810     6.647411892     5.988838887   0   0   0 # feok
    771      1   2  0.425000    26.361999810     5.042579966     8.436457269   0   0   0 # hoy
    772      1   3 -1.050000    26.361999810     8.175299847     9.407970414   0   0   0 # obsk
    773      1   4 -0.950000    26.361999810     5.972319924     7.947726626   0   0   0 # ohk
    774      1   1  1.575000    26.361999810     4.802587917    10.945538735   0   0   0 # feok
    775      1   2  0.425000    26.361999810     6.407419843     3.479757421   0   0   0 # hoy
    776      1   3 -1.050000    26.361999810     7.854699886     4.451270565   0   0   0 # obsk
    777      1   4 -0.950000    26.361999810     5.477679885     2.991026778   0   0   0 # ohk
    778      1   1  1.575000    24.855599821     7.092587879     8.881568842   0   0   0 # feok
    779      1   2  0.425000    24.855599821     8.697419805     6.433950460   0   0   0 # hoy
    780      1   3 -1.050000    24.855599821     5.564699924     5.462437316   0   0   0 # obsk
    781      1   4 -0.950000    24.855599821     7.767679847     6.922681103   0   0   0 # ohk
    782      1   1  1.575000    24.855599821     8.937411854    13.838268690   0   0   0 # feok
    783      1   2  0.425000    24.855599821     7.332579928    21.304050005   0   0   0 # hoy
    784      1   3 -1.050000    24.855599821     5.885299886    20.332536860   0   0   0 # obsk
    785      1   4 -0.950000    24.855599821     8.262319886    21.792780648   0   0   0 # ohk
    786      1   1  1.575000    26.361999810     6.647411892    15.902238583   0   0   0 # feok
    787      1   2  0.425000    26.361999810     5.042579966    18.349856965   0   0   0 # hoy
    788      1   3 -1.050000    26.361999810     8.175299847    19.321370110   0   0   0 # obsk
    789      1   4 -0.950000    26.361999810     5.972319924    17.861126322   0   0   0 # ohk
    790      1   1  1.575000    26.361999810     4.802587917    20.858938431   0   0   0 # feok
    791      1   2  0.425000    26.361999810     6.407419843    13.393157117   0   0   0 # hoy
    792      1   3 -1.050000    26.361999810     7.854699886    14.364670262   0   0   0 # obsk
    793      1   4 -0.950000    26.361999810     5.477679885    12.904426474   0   0   0 # ohk
    794      1   1  1.575000    24.855599821     7.092587879    18.794968539   0   0   0 # feok
    795      1   2  0.425000    24.855599821     8.697419805    16.347350157   0   0   0 # hoy
    796      1   3 -1.050000    24.855599821     5.564699924    15.375837012   0   0   0 # obsk
    797      1   4 -0.950000    24.855599821     7.767679847    16.836080799   0   0   0 # ohk
    798      1   1  1.575000    24.855599821     8.937411854    23.751668387   0   0   0 # feok
    799      1   3 -1.050000    24.855599821     5.885299886    30.245936556   0   0   0 # obsk
    800      1   1  1.575000    26.361999810     6.647411892    25.815638280   0   0   0 # feok
    801      1   2  0.425000    26.361999810     5.042579966    28.263256661   0   0   0 # hoy
    802      1   3 -1.050000    26.361999810     8.175299847    29.234769806   0   0   0 # obsk
    803      1   4 -0.950000    26.361999810     5.972319924    27.774526019   0   0   0 # ohk
    804      1   2  0.425000    26.361999810     6.407419843    23.306556813   0   0   0 # hoy
    805      1   3 -1.050000    26.361999810     7.854699886    24.278069958   0   0   0 # obsk
    806      1   4 -0.950000    26.361999810     5.477679885    22.817826171   0   0   0 # ohk
    807      1   1  1.575000    24.855599821     7.092587879    28.708368235   0   0   0 # feok
    808      1   2  0.425000    24.855599821     8.697419805    26.260749853   0   0   0 # hoy
    809      1   3 -1.050000    24.855599821     5.564699924    25.289236708   0   0   0 # obsk
    810      1   4 -0.950000    24.855599821     7.767679847    26.749480496   0   0   0 # ohk
    811      1   1  1.575000     0.753199995    13.517411778     3.924868994   0   0   0 # feok
    812      1   2  0.425000     0.753199995    11.912579852    11.390650309   0   0   0 # hoy
    813      1   3 -1.050000     0.753199995    10.465299809    10.419137164   0   0   0 # obsk
    814      1   4 -0.950000     0.753199995    12.842319810    11.879380951   0   0   0 # ohk
    815      1   1  1.575000     2.259599984    11.227411816     5.988838887   0   0   0 # feok
    816      1   2  0.425000     2.259599984     9.622579890     8.436457269   0   0   0 # hoy
    817      1   3 -1.050000     2.259599984    12.755299771     9.407970414   0   0   0 # obsk
    818      1   4 -0.950000     2.259599984    10.552319848     7.947726626   0   0   0 # ohk
    819      1   1  1.575000     2.259599984     9.382587841    10.945538735   0   0   0 # feok
    820      1   2  0.425000     2.259599984    10.987419767     3.479757421   0   0   0 # hoy
    821      1   3 -1.050000     2.259599984    12.434699809     4.451270565   0   0   0 # obsk
    822      1   4 -0.950000     2.259599984    10.057679809     2.991026778   0   0   0 # ohk
    823      1   1  1.575000     0.753199995    11.672587803     8.881568842   0   0   0 # feok
    824      1   2  0.425000     0.753199995    13.277419729     6.433950460   0   0   0 # hoy
    825      1   3 -1.050000     0.753199995    10.144699847     5.462437316   0   0   0 # obsk
    826      1   4 -0.950000     0.753199995    12.347679771     6.922681103   0   0   0 # ohk
    827      1   1  1.575000     0.753199995    13.517411778    13.838268690   0   0   0 # feok
    828      1   2  0.425000     0.753199995    11.912579852    21.304050005   0   0   0 # hoy
    829      1   3 -1.050000     0.753199995    10.465299809    20.332536860   0   0   0 # obsk
    830      1   4 -0.950000     0.753199995    12.842319810    21.792780648   0   0   0 # ohk
    831      1   1  1.575000     2.259599984    11.227411816    15.902238583   0   0   0 # feok
    832      1   2  0.425000     2.259599984     9.622579890    18.349856965   0   0   0 # hoy
    833      1   3 -1.050000     2.259599984    12.755299771    19.321370110   0   0   0 # obsk
    834      1   4 -0.950000     2.259599984    10.552319848    17.861126322   0   0   0 # ohk
    835      1   1  1.575000     2.259599984     9.382587841    20.858938431   0   0   0 # feok
    836      1   2  0.425000     2.259599984    10.987419767    13.393157117   0   0   0 # hoy
    837      1   3 -1.050000     2.259599984    12.434699809    14.364670262   0   0   0 # obsk
    838      1   4 -0.950000     2.259599984    10.057679809    12.904426474   0   0   0 # ohk
    839      1   1  1.575000     0.753199995    11.672587803    18.794968539   0   0   0 # feok
    840      1   2  0.425000     0.753199995    13.277419729    16.347350157   0   0   0 # hoy
    841      1   3 -1.050000     0.753199995    10.144699847    15.375837012   0   0   0 # obsk
    842      1   4 -0.950000     0.753199995    12.347679771    16.836080799   0   0   0 # ohk
    843      1   1  1.575000     0.753199995    13.517411778    23.751668387   0   0   0 # feok
    844      1   3 -1.109400     0.753199995    10.465299809    30.245936556   0   0   0 # obsk
    845      1   1  1.575000     2.259599984    11.227411816    25.815638280   0   0   0 # feok
    846      1   2  0.425000     2.259599984     9.622579890    28.263256661   0   0   0 # hoy
    847      1   3 -1.050000     2.259599984    12.755299771    29.234769806   0   0   0 # obsk
    848      1   4 -0.950000     2.259599984    10.552319848    27.774526019   0   0   0 # ohk
    849      1   2  0.425000     2.259599984    10.987419767    23.306556813   0   0   0 # hoy
    850      1   3 -1.050000     2.259599984    12.434699809    24.278069958   0   0   0 # obsk
    851      1   4 -0.950000     2.259599984    10.057679809    22.817826171   0   0   0 # ohk
    852      1   1  1.575000     0.753199995    11.672587803    28.708368235   0   0   0 # feok
    853      1   2  0.425000     0.753199995    13.277419729    26.260749853   0   0   0 # hoy
    854      1   3 -1.050000     0.753199995    10.144699847    25.289236708   0   0   0 # obsk
    855      1   4 -0.950000     0.753199995    12.347679771    26.749480496   0   0   0 # ohk
    856      1   1  1.575000     3.765999973    13.517411778     3.924868994   0   0   0 # feok
    857      1   2  0.425000     3.765999973    11.912579852    11.390650309   0   0   0 # hoy
    858      1   3 -1.050000     3.765999973    10.465299809    10.419137164   0   0   0 # obsk
    859      1   4 -0.950000     3.765999973    12.842319810    11.879380951   0   0   0 # ohk
    860      1   1  1.575000     5.272399962    11.227411816     5.988838887   0   0   0 # feok
    861      1   2  0.425000     5.272399962     9.622579890     8.436457269   0   0   0 # hoy
    862      1   3 -1.050000     5.272399962    12.755299771     9.407970414   0   0   0 # obsk
    863      1   4 -0.950000     5.272399962    10.552319848     7.947726626   0   0   0 # ohk
    864      1   1  1.575000     5.272399962     9.382587841    10.945538735   0   0   0 # feok
    865      1   2  0.425000     5.272399962    10.987419767     3.479757421   0   0   0 # hoy
    866      1   3 -1.050000     5.272399962    12.434699809     4.451270565   0   0   0 # obsk
    867      1   4 -0.950000     5.272399962    10.057679809     2.991026778   0   0   0 # ohk
    868      1   1  1.575000     3.765999973    11.672587803     8.881568842   0   0   0 # feok
    869      1   2  0.425000     3.765999973    13.277419729     6.433950460   0   0   0 # hoy
    870      1   3 -1.050000     3.765999973    10.144699847     5.462437316   0   0   0 # obsk
    871      1   4 -0.950000     3.765999973    12.347679771     6.922681103   0   0   0 # ohk
    872      1   1  1.575000     3.765999973    13.517411778    13.838268690   0   0   0 # feok
    873      1   2  0.425000     3.765999973    11.912579852    21.304050005   0   0   0 # hoy
    874      1   3 -1.050000     3.765999973    10.465299809    20.332536860   0   0   0 # obsk
    875      1   4 -0.950000     3.765999973    12.842319810    21.792780648   0   0   0 # ohk
    876      1   1  1.575000     5.272399962    11.227411816    15.902238583   0   0   0 # feok
    877      1   2  0.425000     5.272399962     9.622579890    18.349856965   0   0   0 # hoy
    878      1   3 -1.050000     5.272399962    12.755299771    19.321370110   0   0   0 # obsk
    879      1   4 -0.950000     5.272399962    10.552319848    17.861126322   0   0   0 # ohk
    880      1   1  1.575000     5.272399962     9.382587841    20.858938431   0   0   0 # feok
    881      1   2  0.425000     5.272399962    10.987419767    13.393157117   0   0   0 # hoy
    882      1   3 -1.050000     5.272399962    12.434699809    14.364670262   0   0   0 # obsk
    883      1   4 -0.950000     5.272399962    10.057679809    12.904426474   0   0   0 # ohk
    884      1   1  1.575000     3.765999973    11.672587803    18.794968539   0   0   0 # feok
    885      1   2  0.425000     3.765999973    13.277419729    16.347350157   0   0   0 # hoy
    886      1   3 -1.050000     3.765999973    10.144699847    15.375837012   0   0   0 # obsk
    887      1   4 -0.950000     3.765999973    12.347679771    16.836080799   0   0   0 # ohk
    888      1   1  1.575000     3.765999973    13.517411778    23.751668387   0   0   0 # feok
    889      1   3 -1.109400     3.765999973    10.465299809    30.245936556   0   0   0 # obsk
    890      1   1  1.575000     5.272399962    11.227411816    25.815638280   0   0   0 # feok
    891      1   2  0.425000     5.272399962     9.622579890    28.263256661   0   0   0 # hoy
    892      1   3 -1.050000     5.272399962    12.755299771    29.234769806   0   0   0 # obsk
    893      1   4 -0.950000     5.272399962    10.552319848    27.774526019   0   0   0 # ohk
    894      1   2  0.425000     5.272399962    10.987419767    23.306556813   0   0   0 # hoy
    895      1   3 -1.050000     5.272399962    12.434699809    24.278069958   0   0   0 # obsk
    896      1   4 -0.950000     5.272399962    10.057679809    22.817826171   0   0   0 # ohk
    897      1   1  1.575000     3.765999973    11.672587803    28.708368235   0   0   0 # feok
    898      1   2  0.425000     3.765999973    13.277419729    26.260749853   0   0   0 # hoy
    899      1   3 -1.050000     3.765999973    10.144699847    25.289236708   0   0   0 # obsk
    900      1   4 -0.950000     3.765999973    12.347679771    26.749480496   0   0   0 # ohk
    901      1   1  1.575000     6.778799951    13.517411778     3.924868994   0   0   0 # feok
    902      1   2  0.425000     6.778799951    11.912579852    11.390650309   0   0   0 # hoy
    903      1   3 -1.050000     6.778799951    10.465299809    10.419137164   0   0   0 # obsk
    904      1   4 -0.950000     6.778799951    12.842319810    11.879380951   0   0   0 # ohk
    905      1   1  1.575000     8.285199940    11.227411816     5.988838887   0   0   0 # feok
    906      1   2  0.425000     8.285199940     9.622579890     8.436457269   0   0   0 # hoy
    907      1   3 -1.050000     8.285199940    12.755299771     9.407970414   0   0   0 # obsk
    908      1   4 -0.950000     8.285199940    10.552319848     7.947726626   0   0   0 # ohk
    909      1   1  1.575000     8.285199940     9.382587841    10.945538735   0   0   0 # feok
    910      1   2  0.425000     8.285199940    10.987419767     3.479757421   0   0   0 # hoy
    911      1   3 -1.050000     8.285199940    12.434699809     4.451270565   0   0   0 # obsk
    912      1   4 -0.950000     8.285199940    10.057679809     2.991026778   0   0   0 # ohk
    913      1   1  1.575000     6.778799951    11.672587803     8.881568842   0   0   0 # feok
    914      1   2  0.425000     6.778799951    13.277419729     6.433950460   0   0   0 # hoy
    915      1   3 -1.050000     6.778799951    10.144699847     5.462437316   0   0   0 # obsk
    916      1   4 -0.950000     6.778799951    12.347679771     6.922681103   0   0   0 # ohk
    917      1   1  1.575000     6.778799951    13.517411778    13.838268690   0   0   0 # feok
    918      1   2  0.425000     6.778799951    11.912579852    21.304050005   0   0   0 # hoy
    919      1   3 -1.050000     6.778799951    10.465299809    20.332536860   0   0   0 # obsk
    920      1   4 -0.950000     6.778799951    12.842319810    21.792780648   0   0   0 # ohk
    921      1   1  1.575000     8.285199940    11.227411816    15.902238583   0   0   0 # feok
    922      1   2  0.425000     8.285199940     9.622579890    18.349856965   0   0   0 # hoy
    923      1   3 -1.050000     8.285199940    12.755299771    19.321370110   0   0   0 # obsk
    924      1   4 -0.950000     8.285199940    10.552319848    17.861126322   0   0   0 # ohk
    925      1   1  1.575000     8.285199940     9.382587841    20.858938431   0   0   0 # feok
    926      1   2  0.425000     8.285199940    10.987419767    13.393157117   0   0   0 # hoy
    927      1   3 -1.050000     8.285199940    12.434699809    14.364670262   0   0   0 # obsk
    928      1   4 -0.950000     8.285199940    10.057679809    12.904426474   0   0   0 # ohk
    929      1   1  1.575000     6.778799951    11.672587803    18.794968539   0   0   0 # feok
    930      1   2  0.425000     6.778799951    13.277419729    16.347350157   0   0   0 # hoy
    931      1   3 -1.050000     6.778799951    10.144699847    15.375837012   0   0   0 # obsk
    932      1   4 -0.950000     6.778799951    12.347679771    16.836080799   0   0   0 # ohk
    933      1   1  1.575000     6.778799951    13.517411778    23.751668387   0   0   0 # feok
    934      1   3 -1.050000     6.778799951    10.465299809    30.245936556   0   0   0 # obsk
    935      1   1  1.575000     8.285199940    11.227411816    25.815638280   0   0   0 # feok
    936      1   2  0.425000     8.285199940     9.622579890    28.263256661   0   0   0 # hoy
    937      1   3 -1.109400     8.285199940    12.755299771    29.234769806   0   0   0 # obsk
    938      1   4 -0.950000     8.285199940    10.552319848    27.774526019   0   0   0 # ohk
    939      1   2  0.425000     8.285199940    10.987419767    23.306556813   0   0   0 # hoy
    940      1   3 -1.050000     8.285199940    12.434699809    24.278069958   0   0   0 # obsk
    941      1   4 -0.950000     8.285199940    10.057679809    22.817826171   0   0   0 # ohk
    942      1   1  1.575000     6.778799951    11.672587803    28.708368235   0   0   0 # feok
    943      1   2  0.425000     6.778799951    13.277419729    26.260749853   0   0   0 # hoy
    944      1   3 -1.050000     6.778799951    10.144699847    25.289236708   0   0   0 # obsk
    945      1   4 -0.950000     6.778799951    12.347679771    26.749480496   0   0   0 # ohk
    946      1   1  1.575000     9.791599929    13.517411778     3.924868994   0   0   0 # feok
    947      1   2  0.425000     9.791599929    11.912579852    11.390650309   0   0   0 # hoy
    948      1   3 -1.050000     9.791599929    10.465299809    10.419137164   0   0   0 # obsk
    949      1   4 -0.950000     9.791599929    12.842319810    11.879380951   0   0   0 # ohk
    950      1   1  1.575000    11.297999918    11.227411816     5.988838887   0   0   0 # feok
    951      1   2  0.425000    11.297999918     9.622579890     8.436457269   0   0   0 # hoy
    952      1   3 -1.050000    11.297999918    12.755299771     9.407970414   0   0   0 # obsk
    953      1   4 -0.950000    11.297999918    10.552319848     7.947726626   0   0   0 # ohk
    954      1   1  1.575000    11.297999918     9.382587841    10.945538735   0   0   0 # feok
    955      1   2  0.425000    11.297999918    10.987419767     3.479757421   0   0   0 # hoy
    956      1   3 -1.050000    11.297999918    12.434699809     4.451270565   0   0   0 # obsk
    957      1   4 -0.950000    11.297999918    10.057679809     2.991026778   0   0   0 # ohk
    958      1   1  1.575000     9.791599929    11.672587803     8.881568842   0   0   0 # feok
    959      1   2  0.425000     9.791599929    13.277419729     6.433950460   0   0   0 # hoy
    960      1   3 -1.050000     9.791599929    10.144699847     5.462437316   0   0   0 # obsk
    961      1   4 -0.950000     9.791599929    12.347679771     6.922681103   0   0   0 # ohk
    962      1   1  1.575000     9.791599929    13.517411778    13.838268690   0   0   0 # feok
    963      1   2  0.425000     9.791599929    11.912579852    21.304050005   0   0   0 # hoy
    964      1   3 -1.050000     9.791599929    10.465299809    20.332536860   0   0   0 # obsk
    965      1   4 -0.950000     9.791599929    12.842319810    21.792780648   0   0   0 # ohk
    966      1   1  1.575000    11.297999918    11.227411816    15.902238583   0   0   0 # feok
    967      1   2  0.425000    11.297999918     9.622579890    18.349856965   0   0   0 # hoy
    968      1   3 -1.050000    11.297999918    12.755299771    19.321370110   0   0   0 # obsk
    969      1   4 -0.950000    11.297999918    10.552319848    17.861126322   0   0   0 # ohk
    970      1   1  1.575000    11.297999918     9.382587841    20.858938431   0   0   0 # feok
    971      1   2  0.425000    11.297999918    10.987419767    13.393157117   0   0   0 # hoy
    972      1   3 -1.050000    11.297999918    12.434699809    14.364670262   0   0   0 # obsk
    973      1   4 -0.950000    11.297999918    10.057679809    12.904426474   0   0   0 # ohk
    974      1   1  1.575000     9.791599929    11.672587803    18.794968539   0   0   0 # feok
    975      1   2  0.425000     9.791599929    13.277419729    16.347350157   0   0   0 # hoy
    976      1   3 -1.050000     9.791599929    10.144699847    15.375837012   0   0   0 # obsk
    977      1   4 -0.950000     9.791599929    12.347679771    16.836080799   0   0   0 # ohk
    978      1   1  1.575000     9.791599929    13.517411778    23.751668387   0   0   0 # feok
    979      1   3 -1.050000     9.791599929    10.465299809    30.245936556   0   0   0 # obsk
    980      1   1  1.575000    11.297999918    11.227411816    25.815638280   0   0   0 # feok
    981      1   2  0.425000    11.297999918     9.622579890    28.263256661   0   0   0 # hoy
    982      1   3 -1.050000    11.297999918    12.755299771    29.234769806   0   0   0 # obsk
    983      1   4 -0.950000    11.297999918    10.552319848    27.774526019   0   0   0 # ohk
    984      1   2  0.425000    11.297999918    10.987419767    23.306556813   0   0   0 # hoy
    985      1   3 -1.050000    11.297999918    12.434699809    24.278069958   0   0   0 # obsk
    986      1   4 -0.950000    11.297999918    10.057679809    22.817826171   0   0   0 # ohk
    987      1   1  1.575000     9.791599929    11.672587803    28.708368235   0   0   0 # feok
    988      1   2  0.425000     9.791599929    13.277419729    26.260749853   0   0   0 # hoy
    989      1   3 -1.050000     9.791599929    10.144699847    25.289236708   0   0   0 # obsk
    990      1   4 -0.950000     9.791599929    12.347679771    26.749480496   0   0   0 # ohk
    991      1   1  1.575000    12.804399908    13.517411778     3.924868994   0   0   0 # feok
    992      1   2  0.425000    12.804399908    11.912579852    11.390650309   0   0   0 # hoy
    993      1   3 -1.050000    12.804399908    10.465299809    10.419137164   0   0   0 # obsk
    994      1   4 -0.950000    12.804399908    12.842319810    11.879380951   0   0   0 # ohk
    995      1   1  1.575000    14.310799897    11.227411816     5.988838887   0   0   0 # feok
    996      1   2  0.425000    14.310799897     9.622579890     8.436457269   0   0   0 # hoy
    997      1   3 -1.050000    14.310799897    12.755299771     9.407970414   0   0   0 # obsk
    998      1   4 -0.950000    14.310799897    10.552319848     7.947726626   0   0   0 # ohk
    999      1   1  1.575000    14.310799897     9.382587841    10.945538735   0   0   0 # feok
   1000      1   2  0.425000    14.310799897    10.987419767     3.479757421   0   0   0 # hoy
   1001      1   3 -1.050000    14.310799897    12.434699809     4.451270565   0   0   0 # obsk
   1002      1   4 -0.950000    14.310799897    10.057679809     2.991026778   0   0   0 # ohk
   1003      1   1  1.575000    12.804399908    11.672587803     8.881568842   0   0   0 # feok
   1004      1   2  0.425000    12.804399908    13.277419729     6.433950460   0   0   0 # hoy
   1005      1   3 -1.050000    12.804399908    10.144699847     5.462437316   0   0   0 # obsk
   1006      1   4 -0.950000    12.804399908    12.347679771     6.922681103   0   0   0 # ohk
   1007      1   1  1.575000    12.804399908    13.517411778    13.838268690   0   0   0 # feok
   1008      1   2  0.425000    12.804399908    11.912579852    21.304050005   0   0   0 # hoy
   1009      1   3 -1.050000    12.804399908    10.465299809    20.332536860   0   0   0 # obsk
   1010      1   4 -0.950000    12.804399908    12.842319810    21.792780648   0   0   0 # ohk
   1011      1   1  1.575000    14.310799897    11.227411816    15.902238583   0   0   0 # feok
   1012      1   2  0.425000    14.310799897     9.622579890    18.349856965   0   0   0 # hoy
   1013      1   3 -1.050000    14.310799897    12.755299771    19.321370110   0   0   0 # obsk
   1014      1   4 -0.950000    14.310799897    10.552319848    17.861126322   0   0   0 # ohk
   1015      1   1  1.575000    14.310799897     9.382587841    20.858938431   0   0   0 # feok
   1016      1   2  0.425000    14.310799897    10.987419767    13.393157117   0   0   0 # hoy
   1017      1   3 -1.050000    14.310799897    12.434699809    14.364670262   0   0   0 # obsk
   1018      1   4 -0.950000    14.310799897    10.057679809    12.904426474   0   0   0 # ohk
   1019      1   1  1.575000    12.804399908    11.672587803    18.794968539   0   0   0 # feok
   1020      1   2  0.425000    12.804399908    13.277419729    16.347350157   0   0   0 # hoy
   1021      1   3 -1.050000    12.804399908    10.144699847    15.375837012   0   0   0 # obsk
   1022      1   4 -0.950000    12.804399908    12.347679771    16.836080799   0   0   0 # ohk
   1023      1   1  1.575000    12.804399908    13.517411778    23.751668387   0   0   0 # feok
   1024      1   3 -1.109400    12.804399908    10.465299809    30.245936556   0   0   0 # obsk
   1025      1   1  1.575000    14.310799897    11.227411816    25.815638280   0   0   0 # feok
   1026      1   2  0.425000    14.310799897     9.622579890    28.263256661   0   0   0 # hoy
   1027      1   3 -1.050000    14.310799897    12.755299771    29.234769806   0   0   0 # obsk
   1028      1   4 -0.950000    14.310799897    10.552319848    27.774526019   0   0   0 # ohk
   1029      1   2  0.425000    14.310799897    10.987419767    23.306556813   0   0   0 # hoy
   1030      1   3 -1.050000    14.310799897    12.434699809    24.278069958   0   0   0 # obsk
   1031      1   4 -0.950000    14.310799897    10.057679809    22.817826171   0   0   0 # ohk
   1032      1   1  1.575000    12.804399908    11.672587803    28.708368235   0   0   0 # feok
   1033      1   2  0.425000    12.804399908    13.277419729    26.260749853   0   0   0 # hoy
   1034      1   3 -1.050000    12.804399908    10.144699847    25.289236708   0   0   0 # obsk
   1035      1   4 -0.950000    12.804399908    12.347679771    26.749480496   0   0   0 # ohk
   1036      1   1  1.575000    15.817199886    13.517411778     3.924868994   0   0   0 # feok
   1037      1   2  0.425000    15.817199886    11.912579852    11.390650309   0   0   0 # hoy
   1038      1   3 -1.050000    15.817199886    10.465299809    10.419137164   0   0   0 # obsk
   1039      1   4 -0.950000    15.817199886    12.842319810    11.879380951   0   0   0 # ohk
   1040      1   1  1.575000    17.323599875    11.227411816     5.988838887   0   0   0 # feok
   1041      1   2  0.425000    17.323599875     9.622579890     8.436457269   0   0   0 # hoy
   1042      1   3 -1.050000    17.323599875    12.755299771     9.407970414   0   0   0 # obsk
   1043      1   4 -0.950000    17.323599875    10.552319848     7.947726626   0   0   0 # ohk
   1044      1   1  1.575000    17.323599875     9.382587841    10.945538735   0   0   0 # feok
   1045      1   2  0.425000    17.323599875    10.987419767     3.479757421   0   0   0 # hoy
   1046      1   3 -1.050000    17.323599875    12.434699809     4.451270565   0   0   0 # obsk
   1047      1   4 -0.950000    17.323599875    10.057679809     2.991026778   0   0   0 # ohk
   1048      1   1  1.575000    15.817199886    11.672587803     8.881568842   0   0   0 # feok
   1049      1   2  0.425000    15.817199886    13.277419729     6.433950460   0   0   0 # hoy
   1050      1   3 -1.050000    15.817199886    10.144699847     5.462437316   0   0   0 # obsk
   1051      1   4 -0.950000    15.817199886    12.347679771     6.922681103   0   0   0 # ohk
   1052      1   1  1.575000    15.817199886    13.517411778    13.838268690   0   0   0 # feok
   1053      1   2  0.425000    15.817199886    11.912579852    21.304050005   0   0   0 # hoy
   1054      1   3 -1.050000    15.817199886    10.465299809    20.332536860   0   0   0 # obsk
   1055      1   4 -0.950000    15.817199886    12.842319810    21.792780648   0   0   0 # ohk
   1056      1   1  1.575000    17.323599875    11.227411816    15.902238583   0   0   0 # feok
   1057      1   2  0.425000    17.323599875     9.622579890    18.349856965   0   0   0 # hoy
   1058      1   3 -1.050000    17.323599875    12.755299771    19.321370110   0   0   0 # obsk
   1059      1   4 -0.950000    17.323599875    10.552319848    17.861126322   0   0   0 # ohk
   1060      1   1  1.575000    17.323599875     9.382587841    20.858938431   0   0   0 # feok
   1061      1   2  0.425000    17.323599875    10.987419767    13.393157117   0   0   0 # hoy
   1062      1   3 -1.050000    17.323599875    12.434699809    14.364670262   0   0   0 # obsk
   1063      1   4 -0.950000    17.323599875    10.057679809    12.904426474   0   0   0 # ohk
   1064      1   1  1.575000    15.817199886    11.672587803    18.794968539   0   0   0 # feok
   1065      1   2  0.425000    15.817199886    13.277419729    16.347350157   0   0   0 # hoy
   1066      1   3 -1.050000    15.817199886    10.144699847    15.375837012   0   0   0 # obsk
   1067      1   4 -0.950000    15.817199886    12.347679771    16.836080799   0   0   0 # ohk
   1068      1   1  1.575000    15.817199886    13.517411778    23.751668387   0   0   0 # feok
   1069      1   3 -1.109400    15.817199886    10.465299809    30.245936556   0   0   0 # obsk
   1070      1   1  1.575000    17.323599875    11.227411816    25.815638280   0   0   0 # feok
   1071      1   2  0.425000    17.323599875     9.622579890    28.263256661   0   0   0 # hoy
   1072      1   3 -1.050000    17.323599875    12.755299771    29.234769806   0   0   0 # obsk
   1073      1   4 -0.950000    17.323599875    10.552319848    27.774526019   0   0   0 # ohk
   1074      1   2  0.425000    17.323599875    10.987419767    23.306556813   0   0   0 # hoy
   1075      1   3 -1.050000    17.323599875    12.434699809    24.278069958   0   0   0 # obsk
   1076      1   4 -0.950000    17.323599875    10.057679809    22.817826171   0   0   0 # ohk
   1077      1   1  1.575000    15.817199886    11.672587803    28.708368235   0   0   0 # feok
   1078      1   2  0.425000    15.817199886    13.277419729    26.260749853   0   0   0 # hoy
   1079      1   3 -1.050000    15.817199886    10.144699847    25.289236708   0   0   0 # obsk
   1080      1   4 -0.950000    15.817199886    12.347679771    26.749480496   0   0   0 # ohk
   1081      1   1  1.575000    18.829999864    13.517411778     3.924868994   0   0   0 # feok
   1082      1   2  0.425000    18.829999864    11.912579852    11.390650309   0   0   0 # hoy
   1083      1   3 -1.050000    18.829999864    10.465299809    10.419137164   0   0   0 # obsk
   1084      1   4 -0.950000    18.829999864    12.842319810    11.879380951   0   0   0 # ohk
   1085      1   1  1.575000    20.336399853    11.227411816     5.988838887   0   0   0 # feok
   1086      1   2  0.425000    20.336399853     9.622579890     8.436457269   0   0   0 # hoy
   1087      1   3 -1.050000    20.336399853    12.755299771     9.407970414   0   0   0 # obsk
   1088      1   4 -0.950000    20.336399853    10.552319848     7.947726626   0   0   0 # ohk
   1089      1   1  1.575000    20.336399853     9.382587841    10.945538735   0   0   0 # feok
   1090      1   2  0.425000    20.336399853    10.987419767     3.479757421   0   0   0 # hoy
   1091      1   3 -1.050000    20.336399853    12.434699809     4.451270565   0   0   0 # obsk
   1092      1   4 -0.950000    20.336399853    10.057679809     2.991026778   0   0   0 # ohk
   1093      1   1  1.575000    18.829999864    11.672587803     8.881568842   0   0   0 # feok
   1094      1   2  0.425000    18.829999864    13.277419729     6.433950460   0   0   0 # hoy
   1095      1   3 -1.050000    18.829999864    10.144699847     5.462437316   0   0   0 # obsk
   1096      1   4 -0.950000    18.829999864    12.347679771     6.922681103   0   0   0 # ohk
   1097      1   1  1.575000    18.829999864    13.517411778    13.838268690   0   0   0 # feok
   1098      1   2  0.425000    18.829999864    11.912579852    21.304050005   0   0   0 # hoy
   1099      1   3 -1.050000    18.829999864    10.465299809    20.332536860   0   0   0 # obsk
   1100      1   4 -0.950000    18.829999864    12.842319810    21.792780648   0   0   0 # ohk
   1101      1   1  1.575000    20.336399853    11.227411816    15.902238583   0   0   0 # feok
   1102      1   2  0.425000    20.336399853     9.622579890    18.349856965   0   0   0 # hoy
   1103      1   3 -1.050000    20.336399853    12.755299771    19.321370110   0   0   0 # obsk
   1104      1   4 -0.950000    20.336399853    10.552319848    17.861126322   0   0   0 # ohk
   1105      1   1  1.575000    20.336399853     9.382587841    20.858938431   0   0   0 # feok
   1106      1   2  0.425000    20.336399853    10.987419767    13.393157117   0   0   0 # hoy
   1107      1   3 -1.050000    20.336399853    12.434699809    14.364670262   0   0   0 # obsk
   1108      1   4 -0.950000    20.336399853    10.057679809    12.904426474   0   0   0 # ohk
   1109      1   1  1.575000    18.829999864    11.672587803    18.794968539   0   0   0 # feok
   1110      1   2  0.425000    18.829999864    13.277419729    16.347350157   0   0   0 # hoy
   1111      1   3 -1.050000    18.829999864    10.144699847    15.375837012   0   0   0 # obsk
   1112      1   4 -0.950000    18.829999864    12.347679771    16.836080799   0   0   0 # ohk
   1113      1   1  1.575000    18.829999864    13.517411778    23.751668387   0   0   0 # feok
   1114      1   3 -1.050000    18.829999864    10.465299809    30.245936556   0   0   0 # obsk
   1115      1   1  1.575000    20.336399853    11.227411816    25.815638280   0   0   0 # feok
   1116      1   2  0.425000    20.336399853     9.622579890    28.263256661   0   0   0 # hoy
   1117      1   3 -1.109400    20.336399853    12.755299771    29.234769806   0   0   0 # obsk
   1118      1   4 -0.950000    20.336399853    10.552319848    27.774526019   0   0   0 # ohk
   1119      1   2  0.425000    20.336399853    10.987419767    23.306556813   0   0   0 # hoy
   1120      1   3 -1.050000    20.336399853    12.434699809    24.278069958   0   0   0 # obsk
   1121      1   4 -0.950000    20.336399853    10.057679809    22.817826171   0   0   0 # ohk
   1122      1   1  1.575000    18.829999864    11.672587803    28.708368235   0   0   0 # feok
   1123      1   2  0.425000    18.829999864    13.277419729    26.260749853   0   0   0 # hoy
   1124      1   3 -1.050000    18.829999864    10.144699847    25.289236708   0   0   0 # obsk
   1125      1   4 -0.950000    18.829999864    12.347679771    26.749480496   0   0   0 # ohk
   1126      1   1  1.575000    21.842799842    13.517411778     3.924868994   0   0   0 # feok
   1127      1   2  0.425000    21.842799842    11.912579852    11.390650309   0   0   0 # hoy
   1128      1   3 -1.050000    21.842799842    10.465299809    10.419137164   0   0   0 # obsk
   1129      1   4 -0.950000    21.842799842    12.842319810    11.879380951   0   0   0 # ohk
   1130      1   1  1.575000    23.349199831    11.227411816     5.988838887   0   0   0 # feok
   1131      1   2  0.425000    23.349199831     9.622579890     8.436457269   0   0   0 # hoy
   1132      1   3 -1.050000    23.349199831    12.755299771     9.407970414   0   0   0 # obsk
   1133      1   4 -0.950000    23.349199831    10.552319848     7.947726626   0   0   0 # ohk
   1134      1   1  1.575000    23.349199831     9.382587841    10.945538735   0   0   0 # feok
   1135      1   2  0.425000    23.349199831    10.987419767     3.479757421   0   0   0 # hoy
   1136      1   3 -1.050000    23.349199831    12.434699809     4.451270565   0   0   0 # obsk
   1137      1   4 -0.950000    23.349199831    10.057679809     2.991026778   0   0   0 # ohk
   1138      1   1  1.575000    21.842799842    11.672587803     8.881568842   0   0   0 # feok
   1139      1   2  0.425000    21.842799842    13.277419729     6.433950460   0   0   0 # hoy
   1140      1   3 -1.050000    21.842799842    10.144699847     5.462437316   0   0   0 # obsk
   1141      1   4 -0.950000    21.842799842    12.347679771     6.922681103   0   0   0 # ohk
   1142      1   1  1.575000    21.842799842    13.517411778    13.838268690   0   0   0 # feok
   1143      1   2  0.425000    21.842799842    11.912579852    21.304050005   0   0   0 # hoy
   1144      1   3 -1.050000    21.842799842    10.465299809    20.332536860   0   0   0 # obsk
   1145      1   4 -0.950000    21.842799842    12.842319810    21.792780648   0   0   0 # ohk
   1146      1   1  1.575000    23.349199831    11.227411816    15.902238583   0   0   0 # feok
   1147      1   2  0.425000    23.349199831     9.622579890    18.349856965   0   0   0 # hoy
   1148      1   3 -1.050000    23.349199831    12.755299771    19.321370110   0   0   0 # obsk
   1149      1   4 -0.950000    23.349199831    10.552319848    17.861126322   0   0   0 # ohk
   1150      1   1  1.575000    23.349199831     9.382587841    20.858938431   0   0   0 # feok
   1151      1   2  0.425000    23.349199831    10.987419767    13.393157117   0   0   0 # hoy
   1152      1   3 -1.050000    23.349199831    12.434699809    14.364670262   0   0   0 # obsk
   1153      1   4 -0.950000    23.349199831    10.057679809    12.904426474   0   0   0 # ohk
   1154      1   1  1.575000    21.842799842    11.672587803    18.794968539   0   0   0 # feok
   1155      1   2  0.425000    21.842799842    13.277419729    16.347350157   0   0   0 # hoy
   1156      1   3 -1.050000    21.842799842    10.144699847    15.375837012   0   0   0 # obsk
   1157      1   4 -0.950000    21.842799842    12.347679771    16.836080799   0   0   0 # ohk
   1158      1   1  1.575000    21.842799842    13.517411778    23.751668387   0   0   0 # feok
   1159      1   3 -1.109400    21.842799842    10.465299809    30.245936556   0   0   0 # obsk
   1160      1   1  1.575000    23.349199831    11.227411816    25.815638280   0   0   0 # feok
   1161      1   2  0.425000    23.349199831     9.622579890    28.263256661   0   0   0 # hoy
   1162      1   3 -1.050000    23.349199831    12.755299771    29.234769806   0   0   0 # obsk
   1163      1   4 -0.950000    23.349199831    10.552319848    27.774526019   0   0   0 # ohk
   1164      1   2  0.425000    23.349199831    10.987419767    23.306556813   0   0   0 # hoy
   1165      1   3 -1.050000    23.349199831    12.434699809    24.278069958   0   0   0 # obsk
   1166      1   4 -0.950000    23.349199831    10.057679809    22.817826171   0   0   0 # ohk
   1167      1   1  1.575000    21.842799842    11.672587803    28.708368235   0   0   0 # feok
   1168      1   2  0.425000    21.842799842    13.277419729    26.260749853   0   0   0 # hoy
   1169      1   3 -1.050000    21.842799842    10.144699847    25.289236708   0   0   0 # obsk
   1170      1   4 -0.950000    21.842799842    12.347679771    26.749480496   0   0   0 # ohk
   1171      1   1  1.575000    24.855599821    13.517411778     3.924868994   0   0   0 # feok
   1172      1   2  0.425000    24.855599821    11.912579852    11.390650309   0   0   0 # hoy
   1173      1   3 -1.050000    24.855599821    10.465299809    10.419137164   0   0   0 # obsk
   1174      1   4 -0.950000    24.855599821    12.842319810    11.879380951   0   0   0 # ohk
   1175      1   1  1.575000    26.361999810    11.227411816     5.988838887   0   0   0 # feok
   1176      1   2  0.425000    26.361999810     9.622579890     8.436457269   0   0   0 # hoy
   1177      1   3 -1.050000    26.361999810    12.755299771     9.407970414   0   0   0 # obsk
   1178      1   4 -0.950000    26.361999810    10.552319848     7.947726626   0   0   0 # ohk
   1179      1   1  1.575000    26.361999810     9.382587841    10.945538735   0   0   0 # feok
   1180      1   2  0.425000    26.361999810    10.987419767     3.479757421   0   0   0 # hoy
   1181      1   3 -1.050000    26.361999810    12.434699809     4.451270565   0   0   0 # obsk
   1182      1   4 -0.950000    26.361999810    10.057679809     2.991026778   0   0   0 # ohk
   1183      1   1  1.575000    24.855599821    11.672587803     8.881568842   0   0   0 # feok
   1184      1   2  0.425000    24.855599821    13.277419729     6.433950460   0   0   0 # hoy
   1185      1   3 -1.050000    24.855599821    10.144699847     5.462437316   0   0   0 # obsk
   1186      1   4 -0.950000    24.855599821    12.347679771     6.922681103   0   0   0 # ohk
   1187      1   1  1.575000    24.855599821    13.517411778    13.838268690   0   0   0 # feok
   1188      1   2  0.425000    24.855599821    11.912579852    21.304050005   0   0   0 # hoy
   1189      1   3 -1.050000    24.855599821    10.465299809    20.332536860   0   0   0 # obsk
   1190      1   4 -0.950000    24.855599821    12.842319810    21.792780648   0   0   0 # ohk
   1191      1   1  1.575000    26.361999810    11.227411816    15.902238583   0   0   0 # feok
   1192      1   2  0.425000    26.361999810     9.622579890    18.349856965   0   0   0 # hoy
   1193      1   3 -1.050000    26.361999810    12.755299771    19.321370110   0   0   0 # obsk
   1194      1   4 -0.950000    26.361999810    10.552319848    17.861126322   0   0   0 # ohk
   1195      1   1  1.575000    26.361999810     9.382587841    20.858938431   0   0   0 # feok
   1196      1   2  0.425000    26.361999810    10.987419767    13.393157117   0   0   0 # hoy
   1197      1   3 -1.050000    26.361999810    12.434699809    14.364670262   0   0   0 # obsk
   1198      1   4 -0.950000    26.361999810    10.057679809    12.904426474   0   0   0 # ohk
   1199      1   1  1.575000    24.855599821    11.672587803    18.794968539   0   0   0 # feok
   1200      1   2  0.425000    24.855599821    13.277419729    16.347350157   0   0   0 # hoy
   1201      1   3 -1.050000    24.855599821    10.144699847    15.375837012   0   0   0 # obsk
   1202      1   4 -0.950000    24.855599821    12.347679771    16.836080799   0   0   0 # ohk
   1203      1   1  1.575000    24.855599821    13.517411778    23.751668387   0   0   0 # feok
   1204      1   3 -1.109400    24.855599821    10.465299809    30.245936556   0   0   0 # obsk
   1205      1   1  1.575000    26.361999810    11.227411816    25.815638280   0   0   0 # feok
   1206      1   2  0.425000    26.361999810     9.622579890    28.263256661   0   0   0 # hoy
   1207      1   3 -1.050000    26.361999810    12.755299771    29.234769806   0   0   0 # obsk
   1208      1   4 -0.950000    26.361999810    10.552319848    27.774526019   0   0   0 # ohk
   1209      1   2  0.425000    26.361999810    10.987419767    23.306556813   0   0   0 # hoy
   1210      1   3 -1.050000    26.361999810    12.434699809    24.278069958   0   0   0 # obsk
   1211      1   4 -0.950000    26.361999810    10.057679809    22.817826171   0   0   0 # ohk
   1212      1   1  1.575000    24.855599821    11.672587803    28.708368235   0   0   0 # feok
   1213      1   2  0.425000    24.855599821    13.277419729    26.260749853   0   0   0 # hoy
   1214      1   3 -1.050000    24.855599821    10.144699847    25.289236708   0   0   0 # obsk
   1215      1   4 -0.950000    24.855599821    12.347679771    26.749480496   0   0   0 # ohk
   1216      1   1  1.575000     0.753199995    18.097411701     3.924868994   0   0   0 # feok
   1217      1   2  0.425000     0.753199995    16.492579775    11.390650309   0   0   0 # hoy
   1218      1   3 -1.050000     0.753199995    15.045299733    10.419137164   0   0   0 # obsk
   1219      1   4 -0.950000     0.753199995    17.422319733    11.879380951   0   0   0 # ohk
   1220      1   1  1.575000     2.259599984    15.807411739     5.988838887   0   0   0 # feok
   1221      1   2  0.425000     2.259599984    14.202579814     8.436457269   0   0   0 # hoy
   1222      1   3 -1.050000     2.259599984    17.335299695     9.407970414   0   0   0 # obsk
   1223      1   4 -0.950000     2.259599984    15.132319771     7.947726626   0   0   0 # ohk
   1224      1   1  1.575000     2.259599984    13.962587765    10.945538735   0   0   0 # feok
   1225      1   2  0.425000     2.259599984    15.567419690     3.479757421   0   0   0 # hoy
   1226      1   3 -1.050000     2.259599984    17.014699733     4.451270565   0   0   0 # obsk
   1227      1   4 -0.950000     2.259599984    14.637679733     2.991026778   0   0   0 # ohk
   1228      1   1  1.575000     0.753199995    16.252587727     8.881568842   0   0   0 # feok
   1229      1   2  0.425000     0.753199995    17.857419652     6.433950460   0   0   0 # hoy
   1230      1   3 -1.050000     0.753199995    14.724699771     5.462437316   0   0   0 # obsk
   1231      1   4 -0.950000     0.753199995    16.927679695     6.922681103   0   0   0 # ohk
   1232      1   1  1.575000     0.753199995    18.097411701    13.838268690   0   0   0 # feok
   1233      1   2  0.425000     0.753199995    16.492579775    21.304050005   0   0   0 # hoy
   1234      1   3 -1.050000     0.753199995    15.045299733    20.332536860   0   0   0 # obsk
   1235      1   4 -0.950000     0.753199995    17.422319733    21.792780648   0   0   0 # ohk
   1236      1   1  1.575000     2.259599984    15.807411739    15.902238583   0   0   0 # feok
   1237      1   2  0.425000     2.259599984    14.202579814    18.349856965   0   0   0 # hoy
   1238      1   3 -1.050000     2.259599984    17.335299695    19.321370110   0   0   0 # obsk
   1239      1   4 -0.950000     2.259599984    15.132319771    17.861126322   0   0   0 # ohk
   1240      1   1  1.575000     2.259599984    13.962587765    20.858938431   0   0   0 # feok
   1241      1   2  0.425000     2.259599984    15.567419690    13.393157117   0   0   0 # hoy
   1242      1   3 -1.050000     2.259599984    17.014699733    14.364670262   0   0   0 # obsk
   1243      1   4 -0.950000     2.259599984    14.637679733    12.904426474   0   0   0 # ohk
   1244      1   1  1.575000     0.753199995    16.252587727    18.794968539   0   0   0 # feok
   1245      1   2  0.425000     0.753199995    17.857419652    16.347350157   0   0   0 # hoy
   1246      1   3 -1.050000     0.753199995    14.724699771    15.375837012   0   0   0 # obsk
   1247      1   4 -0.950000     0.753199995    16.927679695    16.836080799   0   0   0 # ohk
   1248      1   1  1.575000     0.753199995    18.097411701    23.751668387   0   0   0 # feok
   1249      1   3 -1.050000     0.753199995    15.045299733    30.245936556   0   0   0 # obsk
   1250      1   1  1.575000     2.259599984    15.807411739    25.815638280   0   0   0 # feok
   1251      1   2  0.425000     2.259599984    14.202579814    28.263256661   0   0   0 # hoy
   1252      1   3 -1.109400     2.259599984    17.335299695    29.234769806   0   0   0 # obsk
   1253      1   4 -0.950000     2.259599984    15.132319771    27.774526019   0   0   0 # ohk
   1254      1   2  0.425000     2.259599984    15.567419690    23.306556813   0   0   0 # hoy
   1255      1   3 -1.050000     2.259599984    17.014699733    24.278069958   0   0   0 # obsk
   1256      1   4 -0.950000     2.259599984    14.637679733    22.817826171   0   0   0 # ohk
   1257      1   1  1.575000     0.753199995    16.252587727    28.708368235   0   0   0 # feok
   1258      1   2  0.425000     0.753199995    17.857419652    26.260749853   0   0   0 # hoy
   1259      1   3 -1.050000     0.753199995    14.724699771    25.289236708   0   0   0 # obsk
   1260      1   4 -0.950000     0.753199995    16.927679695    26.749480496   0   0   0 # ohk
   1261      1   1  1.575000     3.765999973    18.097411701     3.924868994   0   0   0 # feok
   1262      1   2  0.425000     3.765999973    16.492579775    11.390650309   0   0   0 # hoy
   1263      1   3 -1.050000     3.765999973    15.045299733    10.419137164   0   0   0 # obsk
   1264      1   4 -0.950000     3.765999973    17.422319733    11.879380951   0   0   0 # ohk
   1265      1   1  1.575000     5.272399962    15.807411739     5.988838887   0   0   0 # feok
   1266      1   2  0.425000     5.272399962    14.202579814     8.436457269   0   0   0 # hoy
   1267      1   3 -1.050000     5.272399962    17.335299695     9.407970414   0   0   0 # obsk
   1268      1   4 -0.950000     5.272399962    15.132319771     7.947726626   0   0   0 # ohk
   1269      1   1  1.575000     5.272399962    13.962587765    10.945538735   0   0   0 # feok
   1270      1   2  0.425000     5.272399962    15.567419690     3.479757421   0   0   0 # hoy
   1271      1   3 -1.050000     5.272399962    17.014699733     4.451270565   0   0   0 # obsk
   1272      1   4 -0.950000     5.272399962    14.637679733     2.991026778   0   0   0 # ohk
   1273      1   1  1.575000     3.765999973    16.252587727     8.881568842   0   0   0 # feok
   1274      1   2  0.425000     3.765999973    17.857419652     6.433950460   0   0   0 # hoy
   1275      1   3 -1.050000     3.765999973    14.724699771     5.462437316   0   0   0 # obsk
   1276      1   4 -0.950000     3.765999973    16.927679695     6.922681103   0   0   0 # ohk
   1277      1   1  1.575000     3.765999973    18.097411701    13.838268690   0   0   0 # feok
   1278      1   2  0.425000     3.765999973    16.492579775    21.304050005   0   0   0 # hoy
   1279      1   3 -1.050000     3.765999973    15.045299733    20.332536860   0   0   0 # obsk
   1280      1   4 -0.950000     3.765999973    17.422319733    21.792780648   0   0   0 # ohk
   1281      1   1  1.575000     5.272399962    15.807411739    15.902238583   0   0   0 # feok
   1282      1   2  0.425000     5.272399962    14.202579814    18.349856965   0   0   0 # hoy
   1283      1   3 -1.050000     5.272399962    17.335299695    19.321370110   0   0   0 # obsk
   1284      1   4 -0.950000     5.272399962    15.132319771    17.861126322   0   0   0 # ohk
   1285      1   1  1.575000     5.272399962    13.962587765    20.858938431   0   0   0 # feok
   1286      1   2  0.425000     5.272399962    15.567419690    13.393157117   0   0   0 # hoy
   1287      1   3 -1.050000     5.272399962    17.014699733    14.364670262   0   0   0 # obsk
   1288      1   4 -0.950000     5.272399962    14.637679733    12.904426474   0   0   0 # ohk
   1289      1   1  1.575000     3.765999973    16.252587727    18.794968539   0   0   0 # feok
   1290      1   2  0.425000     3.765999973    17.857419652    16.347350157   0   0   0 # hoy
   1291      1   3 -1.050000     3.765999973    14.724699771    15.375837012   0   0   0 # obsk
   1292      1   4 -0.950000     3.765999973    16.927679695    16.836080799   0   0   0 # ohk
   1293      1   1  1.575000     3.765999973    18.097411701    23.751668387   0   0   0 # feok
   1294      1   3 -1.050000     3.765999973    15.045299733    30.245936556   0   0   0 # obsk
   1295      1   1  1.575000     5.272399962    15.807411739    25.815638280   0   0   0 # feok
   1296      1   2  0.425000     5.272399962    14.202579814    28.263256661   0   0   0 # hoy
   1297      1   3 -1.050000     5.272399962    17.335299695    29.234769806   0   0   0 # obsk
   1298      1   4 -0.950000     5.272399962    15.132319771    27.774526019   0   0   0 # ohk
   1299      1   2  0.425000     5.272399962    15.567419690    23.306556813   0   0   0 # hoy
   1300      1   3 -1.050000     5.272399962    17.014699733    24.278069958   0   0   0 # obsk
   1301      1   4 -0.950000     5.272399962    14.637679733    22.817826171   0   0   0 # ohk
   1302      1   1  1.575000     3.765999973    16.252587727    28.708368235   0   0   0 # feok
   1303      1   2  0.425000     3.765999973    17.857419652    26.260749853   0   0   0 # hoy
   1304      1   3 -1.050000     3.765999973    14.724699771    25.289236708   0   0   0 # obsk
   1305      1   4 -0.950000     3.765999973    16.927679695    26.749480496   0   0   0 # ohk
   1306      1   1  1.575000     6.778799951    18.097411701     3.924868994   0   0   0 # feok
   1307      1   2  0.425000     6.778799951    16.492579775    11.390650309   0   0   0 # hoy
   1308      1   3 -1.050000     6.778799951    15.045299733    10.419137164   0   0   0 # obsk
   1309      1   4 -0.950000     6.778799951    17.422319733    11.879380951   0   0   0 # ohk
   1310      1   1  1.575000     8.285199940    15.807411739     5.988838887   0   0   0 # feok
   1311      1   2  0.425000     8.285199940    14.202579814     8.436457269   0   0   0 # hoy
   1312      1   3 -1.050000     8.285199940    17.335299695     9.407970414   0   0   0 # obsk
   1313      1   4 -0.950000     8.285199940    15.132319771     7.947726626   0   0   0 # ohk
   1314      1   1  1.575000     8.285199940    13.962587765    10.945538735   0   0   0 # feok
   1315      1   2  0.425000     8.285199940    15.567419690     3.479757421   0   0   0 # hoy
   1316      1   3 -1.050000     8.285199940    17.014699733     4.451270565   0   0   0 # obsk
   1317      1   4 -0.950000     8.285199940    14.637679733     2.991026778   0   0   0 # ohk
   1318      1   1  1.575000     6.778799951    16.252587727     8.881568842   0   0   0 # feok
   1319      1   2  0.425000     6.778799951    17.857419652     6.433950460   0   0   0 # hoy
   1320      1   3 -1.050000     6.778799951    14.724699771     5.462437316   0   0   0 # obsk
   1321      1   4 -0.950000     6.778799951    16.927679695     6.922681103   0   0   0 # ohk
   1322      1   1  1.575000     6.778799951    18.097411701    13.838268690   0   0   0 # feok
   1323      1   2  0.425000     6.778799951    16.492579775    21.304050005   0   0   0 # hoy
   1324      1   3 -1.050000     6.778799951    15.045299733    20.332536860   0   0   0 # obsk
   1325      1   4 -0.950000     6.778799951    17.422319733    21.792780648   0   0   0 # ohk
   1326      1   1  1.575000     8.285199940    15.807411739    15.902238583   0   0   0 # feok
   1327      1   2  0.425000     8.285199940    14.202579814    18.349856965   0   0   0 # hoy
   1328      1   3 -1.050000     8.285199940    17.335299695    19.321370110   0   0   0 # obsk
   1329      1   4 -0.950000     8.285199940    15.132319771    17.861126322   0   0   0 # ohk
   1330      1   1  1.575000     8.285199940    13.962587765    20.858938431   0   0   0 # feok
   1331      1   2  0.425000     8.285199940    15.567419690    13.393157117   0   0   0 # hoy
   1332      1   3 -1.050000     8.285199940    17.014699733    14.364670262   0   0   0 # obsk
   1333      1   4 -0.950000     8.285199940    14.637679733    12.904426474   0   0   0 # ohk
   1334      1   1  1.575000     6.778799951    16.252587727    18.794968539   0   0   0 # feok
   1335      1   2  0.425000     6.778799951    17.857419652    16.347350157   0   0   0 # hoy
   1336      1   3 -1.050000     6.778799951    14.724699771    15.375837012   0   0   0 # obsk
   1337      1   4 -0.950000     6.778799951    16.927679695    16.836080799   0   0   0 # ohk
   1338      1   1  1.575000     6.778799951    18.097411701    23.751668387   0   0   0 # feok
   1339      1   3 -1.109400     6.778799951    15.045299733    30.245936556   0   0   0 # obsk
   1340      1   1  1.575000     8.285199940    15.807411739    25.815638280   0   0   0 # feok
   1341      1   2  0.425000     8.285199940    14.202579814    28.263256661   0   0   0 # hoy
   1342      1   3 -1.050000     8.285199940    17.335299695    29.234769806   0   0   0 # obsk
   1343      1   4 -0.950000     8.285199940    15.132319771    27.774526019   0   0   0 # ohk
   1344      1   2  0.425000     8.285199940    15.567419690    23.306556813   0   0   0 # hoy
   1345      1   3 -1.050000     8.285199940    17.014699733    24.278069958   0   0   0 # obsk
   1346      1   4 -0.950000     8.285199940    14.637679733    22.817826171   0   0   0 # ohk
   1347      1   1  1.575000     6.778799951    16.252587727    28.708368235   0   0   0 # feok
   1348      1   2  0.425000     6.778799951    17.857419652    26.260749853   0   0   0 # hoy
   1349      1   3 -1.050000     6.778799951    14.724699771    25.289236708   0   0   0 # obsk
   1350      1   4 -0.950000     6.778799951    16.927679695    26.749480496   0   0   0 # ohk
   1351      1   1  1.575000     9.791599929    18.097411701     3.924868994   0   0   0 # feok
   1352      1   2  0.425000     9.791599929    16.492579775    11.390650309   0   0   0 # hoy
   1353      1   3 -1.050000     9.791599929    15.045299733    10.419137164   0   0   0 # obsk
   1354      1   4 -0.950000     9.791599929    17.422319733    11.879380951   0   0   0 # ohk
   1355      1   1  1.575000    11.297999918    15.807411739     5.988838887   0   0   0 # feok
   1356      1   2  0.425000    11.297999918    14.202579814     8.436457269   0   0   0 # hoy
   1357      1   3 -1.050000    11.297999918    17.335299695     9.407970414   0   0   0 # obsk
   1358      1   4 -0.950000    11.297999918    15.132319771     7.947726626   0   0   0 # ohk
   1359      1   1  1.575000    11.297999918    13.962587765    10.945538735   0   0   0 # feok
   1360      1   2  0.425000    11.297999918    15.567419690     3.479757421   0   0   0 # hoy
   1361      1   3 -1.050000    11.297999918    17.014699733     4.451270565   0   0   0 # obsk
   1362      1   4 -0.950000    11.297999918    14.637679733     2.991026778   0   0   0 # ohk
   1363      1   1  1.575000     9.791599929    16.252587727     8.881568842   0   0   0 # feok
   1364      1   2  0.425000     9.791599929    17.857419652     6.433950460   0   0   0 # hoy
   1365      1   3 -1.050000     9.791599929    14.724699771     5.462437316   0   0   0 # obsk
   1366      1   4 -0.950000     9.791599929    16.927679695     6.922681103   0   0   0 # ohk
   1367      1   1  1.575000     9.791599929    18.097411701    13.838268690   0   0   0 # feok
   1368      1   2  0.425000     9.791599929    16.492579775    21.304050005   0   0   0 # hoy
   1369      1   3 -1.050000     9.791599929    15.045299733    20.332536860   0   0   0 # obsk
   1370      1   4 -0.950000     9.791599929    17.422319733    21.792780648   0   0   0 # ohk
   1371      1   1  1.575000    11.297999918    15.807411739    15.902238583   0   0   0 # feok
   1372      1   2  0.425000    11.297999918    14.202579814    18.349856965   0   0   0 # hoy
   1373      1   3 -1.050000    11.297999918    17.335299695    19.321370110   0   0   0 # obsk
   1374      1   4 -0.950000    11.297999918    15.132319771    17.861126322   0   0   0 # ohk
   1375      1   1  1.575000    11.297999918    13.962587765    20.858938431   0   0   0 # feok
   1376      1   2  0.425000    11.297999918    15.567419690    13.393157117   0   0   0 # hoy
   1377      1   3 -1.050000    11.297999918    17.014699733    14.364670262   0   0   0 # obsk
   1378      1   4 -0.950000    11.297999918    14.637679733    12.904426474   0   0   0 # ohk
   1379      1   1  1.575000     9.791599929    16.252587727    18.794968539   0   0   0 # feok
   1380      1   2  0.425000     9.791599929    17.857419652    16.347350157   0   0   0 # hoy
   1381      1   3 -1.050000     9.791599929    14.724699771    15.375837012   0   0   0 # obsk
   1382      1   4 -0.950000     9.791599929    16.927679695    16.836080799   0   0   0 # ohk
   1383      1   1  1.575000     9.791599929    18.097411701    23.751668387   0   0   0 # feok
   1384      1   3 -1.109400     9.791599929    15.045299733    30.245936556   0   0   0 # obsk
   1385      1   1  1.575000    11.297999918    15.807411739    25.815638280   0   0   0 # feok
   1386      1   2  0.425000    11.297999918    14.202579814    28.263256661   0   0   0 # hoy
   1387      1   3 -1.050000    11.297999918    17.335299695    29.234769806   0   0   0 # obsk
   1388      1   4 -0.950000    11.297999918    15.132319771    27.774526019   0   0   0 # ohk
   1389      1   2  0.425000    11.297999918    15.567419690    23.306556813   0   0   0 # hoy
   1390      1   3 -1.050000    11.297999918    17.014699733    24.278069958   0   0   0 # obsk
   1391      1   4 -0.950000    11.297999918    14.637679733    22.817826171   0   0   0 # ohk
   1392      1   1  1.575000     9.791599929    16.252587727    28.708368235   0   0   0 # feok
   1393      1   2  0.425000     9.791599929    17.857419652    26.260749853   0   0   0 # hoy
   1394      1   3 -1.050000     9.791599929    14.724699771    25.289236708   0   0   0 # obsk
   1395      1   4 -0.950000     9.791599929    16.927679695    26.749480496   0   0   0 # ohk
   1396      1   1  1.575000    12.804399908    18.097411701     3.924868994   0   0   0 # feok
   1397      1   2  0.425000    12.804399908    16.492579775    11.390650309   0   0   0 # hoy
   1398      1   3 -1.050000    12.804399908    15.045299733    10.419137164   0   0   0 # obsk
   1399      1   4 -0.950000    12.804399908    17.422319733    11.879380951   0   0   0 # ohk
   1400      1   1  1.575000    14.310799897    15.807411739     5.988838887   0   0   0 # feok
   1401      1   2  0.425000    14.310799897    14.202579814     8.436457269   0   0   0 # hoy
   1402      1   3 -1.050000    14.310799897    17.335299695     9.407970414   0   0   0 # obsk
   1403      1   4 -0.950000    14.310799897    15.132319771     7.947726626   0   0   0 # ohk
   1404      1   1  1.575000    14.310799897    13.962587765    10.945538735   0   0   0 # feok
   1405      1   2  0.425000    14.310799897    15.567419690     3.479757421   0   0   0 # hoy
   1406      1   3 -1.050000    14.310799897    17.014699733     4.451270565   0   0   0 # obsk
   1407      1   4 -0.950000    14.310799897    14.637679733     2.991026778   0   0   0 # ohk
   1408      1   1  1.575000    12.804399908    16.252587727     8.881568842   0   0   0 # feok
   1409      1   2  0.425000    12.804399908    17.857419652     6.433950460   0   0   0 # hoy
   1410      1   3 -1.050000    12.804399908    14.724699771     5.462437316   0   0   0 # obsk
   1411      1   4 -0.950000    12.804399908    16.927679695     6.922681103   0   0   0 # ohk
   1412      1   1  1.575000    12.804399908    18.097411701    13.838268690   0   0   0 # feok
   1413      1   2  0.425000    12.804399908    16.492579775    21.304050005   0   0   0 # hoy
   1414      1   3 -1.050000    12.804399908    15.045299733    20.332536860   0   0   0 # obsk
   1415      1   4 -0.950000    12.804399908    17.422319733    21.792780648   0   0   0 # ohk
   1416      1   1  1.575000    14.310799897    15.807411739    15.902238583   0   0   0 # feok
   1417      1   2  0.425000    14.310799897    14.202579814    18.349856965   0   0   0 # hoy
   1418      1   3 -1.050000    14.310799897    17.335299695    19.321370110   0   0   0 # obsk
   1419      1   4 -0.950000    14.310799897    15.132319771    17.861126322   0   0   0 # ohk
   1420      1   1  1.575000    14.310799897    13.962587765    20.858938431   0   0   0 # feok
   1421      1   2  0.425000    14.310799897    15.567419690    13.393157117   0   0   0 # hoy
   1422      1   3 -1.050000    14.310799897    17.014699733    14.364670262   0   0   0 # obsk
   1423      1   4 -0.950000    14.310799897    14.637679733    12.904426474   0   0   0 # ohk
   1424      1   1  1.575000    12.804399908    16.252587727    18.794968539   0   0   0 # feok
   1425      1   2  0.425000    12.804399908    17.857419652    16.347350157   0   0   0 # hoy
   1426      1   3 -1.050000    12.804399908    14.724699771    15.375837012   0   0   0 # obsk
   1427      1   4 -0.950000    12.804399908    16.927679695    16.836080799   0   0   0 # ohk
   1428      1   1  1.575000    12.804399908    18.097411701    23.751668387   0   0   0 # feok
   1429      1   3 -1.050000    12.804399908    15.045299733    30.245936556   0   0   0 # obsk
   1430      1   1  1.575000    14.310799897    15.807411739    25.815638280   0   0   0 # feok
   1431      1   2  0.425000    14.310799897    14.202579814    28.263256661   0   0   0 # hoy
   1432      1   3 -1.109400    14.310799897    17.335299695    29.234769806   0   0   0 # obsk
   1433      1   4 -0.950000    14.310799897    15.132319771    27.774526019   0   0   0 # ohk
   1434      1   2  0.425000    14.310799897    15.567419690    23.306556813   0   0   0 # hoy
   1435      1   3 -1.050000    14.310799897    17.014699733    24.278069958   0   0   0 # obsk
   1436      1   4 -0.950000    14.310799897    14.637679733    22.817826171   0   0   0 # ohk
   1437      1   1  1.575000    12.804399908    16.252587727    28.708368235   0   0   0 # feok
   1438      1   2  0.425000    12.804399908    17.857419652    26.260749853   0   0   0 # hoy
   1439      1   3 -1.050000    12.804399908    14.724699771    25.289236708   0   0   0 # obsk
   1440      1   4 -0.950000    12.804399908    16.927679695    26.749480496   0   0   0 # ohk
   1441      1   1  1.575000    15.817199886    18.097411701     3.924868994   0   0   0 # feok
   1442      1   2  0.425000    15.817199886    16.492579775    11.390650309   0   0   0 # hoy
   1443      1   3 -1.050000    15.817199886    15.045299733    10.419137164   0   0   0 # obsk
   1444      1   4 -0.950000    15.817199886    17.422319733    11.879380951   0   0   0 # ohk
   1445      1   1  1.575000    17.323599875    15.807411739     5.988838887   0   0   0 # feok
   1446      1   2  0.425000    17.323599875    14.202579814     8.436457269   0   0   0 # hoy
   1447      1   3 -1.050000    17.323599875    17.335299695     9.407970414   0   0   0 # obsk
   1448      1   4 -0.950000    17.323599875    15.132319771     7.947726626   0   0   0 # ohk
   1449      1   1  1.575000    17.323599875    13.962587765    10.945538735   0   0   0 # feok
   1450      1   2  0.425000    17.323599875    15.567419690     3.479757421   0   0   0 # hoy
   1451      1   3 -1.050000    17.323599875    17.014699733     4.451270565   0   0   0 # obsk
   1452      1   4 -0.950000    17.323599875    14.637679733     2.991026778   0   0   0 # ohk
   1453      1   1  1.575000    15.817199886    16.252587727     8.881568842   0   0   0 # feok
   1454      1   2  0.425000    15.817199886    17.857419652     6.433950460   0   0   0 # hoy
   1455      1   3 -1.050000    15.817199886    14.724699771     5.462437316   0   0   0 # obsk
   1456      1   4 -0.950000    15.817199886    16.927679695     6.922681103   0   0   0 # ohk
   1457      1   1  1.575000    15.817199886    18.097411701    13.838268690   0   0   0 # feok
   1458      1   2  0.425000    15.817199886    16.492579775    21.304050005   0   0   0 # hoy
   1459      1   3 -1.050000    15.817199886    15.045299733    20.332536860   0   0   0 # obsk
   1460      1   4 -0.950000    15.817199886    17.422319733    21.792780648   0   0   0 # ohk
   1461      1   1  1.575000    17.323599875    15.807411739    15.902238583   0   0   0 # feok
   1462      1   2  0.425000    17.323599875    14.202579814    18.349856965   0   0   0 # hoy
   1463      1   3 -1.050000    17.323599875    17.335299695    19.321370110   0   0   0 # obsk
   1464      1   4 -0.950000    17.323599875    15.132319771    17.861126322   0   0   0 # ohk
   1465      1   1  1.575000    17.323599875    13.962587765    20.858938431   0   0   0 # feok
   1466      1   2  0.425000    17.323599875    15.567419690    13.393157117   0   0   0 # hoy
   1467      1   3 -1.050000    17.323599875    17.014699733    14.364670262   0   0   0 # obsk
   1468      1   4 -0.950000    17.323599875    14.637679733    12.904426474   0   0   0 # ohk
   1469      1   1  1.575000    15.817199886    16.252587727    18.794968539   0   0   0 # feok
   1470      1   2  0.425000    15.817199886    17.857419652    16.347350157   0   0   0 # hoy
   1471      1   3 -1.050000    15.817199886    14.724699771    15.375837012   0   0   0 # obsk
   1472      1   4 -0.950000    15.817199886    16.927679695    16.836080799   0   0   0 # ohk
   1473      1   1  1.575000    15.817199886    18.097411701    23.751668387   0   0   0 # feok
   1474      1   3 -1.050000    15.817199886    15.045299733    30.245936556   0   0   0 # obsk
   1475      1   1  1.575000    17.323599875    15.807411739    25.815638280   0   0   0 # feok
   1476      1   2  0.425000    17.323599875    14.202579814    28.263256661   0   0   0 # hoy
   1477      1   3 -1.050000    17.323599875    17.335299695    29.234769806   0   0   0 # obsk
   1478      1   4 -0.950000    17.323599875    15.132319771    27.774526019   0   0   0 # ohk
   1479      1   2  0.425000    17.323599875    15.567419690    23.306556813   0   0   0 # hoy
   1480      1   3 -1.050000    17.323599875    17.014699733    24.278069958   0   0   0 # obsk
   1481      1   4 -0.950000    17.323599875    14.637679733    22.817826171   0   0   0 # ohk
   1482      1   1  1.575000    15.817199886    16.252587727    28.708368235   0   0   0 # feok
   1483      1   2  0.425000    15.817199886    17.857419652    26.260749853   0   0   0 # hoy
   1484      1   3 -1.050000    15.817199886    14.724699771    25.289236708   0   0   0 # obsk
   1485      1   4 -0.950000    15.817199886    16.927679695    26.749480496   0   0   0 # ohk
   1486      1   1  1.575000    18.829999864    18.097411701     3.924868994   0   0   0 # feok
   1487      1   2  0.425000    18.829999864    16.492579775    11.390650309   0   0   0 # hoy
   1488      1   3 -1.050000    18.829999864    15.045299733    10.419137164   0   0   0 # obsk
   1489      1   4 -0.950000    18.829999864    17.422319733    11.879380951   0   0   0 # ohk
   1490      1   1  1.575000    20.336399853    15.807411739     5.988838887   0   0   0 # feok
   1491      1   2  0.425000    20.336399853    14.202579814     8.436457269   0   0   0 # hoy
   1492      1   3 -1.050000    20.336399853    17.335299695     9.407970414   0   0   0 # obsk
   1493      1   4 -0.950000    20.336399853    15.132319771     7.947726626   0   0   0 # ohk
   1494      1   1  1.575000    20.336399853    13.962587765    10.945538735   0   0   0 # feok
   1495      1   2  0.425000    20.336399853    15.567419690     3.479757421   0   0   0 # hoy
   1496      1   3 -1.050000    20.336399853    17.014699733     4.451270565   0   0   0 # obsk
   1497      1   4 -0.950000    20.336399853    14.637679733     2.991026778   0   0   0 # ohk
   1498      1   1  1.575000    18.829999864    16.252587727     8.881568842   0   0   0 # feok
   1499      1   2  0.425000    18.829999864    17.857419652     6.433950460   0   0   0 # hoy
   1500      1   3 -1.050000    18.829999864    14.724699771     5.462437316   0   0   0 # obsk
   1501      1   4 -0.950000    18.829999864    16.927679695     6.922681103   0   0   0 # ohk
   1502      1   1  1.575000    18.829999864    18.097411701    13.838268690   0   0   0 # feok
   1503      1   2  0.425000    18.829999864    16.492579775    21.304050005   0   0   0 # hoy
   1504      1   3 -1.050000    18.829999864    15.045299733    20.332536860   0   0   0 # obsk
   1505      1   4 -0.950000    18.829999864    17.422319733    21.792780648   0   0   0 # ohk
   1506      1   1  1.575000    20.336399853    15.807411739    15.902238583   0   0   0 # feok
   1507      1   2  0.425000    20.336399853    14.202579814    18.349856965   0   0   0 # hoy
   1508      1   3 -1.050000    20.336399853    17.335299695    19.321370110   0   0   0 # obsk
   1509      1   4 -0.950000    20.336399853    15.132319771    17.861126322   0   0   0 # ohk
   1510      1   1  1.575000    20.336399853    13.962587765    20.858938431   0   0   0 # feok
   1511      1   2  0.425000    20.336399853    15.567419690    13.393157117   0   0   0 # hoy
   1512      1   3 -1.050000    20.336399853    17.014699733    14.364670262   0   0   0 # obsk
   1513      1   4 -0.950000    20.336399853    14.637679733    12.904426474   0   0   0 # ohk
   1514      1   1  1.575000    18.829999864    16.252587727    18.794968539   0   0   0 # feok
   1515      1   2  0.425000    18.829999864    17.857419652    16.347350157   0   0   0 # hoy
   1516      1   3 -1.050000    18.829999864    14.724699771    15.375837012   0   0   0 # obsk
   1517      1   4 -0.950000    18.829999864    16.927679695    16.836080799   0   0   0 # ohk
   1518      1   1  1.575000    18.829999864    18.097411701    23.751668387   0   0   0 # feok
   1519      1   3 -1.109400    18.829999864    15.045299733    30.245936556   0   0   0 # obsk
   1520      1   1  1.575000    20.336399853    15.807411739    25.815638280   0   0   0 # feok
   1521      1   2  0.425000    20.336399853    14.202579814    28.263256661   0   0   0 # hoy
   1522      1   3 -1.050000    20.336399853    17.335299695    29.234769806   0   0   0 # obsk
   1523      1   4 -0.950000    20.336399853    15.132319771    27.774526019   0   0   0 # ohk
   1524      1   2  0.425000    20.336399853    15.567419690    23.306556813   0   0   0 # hoy
   1525      1   3 -1.050000    20.336399853    17.014699733    24.278069958   0   0   0 # obsk
   1526      1   4 -0.950000    20.336399853    14.637679733    22.817826171   0   0   0 # ohk
   1527      1   1  1.575000    18.829999864    16.252587727    28.708368235   0   0   0 # feok
   1528      1   2  0.425000    18.829999864    17.857419652    26.260749853   0   0   0 # hoy
   1529      1   3 -1.050000    18.829999864    14.724699771    25.289236708   0   0   0 # obsk
   1530      1   4 -0.950000    18.829999864    16.927679695    26.749480496   0   0   0 # ohk
   1531      1   1  1.575000    21.842799842    18.097411701     3.924868994   0   0   0 # feok
   1532      1   2  0.425000    21.842799842    16.492579775    11.390650309   0   0   0 # hoy
   1533      1   3 -1.050000    21.842799842    15.045299733    10.419137164   0   0   0 # obsk
   1534      1   4 -0.950000    21.842799842    17.422319733    11.879380951   0   0   0 # ohk
   1535      1   1  1.575000    23.349199831    15.807411739     5.988838887   0   0   0 # feok
   1536      1   2  0.425000    23.349199831    14.202579814     8.436457269   0   0   0 # hoy
   1537      1   3 -1.050000    23.349199831    17.335299695     9.407970414   0   0   0 # obsk
   1538      1   4 -0.950000    23.349199831    15.132319771     7.947726626   0   0   0 # ohk
   1539      1   1  1.575000    23.349199831    13.962587765    10.945538735   0   0   0 # feok
   1540      1   2  0.425000    23.349199831    15.567419690     3.479757421   0   0   0 # hoy
   1541      1   3 -1.050000    23.349199831    17.014699733     4.451270565   0   0   0 # obsk
   1542      1   4 -0.950000    23.349199831    14.637679733     2.991026778   0   0   0 # ohk
   1543      1   1  1.575000    21.842799842    16.252587727     8.881568842   0   0   0 # feok
   1544      1   2  0.425000    21.842799842    17.857419652     6.433950460   0   0   0 # hoy
   1545      1   3 -1.050000    21.842799842    14.724699771     5.462437316   0   0   0 # obsk
   1546      1   4 -0.950000    21.842799842    16.927679695     6.922681103   0   0   0 # ohk
   1547      1   1  1.575000    21.842799842    18.097411701    13.838268690   0   0   0 # feok
   1548      1   2  0.425000    21.842799842    16.492579775    21.304050005   0   0   0 # hoy
   1549      1   3 -1.050000    21.842799842    15.045299733    20.332536860   0   0   0 # obsk
   1550      1   4 -0.950000    21.842799842    17.422319733    21.792780648   0   0   0 # ohk
   1551      1   1  1.575000    23.349199831    15.807411739    15.902238583   0   0   0 # feok
   1552      1   2  0.425000    23.349199831    14.202579814    18.349856965   0   0   0 # hoy
   1553      1   3 -1.050000    23.349199831    17.335299695    19.321370110   0   0   0 # obsk
   1554      1   4 -0.950000    23.349199831    15.132319771    17.861126322   0   0   0 # ohk
   1555      1   1  1.575000    23.349199831    13.962587765    20.858938431   0   0   0 # feok
   1556      1   2  0.425000    23.349199831    15.567419690    13.393157117   0   0   0 # hoy
   1557      1   3 -1.050000    23.349199831    17.014699733    14.364670262   0   0   0 # obsk
   1558      1   4 -0.950000    23.349199831    14.637679733    12.904426474   0   0   0 # ohk
   1559      1   1  1.575000    21.842799842    16.252587727    18.794968539   0   0   0 # feok
   1560      1   2  0.425000    21.842799842    17.857419652    16.347350157   0   0   0 # hoy
   1561      1   3 -1.050000    21.842799842    14.724699771    15.375837012   0   0   0 # obsk
   1562      1   4 -0.950000    21.842799842    16.927679695    16.836080799   0   0   0 # ohk
   1563      1   1  1.575000    21.842799842    18.097411701    23.751668387   0   0   0 # feok
   1564      1   3 -1.109400    21.842799842    15.045299733    30.245936556   0   0   0 # obsk
   1565      1   1  1.575000    23.349199831    15.807411739    25.815638280   0   0   0 # feok
   1566      1   2  0.425000    23.349199831    14.202579814    28.263256661   0   0   0 # hoy
   1567      1   3 -1.109400    23.349199831    17.335299695    29.234769806   0   0   0 # obsk
   1568      1   4 -0.950000    23.349199831    15.132319771    27.774526019   0   0   0 # ohk
   1569      1   2  0.425000    23.349199831    15.567419690    23.306556813   0   0   0 # hoy
   1570      1   3 -1.050000    23.349199831    17.014699733    24.278069958   0   0   0 # obsk
   1571      1   4 -0.950000    23.349199831    14.637679733    22.817826171   0   0   0 # ohk
   1572      1   1  1.575000    21.842799842    16.252587727    28.708368235   0   0   0 # feok
   1573      1   2  0.425000    21.842799842    17.857419652    26.260749853   0   0   0 # hoy
   1574      1   3 -1.050000    21.842799842    14.724699771    25.289236708   0   0   0 # obsk
   1575      1   4 -0.950000    21.842799842    16.927679695    26.749480496   0   0   0 # ohk
   1576      1   1  1.575000    24.855599821    18.097411701     3.924868994   0   0   0 # feok
   1577      1   2  0.425000    24.855599821    16.492579775    11.390650309   0   0   0 # hoy
   1578      1   3 -1.050000    24.855599821    15.045299733    10.419137164   0   0   0 # obsk
   1579      1   4 -0.950000    24.855599821    17.422319733    11.879380951   0   0   0 # ohk
   1580      1   1  1.575000    26.361999810    15.807411739     5.988838887   0   0   0 # feok
   1581      1   2  0.425000    26.361999810    14.202579814     8.436457269   0   0   0 # hoy
   1582      1   3 -1.050000    26.361999810    17.335299695     9.407970414   0   0   0 # obsk
   1583      1   4 -0.950000    26.361999810    15.132319771     7.947726626   0   0   0 # ohk
   1584      1   1  1.575000    26.361999810    13.962587765    10.945538735   0   0   0 # feok
   1585      1   2  0.425000    26.361999810    15.567419690     3.479757421   0   0   0 # hoy
   1586      1   3 -1.050000    26.361999810    17.014699733     4.451270565   0   0   0 # obsk
   1587      1   4 -0.950000    26.361999810    14.637679733     2.991026778   0   0   0 # ohk
   1588      1   1  1.575000    24.855599821    16.252587727     8.881568842   0   0   0 # feok
   1589      1   2  0.425000    24.855599821    17.857419652     6.433950460   0   0   0 # hoy
   1590      1   3 -1.050000    24.855599821    14.724699771     5.462437316   0   0   0 # obsk
   1591      1   4 -0.950000    24.855599821    16.927679695     6.922681103   0   0   0 # ohk
   1592      1   1  1.575000    24.855599821    18.097411701    13.838268690   0   0   0 # feok
   1593      1   2  0.425000    24.855599821    16.492579775    21.304050005   0   0   0 # hoy
   1594      1   3 -1.050000    24.855599821    15.045299733    20.332536860   0   0   0 # obsk
   1595      1   4 -0.950000    24.855599821    17.422319733    21.792780648   0   0   0 # ohk
   1596      1   1  1.575000    26.361999810    15.807411739    15.902238583   0   0   0 # feok
   1597      1   2  0.425000    26.361999810    14.202579814    18.349856965   0   0   0 # hoy
   1598      1   3 -1.050000    26.361999810    17.335299695    19.321370110   0   0   0 # obsk
   1599      1   4 -0.950000    26.361999810    15.132319771    17.861126322   0   0   0 # ohk
   1600      1   1  1.575000    26.361999810    13.962587765    20.858938431   0   0   0 # feok
   1601      1   2  0.425000    26.361999810    15.567419690    13.393157117   0   0   0 # hoy
   1602      1   3 -1.050000    26.361999810    17.014699733    14.364670262   0   0   0 # obsk
   1603      1   4 -0.950000    26.361999810    14.637679733    12.904426474   0   0   0 # ohk
   1604      1   1  1.575000    24.855599821    16.252587727    18.794968539   0   0   0 # feok
   1605      1   2  0.425000    24.855599821    17.857419652    16.347350157   0   0   0 # hoy
   1606      1   3 -1.050000    24.855599821    14.724699771    15.375837012   0   0   0 # obsk
   1607      1   4 -0.950000    24.855599821    16.927679695    16.836080799   0   0   0 # ohk
   1608      1   1  1.575000    24.855599821    18.097411701    23.751668387   0   0   0 # feok
   1609      1   3 -1.050000    24.855599821    15.045299733    30.245936556   0   0   0 # obsk
   1610      1   1  1.575000    26.361999810    15.807411739    25.815638280   0   0   0 # feok
   1611      1   2  0.425000    26.361999810    14.202579814    28.263256661   0   0   0 # hoy
   1612      1   3 -1.050000    26.361999810    17.335299695    29.234769806   0   0   0 # obsk
   1613      1   4 -0.950000    26.361999810    15.132319771    27.774526019   0   0   0 # ohk
   1614      1   2  0.425000    26.361999810    15.567419690    23.306556813   0   0   0 # hoy
   1615      1   3 -1.050000    26.361999810    17.014699733    24.278069958   0   0   0 # obsk
   1616      1   4 -0.950000    26.361999810    14.637679733    22.817826171   0   0   0 # ohk
   1617      1   1  1.575000    24.855599821    16.252587727    28.708368235   0   0   0 # feok
   1618      1   2  0.425000    24.855599821    17.857419652    26.260749853   0   0   0 # hoy
   1619      1   3 -1.050000    24.855599821    14.724699771    25.289236708   0   0   0 # obsk
   1620      1   4 -0.950000    24.855599821    16.927679695    26.749480496   0   0   0 # ohk
   1621      1   1  1.575000     0.753199995    22.677411625     3.924868994   0   0   0 # feok
   1622      1   2  0.425000     0.753199995    21.072579699    11.390650309   0   0   0 # hoy
   1623      1   3 -1.050000     0.753199995    19.625299657    10.419137164   0   0   0 # obsk
   1624      1   4 -0.950000     0.753199995    22.002319657    11.879380951   0   0   0 # ohk
   1625      1   1  1.575000     2.259599984    20.387411663     5.988838887   0   0   0 # feok
   1626      1   2  0.425000     2.259599984    18.782579737     8.436457269   0   0   0 # hoy
   1627      1   3 -1.050000     2.259599984    21.915299619     9.407970414   0   0   0 # obsk
   1628      1   4 -0.950000     2.259599984    19.712319695     7.947726626   0   0   0 # ohk
   1629      1   1  1.575000     2.259599984    18.542587688    10.945538735   0   0   0 # feok
   1630      1   2  0.425000     2.259599984    20.147419614     3.479757421   0   0   0 # hoy
   1631      1   3 -1.050000     2.259599984    21.594699657     4.451270565   0   0   0 # obsk
   1632      1   4 -0.950000     2.259599984    19.217679656     2.991026778   0   0   0 # ohk
   1633      1   1  1.575000     0.753199995    20.832587650     8.881568842   0   0   0 # feok
   1634      1   2  0.425000     0.753199995    22.437419576     6.433950460   0   0   0 # hoy
   1635      1   3 -1.050000     0.753199995    19.304699695     5.462437316   0   0   0 # obsk
   1636      1   4 -0.950000     0.753199995    21.507679618     6.922681103   0   0   0 # ohk
   1637      1   1  1.575000     0.753199995    22.677411625    13.838268690   0   0   0 # feok
   1638      1   2  0.425000     0.753199995    21.072579699    21.304050005   0   0   0 # hoy
   1639      1   3 -1.050000     0.753199995    19.625299657    20.332536860   0   0   0 # obsk
   1640      1   4 -0.950000     0.753199995    22.002319657    21.792780648   0   0   0 # ohk
   1641      1   1  1.575000     2.259599984    20.387411663    15.902238583   0   0   0 # feok
   1642      1   2  0.425000     2.259599984    18.782579737    18.349856965   0   0   0 # hoy
   1643      1   3 -1.050000     2.259599984    21.915299619    19.321370110   0   0   0 # obsk
   1644      1   4 -0.950000     2.259599984    19.712319695    17.861126322   0   0   0 # ohk
   1645      1   1  1.575000     2.259599984    18.542587688    20.858938431   0   0   0 # feok
   1646      1   2  0.425000     2.259599984    20.147419614    13.393157117   0   0   0 # hoy
   1647      1   3 -1.050000     2.259599984    21.594699657    14.364670262   0   0   0 # obsk
   1648      1   4 -0.950000     2.259599984    19.217679656    12.904426474   0   0   0 # ohk
   1649      1   1  1.575000     0.753199995    20.832587650    18.794968539   0   0   0 # feok
   1650      1   2  0.425000     0.753199995    22.437419576    16.347350157   0   0   0 # hoy
   1651      1   3 -1.050000     0.753199995    19.304699695    15.375837012   0   0   0 # obsk
   1652      1   4 -0.950000     0.753199995    21.507679618    16.836080799   0   0   0 # ohk
   1653      1   1  1.575000     0.753199995    22.677411625    23.751668387   0   0   0 # feok
   1654      1   3 -1.109400     0.753199995    19.625299657    30.245936556   0   0   0 # obsk
   1655      1   1  1.575000     2.259599984    20.387411663    25.815638280   0   0   0 # feok
   1656      1   2  0.425000     2.259599984    18.782579737    28.263256661   0   0   0 # hoy
   1657      1   3 -1.050000     2.259599984    21.915299619    29.234769806   0   0   0 # obsk
   1658      1   4 -0.950000     2.259599984    19.712319695    27.774526019   0   0   0 # ohk
   1659      1   2  0.425000     2.259599984    20.147419614    23.306556813   0   0   0 # hoy
   1660      1   3 -1.050000     2.259599984    21.594699657    24.278069958   0   0   0 # obsk
   1661      1   4 -0.950000     2.259599984    19.217679656    22.817826171   0   0   0 # ohk
   1662      1   1  1.575000     0.753199995    20.832587650    28.708368235   0   0   0 # feok
   1663      1   2  0.425000     0.753199995    22.437419576    26.260749853   0   0   0 # hoy
   1664      1   3 -1.050000     0.753199995    19.304699695    25.289236708   0   0   0 # obsk
   1665      1   4 -0.950000     0.753199995    21.507679618    26.749480496   0   0   0 # ohk
   1666      1   1  1.575000     3.765999973    22.677411625     3.924868994   0   0   0 # feok
   1667      1   2  0.425000     3.765999973    21.072579699    11.390650309   0   0   0 # hoy
   1668      1   3 -1.050000     3.765999973    19.625299657    10.419137164   0   0   0 # obsk
   1669      1   4 -0.950000     3.765999973    22.002319657    11.879380951   0   0   0 # ohk
   1670      1   1  1.575000     5.272399962    20.387411663     5.988838887   0   0   0 # feok
   1671      1   2  0.425000     5.272399962    18.782579737     8.436457269   0   0   0 # hoy
   1672      1   3 -1.050000     5.272399962    21.915299619     9.407970414   0   0   0 # obsk
   1673      1   4 -0.950000     5.272399962    19.712319695     7.947726626   0   0   0 # ohk
   1674      1   1  1.575000     5.272399962    18.542587688    10.945538735   0   0   0 # feok
   1675      1   2  0.425000     5.272399962    20.147419614     3.479757421   0   0   0 # hoy
   1676      1   3 -1.050000     5.272399962    21.594699657     4.451270565   0   0   0 # obsk
   1677      1   4 -0.950000     5.272399962    19.217679656     2.991026778   0   0   0 # ohk
   1678      1   1  1.575000     3.765999973    20.832587650     8.881568842   0   0   0 # feok
   1679      1   2  0.425000     3.765999973    22.437419576     6.433950460   0   0   0 # hoy
   1680      1   3 -1.050000     3.765999973    19.304699695     5.462437316   0   0   0 # obsk
   1681      1   4 -0.950000     3.765999973    21.507679618     6.922681103   0   0   0 # ohk
   1682      1   1  1.575000     3.765999973    22.677411625    13.838268690   0   0   0 # feok
   1683      1   2  0.425000     3.765999973    21.072579699    21.304050005   0   0   0 # hoy
   1684      1   3 -1.050000     3.765999973    19.625299657    20.332536860   0   0   0 # obsk
   1685      1   4 -0.950000     3.765999973    22.002319657    21.792780648   0   0   0 # ohk
   1686      1   1  1.575000     5.272399962    20.387411663    15.902238583   0   0   0 # feok
   1687      1   2  0.425000     5.272399962    18.782579737    18.349856965   0   0   0 # hoy
   1688      1   3 -1.050000     5.272399962    21.915299619    19.321370110   0   0   0 # obsk
   1689      1   4 -0.950000     5.272399962    19.712319695    17.861126322   0   0   0 # ohk
   1690      1   1  1.575000     5.272399962    18.542587688    20.858938431   0   0   0 # feok
   1691      1   2  0.425000     5.272399962    20.147419614    13.393157117   0   0   0 # hoy
   1692      1   3 -1.050000     5.272399962    21.594699657    14.364670262   0   0   0 # obsk
   1693      1   4 -0.950000     5.272399962    19.217679656    12.904426474   0   0   0 # ohk
   1694      1   1  1.575000     3.765999973    20.832587650    18.794968539   0   0   0 # feok
   1695      1   2  0.425000     3.765999973    22.437419576    16.347350157   0   0   0 # hoy
   1696      1   3 -1.050000     3.765999973    19.304699695    15.375837012   0   0   0 # obsk
   1697      1   4 -0.950000     3.765999973    21.507679618    16.836080799   0   0   0 # ohk
   1698      1   1  1.575000     3.765999973    22.677411625    23.751668387   0   0   0 # feok
   1699      1   3 -1.109400     3.765999973    19.625299657    30.245936556   0   0   0 # obsk
   1700      1   1  1.575000     5.272399962    20.387411663    25.815638280   0   0   0 # feok
   1701      1   2  0.425000     5.272399962    18.782579737    28.263256661   0   0   0 # hoy
   1702      1   3 -1.050000     5.272399962    21.915299619    29.234769806   0   0   0 # obsk
   1703      1   4 -0.950000     5.272399962    19.712319695    27.774526019   0   0   0 # ohk
   1704      1   2  0.425000     5.272399962    20.147419614    23.306556813   0   0   0 # hoy
   1705      1   3 -1.050000     5.272399962    21.594699657    24.278069958   0   0   0 # obsk
   1706      1   4 -0.950000     5.272399962    19.217679656    22.817826171   0   0   0 # ohk
   1707      1   1  1.575000     3.765999973    20.832587650    28.708368235   0   0   0 # feok
   1708      1   2  0.425000     3.765999973    22.437419576    26.260749853   0   0   0 # hoy
   1709      1   3 -1.050000     3.765999973    19.304699695    25.289236708   0   0   0 # obsk
   1710      1   4 -0.950000     3.765999973    21.507679618    26.749480496   0   0   0 # ohk
   1711      1   1  1.575000     6.778799951    22.677411625     3.924868994   0   0   0 # feok
   1712      1   2  0.425000     6.778799951    21.072579699    11.390650309   0   0   0 # hoy
   1713      1   3 -1.050000     6.778799951    19.625299657    10.419137164   0   0   0 # obsk
   1714      1   4 -0.950000     6.778799951    22.002319657    11.879380951   0   0   0 # ohk
   1715      1   1  1.575000     8.285199940    20.387411663     5.988838887   0   0   0 # feok
   1716      1   2  0.425000     8.285199940    18.782579737     8.436457269   0   0   0 # hoy
   1717      1   3 -1.050000     8.285199940    21.915299619     9.407970414   0   0   0 # obsk
   1718      1   4 -0.950000     8.285199940    19.712319695     7.947726626   0   0   0 # ohk
   1719      1   1  1.575000     8.285199940    18.542587688    10.945538735   0   0   0 # feok
   1720      1   2  0.425000     8.285199940    20.147419614     3.479757421   0   0   0 # hoy
   1721      1   3 -1.050000     8.285199940    21.594699657     4.451270565   0   0   0 # obsk
   1722      1   4 -0.950000     8.285199940    19.217679656     2.991026778   0   0   0 # ohk
   1723      1   1  1.575000     6.778799951    20.832587650     8.881568842   0   0   0 # feok
   1724      1   2  0.425000     6.778799951    22.437419576     6.433950460   0   0   0 # hoy
   1725      1   3 -1.050000     6.778799951    19.304699695     5.462437316   0   0   0 # obsk
   1726      1   4 -0.950000     6.778799951    21.507679618     6.922681103   0   0   0 # ohk
   1727      1   1  1.575000     6.778799951    22.677411625    13.838268690   0   0   0 # feok
   1728      1   2  0.425000     6.778799951    21.072579699    21.304050005   0   0   0 # hoy
   1729      1   3 -1.050000     6.778799951    19.625299657    20.332536860   0   0   0 # obsk
   1730      1   4 -0.950000     6.778799951    22.002319657    21.792780648   0   0   0 # ohk
   1731      1   1  1.575000     8.285199940    20.387411663    15.902238583   0   0   0 # feok
   1732      1   2  0.425000     8.285199940    18.782579737    18.349856965   0   0   0 # hoy
   1733      1   3 -1.050000     8.285199940    21.915299619    19.321370110   0   0   0 # obsk
   1734      1   4 -0.950000     8.285199940    19.712319695    17.861126322   0   0   0 # ohk
   1735      1   1  1.575000     8.285199940    18.542587688    20.858938431   0   0   0 # feok
   1736      1   2  0.425000     8.285199940    20.147419614    13.393157117   0   0   0 # hoy
   1737      1   3 -1.050000     8.285199940    21.594699657    14.364670262   0   0   0 # obsk
   1738      1   4 -0.950000     8.285199940    19.217679656    12.904426474   0   0   0 # ohk
   1739      1   1  1.575000     6.778799951    20.832587650    18.794968539   0   0   0 # feok
   1740      1   2  0.425000     6.778799951    22.437419576    16.347350157   0   0   0 # hoy
   1741      1   3 -1.050000     6.778799951    19.304699695    15.375837012   0   0   0 # obsk
   1742      1   4 -0.950000     6.778799951    21.507679618    16.836080799   0   0   0 # ohk
   1743      1   1  1.575000     6.778799951    22.677411625    23.751668387   0   0   0 # feok
   1744      1   3 -1.050000     6.778799951    19.625299657    30.245936556   0   0   0 # obsk
   1745      1   1  1.575000     8.285199940    20.387411663    25.815638280   0   0   0 # feok
   1746      1   2  0.425000     8.285199940    18.782579737    28.263256661   0   0   0 # hoy
   1747      1   3 -1.109400     8.285199940    21.915299619    29.234769806   0   0   0 # obsk
   1748      1   4 -0.950000     8.285199940    19.712319695    27.774526019   0   0   0 # ohk
   1749      1   2  0.425000     8.285199940    20.147419614    23.306556813   0   0   0 # hoy
   1750      1   3 -1.050000     8.285199940    21.594699657    24.278069958   0   0   0 # obsk
   1751      1   4 -0.950000     8.285199940    19.217679656    22.817826171   0   0   0 # ohk
   1752      1   1  1.575000     6.778799951    20.832587650    28.708368235   0   0   0 # feok
   1753      1   2  0.425000     6.778799951    22.437419576    26.260749853   0   0   0 # hoy
   1754      1   3 -1.050000     6.778799951    19.304699695    25.289236708   0   0   0 # obsk
   1755      1   4 -0.950000     6.778799951    21.507679618    26.749480496   0   0   0 # ohk
   1756      1   1  1.575000     9.791599929    22.677411625     3.924868994   0   0   0 # feok
   1757      1   2  0.425000     9.791599929    21.072579699    11.390650309   0   0   0 # hoy
   1758      1   3 -1.050000     9.791599929    19.625299657    10.419137164   0   0   0 # obsk
   1759      1   4 -0.950000     9.791599929    22.002319657    11.879380951   0   0   0 # ohk
   1760      1   1  1.575000    11.297999918    20.387411663     5.988838887   0   0   0 # feok
   1761      1   2  0.425000    11.297999918    18.782579737     8.436457269   0   0   0 # hoy
   1762      1   3 -1.050000    11.297999918    21.915299619     9.407970414   0   0   0 # obsk
   1763      1   4 -0.950000    11.297999918    19.712319695     7.947726626   0   0   0 # ohk
   1764      1   1  1.575000    11.297999918    18.542587688    10.945538735   0   0   0 # feok
   1765      1   2  0.425000    11.297999918    20.147419614     3.479757421   0   0   0 # hoy
   1766      1   3 -1.050000    11.297999918    21.594699657     4.451270565   0   0   0 # obsk
   1767      1   4 -0.950000    11.297999918    19.217679656     2.991026778   0   0   0 # ohk
   1768      1   1  1.575000     9.791599929    20.832587650     8.881568842   0   0   0 # feok
   1769      1   2  0.425000     9.791599929    22.437419576     6.433950460   0   0   0 # hoy
   1770      1   3 -1.050000     9.791599929    19.304699695     5.462437316   0   0   0 # obsk
   1771      1   4 -0.950000     9.791599929    21.507679618     6.922681103   0   0   0 # ohk
   1772      1   1  1.575000     9.791599929    22.677411625    13.838268690   0   0   0 # feok
   1773      1   2  0.425000     9.791599929    21.072579699    21.304050005   0   0   0 # hoy
   1774      1   3 -1.050000     9.791599929    19.625299657    20.332536860   0   0   0 # obsk
   1775      1   4 -0.950000     9.791599929    22.002319657    21.792780648   0   0   0 # ohk
   1776      1   1  1.575000    11.297999918    20.387411663    15.902238583   0   0   0 # feok
   1777      1   2  0.425000    11.297999918    18.782579737    18.349856965   0   0   0 # hoy
   1778      1   3 -1.050000    11.297999918    21.915299619    19.321370110   0   0   0 # obsk
   1779      1   4 -0.950000    11.297999918    19.712319695    17.861126322   0   0   0 # ohk
   1780      1   1  1.575000    11.297999918    18.542587688    20.858938431   0   0   0 # feok
   1781      1   2  0.425000    11.297999918    20.147419614    13.393157117   0   0   0 # hoy
   1782      1   3 -1.050000    11.297999918    21.594699657    14.364670262   0   0   0 # obsk
   1783      1   4 -0.950000    11.297999918    19.217679656    12.904426474   0   0   0 # ohk
   1784      1   1  1.575000     9.791599929    20.832587650    18.794968539   0   0   0 # feok
   1785      1   2  0.425000     9.791599929    22.437419576    16.347350157   0   0   0 # hoy
   1786      1   3 -1.050000     9.791599929    19.304699695    15.375837012   0   0   0 # obsk
   1787      1   4 -0.950000     9.791599929    21.507679618    16.836080799   0   0   0 # ohk
   1788      1   1  1.575000     9.791599929    22.677411625    23.751668387   0   0   0 # feok
   1789      1   3 -1.050000     9.791599929    19.625299657    30.245936556   0   0   0 # obsk
   1790      1   1  1.575000    11.297999918    20.387411663    25.815638280   0   0   0 # feok
   1791      1   2  0.425000    11.297999918    18.782579737    28.263256661   0   0   0 # hoy
   1792      1   3 -1.050000    11.297999918    21.915299619    29.234769806   0   0   0 # obsk
   1793      1   4 -0.950000    11.297999918    19.712319695    27.774526019   0   0   0 # ohk
   1794      1   2  0.425000    11.297999918    20.147419614    23.306556813   0   0   0 # hoy
   1795      1   3 -1.050000    11.297999918    21.594699657    24.278069958   0   0   0 # obsk
   1796      1   4 -0.950000    11.297999918    19.217679656    22.817826171   0   0   0 # ohk
   1797      1   1  1.575000     9.791599929    20.832587650    28.708368235   0   0   0 # feok
   1798      1   2  0.425000     9.791599929    22.437419576    26.260749853   0   0   0 # hoy
   1799      1   3 -1.050000     9.791599929    19.304699695    25.289236708   0   0   0 # obsk
   1800      1   4 -0.950000     9.791599929    21.507679618    26.749480496   0   0   0 # ohk
   1801      1   1  1.575000    12.804399908    22.677411625     3.924868994   0   0   0 # feok
   1802      1   2  0.425000    12.804399908    21.072579699    11.390650309   0   0   0 # hoy
   1803      1   3 -1.050000    12.804399908    19.625299657    10.419137164   0   0   0 # obsk
   1804      1   4 -0.950000    12.804399908    22.002319657    11.879380951   0   0   0 # ohk
   1805      1   1  1.575000    14.310799897    20.387411663     5.988838887   0   0   0 # feok
   1806      1   2  0.425000    14.310799897    18.782579737     8.436457269   0   0   0 # hoy
   1807      1   3 -1.050000    14.310799897    21.915299619     9.407970414   0   0   0 # obsk
   1808      1   4 -0.950000    14.310799897    19.712319695     7.947726626   0   0   0 # ohk
   1809      1   1  1.575000    14.310799897    18.542587688    10.945538735   0   0   0 # feok
   1810      1   2  0.425000    14.310799897    20.147419614     3.479757421   0   0   0 # hoy
   1811      1   3 -1.050000    14.310799897    21.594699657     4.451270565   0   0   0 # obsk
   1812      1   4 -0.950000    14.310799897    19.217679656     2.991026778   0   0   0 # ohk
   1813      1   1  1.575000    12.804399908    20.832587650     8.881568842   0   0   0 # feok
   1814      1   2  0.425000    12.804399908    22.437419576     6.433950460   0   0   0 # hoy
   1815      1   3 -1.050000    12.804399908    19.304699695     5.462437316   0   0   0 # obsk
   1816      1   4 -0.950000    12.804399908    21.507679618     6.922681103   0   0   0 # ohk
   1817      1   1  1.575000    12.804399908    22.677411625    13.838268690   0   0   0 # feok
   1818      1   2  0.425000    12.804399908    21.072579699    21.304050005   0   0   0 # hoy
   1819      1   3 -1.050000    12.804399908    19.625299657    20.332536860   0   0   0 # obsk
   1820      1   4 -0.950000    12.804399908    22.002319657    21.792780648   0   0   0 # ohk
   1821      1   1  1.575000    14.310799897    20.387411663    15.902238583   0   0   0 # feok
   1822      1   2  0.425000    14.310799897    18.782579737    18.349856965   0   0   0 # hoy
   1823      1   3 -1.050000    14.310799897    21.915299619    19.321370110   0   0   0 # obsk
   1824      1   4 -0.950000    14.310799897    19.712319695    17.861126322   0   0   0 # ohk
   1825      1   1  1.575000    14.310799897    18.542587688    20.858938431   0   0   0 # feok
   1826      1   2  0.425000    14.310799897    20.147419614    13.393157117   0   0   0 # hoy
   1827      1   3 -1.050000    14.310799897    21.594699657    14.364670262   0   0   0 # obsk
   1828      1   4 -0.950000    14.310799897    19.217679656    12.904426474   0   0   0 # ohk
   1829      1   1  1.575000    12.804399908    20.832587650    18.794968539   0   0   0 # feok
   1830      1   2  0.425000    12.804399908    22.437419576    16.347350157   0   0   0 # hoy
   1831      1   3 -1.050000    12.804399908    19.304699695    15.375837012   0   0   0 # obsk
   1832      1   4 -0.950000    12.804399908    21.507679618    16.836080799   0   0   0 # ohk
   1833      1   1  1.575000    12.804399908    22.677411625    23.751668387   0   0   0 # feok
   1834      1   3 -1.109400    12.804399908    19.625299657    30.245936556   0   0   0 # obsk
   1835      1   1  1.575000    14.310799897    20.387411663    25.815638280   0   0   0 # feok
   1836      1   2  0.425000    14.310799897    18.782579737    28.263256661   0   0   0 # hoy
   1837      1   3 -1.050000    14.310799897    21.915299619    29.234769806   0   0   0 # obsk
   1838      1   4 -0.950000    14.310799897    19.712319695    27.774526019   0   0   0 # ohk
   1839      1   2  0.425000    14.310799897    20.147419614    23.306556813   0   0   0 # hoy
   1840      1   3 -1.050000    14.310799897    21.594699657    24.278069958   0   0   0 # obsk
   1841      1   4 -0.950000    14.310799897    19.217679656    22.817826171   0   0   0 # ohk
   1842      1   1  1.575000    12.804399908    20.832587650    28.708368235   0   0   0 # feok
   1843      1   2  0.425000    12.804399908    22.437419576    26.260749853   0   0   0 # hoy
   1844      1   3 -1.050000    12.804399908    19.304699695    25.289236708   0   0   0 # obsk
   1845      1   4 -0.950000    12.804399908    21.507679618    26.749480496   0   0   0 # ohk
   1846      1   1  1.575000    15.817199886    22.677411625     3.924868994   0   0   0 # feok
   1847      1   2  0.425000    15.817199886    21.072579699    11.390650309   0   0   0 # hoy
   1848      1   3 -1.050000    15.817199886    19.625299657    10.419137164   0   0   0 # obsk
   1849      1   4 -0.950000    15.817199886    22.002319657    11.879380951   0   0   0 # ohk
   1850      1   1  1.575000    17.323599875    20.387411663     5.988838887   0   0   0 # feok
   1851      1   2  0.425000    17.323599875    18.782579737     8.436457269   0   0   0 # hoy
   1852      1   3 -1.050000    17.323599875    21.915299619     9.407970414   0   0   0 # obsk
   1853      1   4 -0.950000    17.323599875    19.712319695     7.947726626   0   0   0 # ohk
   1854      1   1  1.575000    17.323599875    18.542587688    10.945538735   0   0   0 # feok
   1855      1   2  0.425000    17.323599875    20.147419614     3.479757421   0   0   0 # hoy
   1856      1   3 -1.050000    17.323599875    21.594699657     4.451270565   0   0   0 # obsk
   1857      1   4 -0.950000    17.323599875    19.217679656     2.991026778   0   0   0 # ohk
   1858      1   1  1.575000    15.817199886    20.832587650     8.881568842   0   0   0 # feok
   1859      1   2  0.425000    15.817199886    22.437419576     6.433950460   0   0   0 # hoy
   1860      1   3 -1.050000    15.817199886    19.304699695     5.462437316   0   0   0 # obsk
   1861      1   4 -0.950000    15.817199886    21.507679618     6.922681103   0   0   0 # ohk
   1862      1   1  1.575000    15.817199886    22.677411625    13.838268690   0   0   0 # feok
   1863      1   2  0.425000    15.817199886    21.072579699    21.304050005   0   0   0 # hoy
   1864      1   3 -1.050000    15.817199886    19.625299657    20.332536860   0   0   0 # obsk
   1865      1   4 -0.950000    15.817199886    22.002319657    21.792780648   0   0   0 # ohk
   1866      1   1  1.575000    17.323599875    20.387411663    15.902238583   0   0   0 # feok
   1867      1   2  0.425000    17.323599875    18.782579737    18.349856965   0   0   0 # hoy
   1868      1   3 -1.050000    17.323599875    21.915299619    19.321370110   0   0   0 # obsk
   1869      1   4 -0.950000    17.323599875    19.712319695    17.861126322   0   0   0 # ohk
   1870      1   1  1.575000    17.323599875    18.542587688    20.858938431   0   0   0 # feok
   1871      1   2  0.425000    17.323599875    20.147419614    13.393157117   0   0   0 # hoy
   1872      1   3 -1.050000    17.323599875    21.594699657    14.364670262   0   0   0 # obsk
   1873      1   4 -0.950000    17.323599875    19.217679656    12.904426474   0   0   0 # ohk
   1874      1   1  1.575000    15.817199886    20.832587650    18.794968539   0   0   0 # feok
   1875      1   2  0.425000    15.817199886    22.437419576    16.347350157   0   0   0 # hoy
   1876      1   3 -1.050000    15.817199886    19.304699695    15.375837012   0   0   0 # obsk
   1877      1   4 -0.950000    15.817199886    21.507679618    16.836080799   0   0   0 # ohk
   1878      1   1  1.575000    15.817199886    22.677411625    23.751668387   0   0   0 # feok
   1879      1   3 -1.109400    15.817199886    19.625299657    30.245936556   0   0   0 # obsk
   1880      1   1  1.575000    17.323599875    20.387411663    25.815638280   0   0   0 # feok
   1881      1   2  0.425000    17.323599875    18.782579737    28.263256661   0   0   0 # hoy
   1882      1   3 -1.050000    17.323599875    21.915299619    29.234769806   0   0   0 # obsk
   1883      1   4 -0.950000    17.323599875    19.712319695    27.774526019   0   0   0 # ohk
   1884      1   2  0.425000    17.323599875    20.147419614    23.306556813   0   0   0 # hoy
   1885      1   3 -1.050000    17.323599875    21.594699657    24.278069958   0   0   0 # obsk
   1886      1   4 -0.950000    17.323599875    19.217679656    22.817826171   0   0   0 # ohk
   1887      1   1  1.575000    15.817199886    20.832587650    28.708368235   0   0   0 # feok
   1888      1   2  0.425000    15.817199886    22.437419576    26.260749853   0   0   0 # hoy
   1889      1   3 -1.050000    15.817199886    19.304699695    25.289236708   0   0   0 # obsk
   1890      1   4 -0.950000    15.817199886    21.507679618    26.749480496   0   0   0 # ohk
   1891      1   1  1.575000    18.829999864    22.677411625     3.924868994   0   0   0 # feok
   1892      1   2  0.425000    18.829999864    21.072579699    11.390650309   0   0   0 # hoy
   1893      1   3 -1.050000    18.829999864    19.625299657    10.419137164   0   0   0 # obsk
   1894      1   4 -0.950000    18.829999864    22.002319657    11.879380951   0   0   0 # ohk
   1895      1   1  1.575000    20.336399853    20.387411663     5.988838887   0   0   0 # feok
   1896      1   2  0.425000    20.336399853    18.782579737     8.436457269   0   0   0 # hoy
   1897      1   3 -1.050000    20.336399853    21.915299619     9.407970414   0   0   0 # obsk
   1898      1   4 -0.950000    20.336399853    19.712319695     7.947726626   0   0   0 # ohk
   1899      1   1  1.575000    20.336399853    18.542587688    10.945538735   0   0   0 # feok
   1900      1   2  0.425000    20.336399853    20.147419614     3.479757421   0   0   0 # hoy
   1901      1   3 -1.050000    20.336399853    21.594699657     4.451270565   0   0   0 # obsk
   1902      1   4 -0.950000    20.336399853    19.217679656     2.991026778   0   0   0 # ohk
   1903      1   1  1.575000    18.829999864    20.832587650     8.881568842   0   0   0 # feok
   1904      1   2  0.425000    18.829999864    22.437419576     6.433950460   0   0   0 # hoy
   1905      1   3 -1.050000    18.829999864    19.304699695     5.462437316   0   0   0 # obsk
   1906      1   4 -0.950000    18.829999864    21.507679618     6.922681103   0   0   0 # ohk
   1907      1   1  1.575000    18.829999864    22.677411625    13.838268690   0   0   0 # feok
   1908      1   2  0.425000    18.829999864    21.072579699    21.304050005   0   0   0 # hoy
   1909      1   3 -1.050000    18.829999864    19.625299657    20.332536860   0   0   0 # obsk
   1910      1   4 -0.950000    18.829999864    22.002319657    21.792780648   0   0   0 # ohk
   1911      1   1  1.575000    20.336399853    20.387411663    15.902238583   0   0   0 # feok
   1912      1   2  0.425000    20.336399853    18.782579737    18.349856965   0   0   0 # hoy
   1913      1   3 -1.050000    20.336399853    21.915299619    19.321370110   0   0   0 # obsk
   1914      1   4 -0.950000    20.336399853    19.712319695    17.861126322   0   0   0 # ohk
   1915      1   1  1.575000    20.336399853    18.542587688    20.858938431   0   0   0 # feok
   1916      1   2  0.425000    20.336399853    20.147419614    13.393157117   0   0   0 # hoy
   1917      1   3 -1.050000    20.336399853    21.594699657    14.364670262   0   0   0 # obsk
   1918      1   4 -0.950000    20.336399853    19.217679656    12.904426474   0   0   0 # ohk
   1919      1   1  1.575000    18.829999864    20.832587650    18.794968539   0   0   0 # feok
   1920      1   2  0.425000    18.829999864    22.437419576    16.347350157   0   0   0 # hoy
   1921      1   3 -1.050000    18.829999864    19.304699695    15.375837012   0   0   0 # obsk
   1922      1   4 -0.950000    18.829999864    21.507679618    16.836080799   0   0   0 # ohk
   1923      1   1  1.575000    18.829999864    22.677411625    23.751668387   0   0   0 # feok
   1924      1   3 -1.050000    18.829999864    19.625299657    30.245936556   0   0   0 # obsk
   1925      1   1  1.575000    20.336399853    20.387411663    25.815638280   0   0   0 # feok
   1926      1   2  0.425000    20.336399853    18.782579737    28.263256661   0   0   0 # hoy
   1927      1   3 -1.109400    20.336399853    21.915299619    29.234769806   0   0   0 # obsk
   1928      1   4 -0.950000    20.336399853    19.712319695    27.774526019   0   0   0 # ohk
   1929      1   2  0.425000    20.336399853    20.147419614    23.306556813   0   0   0 # hoy
   1930      1   3 -1.050000    20.336399853    21.594699657    24.278069958   0   0   0 # obsk
   1931      1   4 -0.950000    20.336399853    19.217679656    22.817826171   0   0   0 # ohk
   1932      1   1  1.575000    18.829999864    20.832587650    28.708368235   0   0   0 # feok
   1933      1   2  0.425000    18.829999864    22.437419576    26.260749853   0   0   0 # hoy
   1934      1   3 -1.050000    18.829999864    19.304699695    25.289236708   0   0   0 # obsk
   1935      1   4 -0.950000    18.829999864    21.507679618    26.749480496   0   0   0 # ohk
   1936      1   1  1.575000    21.842799842    22.677411625     3.924868994   0   0   0 # feok
   1937      1   2  0.425000    21.842799842    21.072579699    11.390650309   0   0   0 # hoy
   1938      1   3 -1.050000    21.842799842    19.625299657    10.419137164   0   0   0 # obsk
   1939      1   4 -0.950000    21.842799842    22.002319657    11.879380951   0   0   0 # ohk
   1940      1   1  1.575000    23.349199831    20.387411663     5.988838887   0   0   0 # feok
   1941      1   2  0.425000    23.349199831    18.782579737     8.436457269   0   0   0 # hoy
   1942      1   3 -1.050000    23.349199831    21.915299619     9.407970414   0   0   0 # obsk
   1943      1   4 -0.950000    23.349199831    19.712319695     7.947726626   0   0   0 # ohk
   1944      1   1  1.575000    23.349199831    18.542587688    10.945538735   0   0   0 # feok
   1945      1   2  0.425000    23.349199831    20.147419614     3.479757421   0   0   0 # hoy
   1946      1   3 -1.050000    23.349199831    21.594699657     4.451270565   0   0   0 # obsk
   1947      1   4 -0.950000    23.349199831    19.217679656     2.991026778   0   0   0 # ohk
   1948      1   1  1.575000    21.842799842    20.832587650     8.881568842   0   0   0 # feok
   1949      1   2  0.425000    21.842799842    22.437419576     6.433950460   0   0   0 # hoy
   1950      1   3 -1.050000    21.842799842    19.304699695     5.462437316   0   0   0 # obsk
   1951      1   4 -0.950000    21.842799842    21.507679618     6.922681103   0   0   0 # ohk
   1952      1   1  1.575000    21.842799842    22.677411625    13.838268690   0   0   0 # feok
   1953      1   2  0.425000    21.842799842    21.072579699    21.304050005   0   0   0 # hoy
   1954      1   3 -1.050000    21.842799842    19.625299657    20.332536860   0   0   0 # obsk
   1955      1   4 -0.950000    21.842799842    22.002319657    21.792780648   0   0   0 # ohk
   1956      1   1  1.575000    23.349199831    20.387411663    15.902238583   0   0   0 # feok
   1957      1   2  0.425000    23.349199831    18.782579737    18.349856965   0   0   0 # hoy
   1958      1   3 -1.050000    23.349199831    21.915299619    19.321370110   0   0   0 # obsk
   1959      1   4 -0.950000    23.349199831    19.712319695    17.861126322   0   0   0 # ohk
   1960      1   1  1.575000    23.349199831    18.542587688    20.858938431   0   0   0 # feok
   1961      1   2  0.425000    23.349199831    20.147419614    13.393157117   0   0   0 # hoy
   1962      1   3 -1.050000    23.349199831    21.594699657    14.364670262   0   0   0 # obsk
   1963      1   4 -0.950000    23.349199831    19.217679656    12.904426474   0   0   0 # ohk
   1964      1   1  1.575000    21.842799842    20.832587650    18.794968539   0   0   0 # feok
   1965      1   2  0.425000    21.842799842    22.437419576    16.347350157   0   0   0 # hoy
   1966      1   3 -1.050000    21.842799842    19.304699695    15.375837012   0   0   0 # obsk
   1967      1   4 -0.950000    21.842799842    21.507679618    16.836080799   0   0   0 # ohk
   1968      1   1  1.575000    21.842799842    22.677411625    23.751668387   0   0   0 # feok
   1969      1   3 -1.109400    21.842799842    19.625299657    30.245936556   0   0   0 # obsk
   1970      1   1  1.575000    23.349199831    20.387411663    25.815638280   0   0   0 # feok
   1971      1   2  0.425000    23.349199831    18.782579737    28.263256661   0   0   0 # hoy
   1972      1   3 -1.050000    23.349199831    21.915299619    29.234769806   0   0   0 # obsk
   1973      1   4 -0.950000    23.349199831    19.712319695    27.774526019   0   0   0 # ohk
   1974      1   2  0.425000    23.349199831    20.147419614    23.306556813   0   0   0 # hoy
   1975      1   3 -1.050000    23.349199831    21.594699657    24.278069958   0   0   0 # obsk
   1976      1   4 -0.950000    23.349199831    19.217679656    22.817826171   0   0   0 # ohk
   1977      1   1  1.575000    21.842799842    20.832587650    28.708368235   0   0   0 # feok
   1978      1   2  0.425000    21.842799842    22.437419576    26.260749853   0   0   0 # hoy
   1979      1   3 -1.050000    21.842799842    19.304699695    25.289236708   0   0   0 # obsk
   1980      1   4 -0.950000    21.842799842    21.507679618    26.749480496   0   0   0 # ohk
   1981      1   1  1.575000    24.855599821    22.677411625     3.924868994   0   0   0 # feok
   1982      1   2  0.425000    24.855599821    21.072579699    11.390650309   0   0   0 # hoy
   1983      1   3 -1.050000    24.855599821    19.625299657    10.419137164   0   0   0 # obsk
   1984      1   4 -0.950000    24.855599821    22.002319657    11.879380951   0   0   0 # ohk
   1985      1   1  1.575000    26.361999810    20.387411663     5.988838887   0   0   0 # feok
   1986      1   2  0.425000    26.361999810    18.782579737     8.436457269   0   0   0 # hoy
   1987      1   3 -1.050000    26.361999810    21.915299619     9.407970414   0   0   0 # obsk
   1988      1   4 -0.950000    26.361999810    19.712319695     7.947726626   0   0   0 # ohk
   1989      1   1  1.575000    26.361999810    18.542587688    10.945538735   0   0   0 # feok
   1990      1   2  0.425000    26.361999810    20.147419614     3.479757421   0   0   0 # hoy
   1991      1   3 -1.050000    26.361999810    21.594699657     4.451270565   0   0   0 # obsk
   1992      1   4 -0.950000    26.361999810    19.217679656     2.991026778   0   0   0 # ohk
   1993      1   1  1.575000    24.855599821    20.832587650     8.881568842   0   0   0 # feok
   1994      1   2  0.425000    24.855599821    22.437419576     6.433950460   0   0   0 # hoy
   1995      1   3 -1.050000    24.855599821    19.304699695     5.462437316   0   0   0 # obsk
   1996      1   4 -0.950000    24.855599821    21.507679618     6.922681103   0   0   0 # ohk
   1997      1   1  1.575000    24.855599821    22.677411625    13.838268690   0   0   0 # feok
   1998      1   2  0.425000    24.855599821    21.072579699    21.304050005   0   0   0 # hoy
   1999      1   3 -1.050000    24.855599821    19.625299657    20.332536860   0   0   0 # obsk
   2000      1   4 -0.950000    24.855599821    22.002319657    21.792780648   0   0   0 # ohk
   2001      1   1  1.575000    26.361999810    20.387411663    15.902238583   0   0   0 # feok
   2002      1   2  0.425000    26.361999810    18.782579737    18.349856965   0   0   0 # hoy
   2003      1   3 -1.050000    26.361999810    21.915299619    19.321370110   0   0   0 # obsk
   2004      1   4 -0.950000    26.361999810    19.712319695    17.861126322   0   0   0 # ohk
   2005      1   1  1.575000    26.361999810    18.542587688    20.858938431   0   0   0 # feok
   2006      1   2  0.425000    26.361999810    20.147419614    13.393157117   0   0   0 # hoy
   2007      1   3 -1.050000    26.361999810    21.594699657    14.364670262   0   0   0 # obsk
   2008      1   4 -0.950000    26.361999810    19.217679656    12.904426474   0   0   0 # ohk
   2009      1   1  1.575000    24.855599821    20.832587650    18.794968539   0   0   0 # feok
   2010      1   2  0.425000    24.855599821    22.437419576    16.347350157   0   0   0 # hoy
   2011      1   3 -1.050000    24.855599821    19.304699695    15.375837012   0   0   0 # obsk
   2012      1   4 -0.950000    24.855599821    21.507679618    16.836080799   0   0   0 # ohk
   2013      1   1  1.575000    24.855599821    22.677411625    23.751668387   0   0   0 # feok
   2014      1   3 -1.109400    24.855599821    19.625299657    30.245936556   0   0   0 # obsk
   2015      1   1  1.575000    26.361999810    20.387411663    25.815638280   0   0   0 # feok
   2016      1   2  0.425000    26.361999810    18.782579737    28.263256661   0   0   0 # hoy
   2017      1   3 -1.050000    26.361999810    21.915299619    29.234769806   0   0   0 # obsk
   2018      1   4 -0.950000    26.361999810    19.712319695    27.774526019   0   0   0 # ohk
   2019      1   2  0.425000    26.361999810    20.147419614    23.306556813   0   0   0 # hoy
   2020      1   3 -1.050000    26.361999810    21.594699657    24.278069958   0   0   0 # obsk
   2021      1   4 -0.950000    26.361999810    19.217679656    22.817826171   0   0   0 # ohk
   2022      1   1  1.575000    24.855599821    20.832587650    28.708368235   0   0   0 # feok
   2023      1   2  0.425000    24.855599821    22.437419576    26.260749853   0   0   0 # hoy
   2024      1   3 -1.050000    24.855599821    19.304699695    25.289236708   0   0   0 # obsk
   2025      1   4 -0.950000    24.855599821    21.507679618    26.749480496   0   0   0 # ohk
   2026      1   1  1.575000     0.753199995    27.257411549     3.924868994   0   0   0 # feok
   2027      1   2  0.425000     0.753199995    25.652579623    11.390650309   0   0   0 # hoy
   2028      1   3 -1.050000     0.753199995    24.205299580    10.419137164   0   0   0 # obsk
   2029      1   4 -0.950000     0.753199995    26.582319581    11.879380951   0   0   0 # ohk
   2030      1   1  1.575000     2.259599984    24.967411587     5.988838887   0   0   0 # feok
   2031      1   2  0.425000     2.259599984    23.362579661     8.436457269   0   0   0 # hoy
   2032      1   3 -1.050000     2.259599984    26.495299542     9.407970414   0   0   0 # obsk
   2033      1   4 -0.950000     2.259599984    24.292319619     7.947726626   0   0   0 # ohk
   2034      1   1  1.575000     2.259599984    23.122587612    10.945538735   0   0   0 # feok
   2035      1   2  0.425000     2.259599984    24.727419538     3.479757421   0   0   0 # hoy
   2036      1   3 -1.050000     2.259599984    26.174699580     4.451270565   0   0   0 # obsk
   2037      1   4 -0.950000     2.259599984    23.797679580     2.991026778   0   0   0 # ohk
   2038      1   1  1.575000     0.753199995    25.412587574     8.881568842   0   0   0 # feok
   2039      1   2  0.425000     0.753199995    27.017419500     6.433950460   0   0   0 # hoy
   2040      1   3 -1.050000     0.753199995    23.884699619     5.462437316   0   0   0 # obsk
   2041      1   4 -0.950000     0.753199995    26.087679542     6.922681103   0   0   0 # ohk
   2042      1   1  1.575000     0.753199995    27.257411549    13.838268690   0   0   0 # feok
   2043      1   2  0.425000     0.753199995    25.652579623    21.304050005   0   0   0 # hoy
   2044      1   3 -1.050000     0.753199995    24.205299580    20.332536860   0   0   0 # obsk
   2045      1   4 -0.950000     0.753199995    26.582319581    21.792780648   0   0   0 # ohk
   2046      1   1  1.575000     2.259599984    24.967411587    15.902238583   0   0   0 # feok
   2047      1   2  0.425000     2.259599984    23.362579661    18.349856965   0   0   0 # hoy
   2048      1   3 -1.050000     2.259599984    26.495299542    19.321370110   0   0   0 # obsk
   2049      1   4 -0.950000     2.259599984    24.292319619    17.861126322   0   0   0 # ohk
   2050      1   1  1.575000     2.259599984    23.122587612    20.858938431   0   0   0 # feok
   2051      1   2  0.425000     2.259599984    24.727419538    13.393157117   0   0   0 # hoy
   2052      1   3 -1.050000     2.259599984    26.174699580    14.364670262   0   0   0 # obsk
   2053      1   4 -0.950000     2.259599984    23.797679580    12.904426474   0   0   0 # ohk
   2054      1   1  1.575000     0.753199995    25.412587574    18.794968539   0   0   0 # feok
   2055      1   2  0.425000     0.753199995    27.017419500    16.347350157   0   0   0 # hoy
   2056      1   3 -1.050000     0.753199995    23.884699619    15.375837012   0   0   0 # obsk
   2057      1   4 -0.950000     0.753199995    26.087679542    16.836080799   0   0   0 # ohk
   2058      1   1  1.575000     0.753199995    27.257411549    23.751668387   0   0   0 # feok
   2059      1   3 -1.050000     0.753199995    24.205299580    30.245936556   0   0   0 # obsk
   2060      1   1  1.575000     2.259599984    24.967411587    25.815638280   0   0   0 # feok
   2061      1   2  0.425000     2.259599984    23.362579661    28.263256661   0   0   0 # hoy
   2062      1   3 -1.109400     2.259599984    26.495299542    29.234769806   0   0   0 # obsk
   2063      1   4 -0.950000     2.259599984    24.292319619    27.774526019   0   0   0 # ohk
   2064      1   2  0.425000     2.259599984    24.727419538    23.306556813   0   0   0 # hoy
   2065      1   3 -1.050000     2.259599984    26.174699580    24.278069958   0   0   0 # obsk
   2066      1   4 -0.950000     2.259599984    23.797679580    22.817826171   0   0   0 # ohk
   2067      1   1  1.575000     0.753199995    25.412587574    28.708368235   0   0   0 # feok
   2068      1   2  0.425000     0.753199995    27.017419500    26.260749853   0   0   0 # hoy
   2069      1   3 -1.050000     0.753199995    23.884699619    25.289236708   0   0   0 # obsk
   2070      1   4 -0.950000     0.753199995    26.087679542    26.749480496   0   0   0 # ohk
   2071      1   1  1.575000     3.765999973    27.257411549     3.924868994   0   0   0 # feok
   2072      1   2  0.425000     3.765999973    25.652579623    11.390650309   0   0   0 # hoy
   2073      1   3 -1.050000     3.765999973    24.205299580    10.419137164   0   0   0 # obsk
   2074      1   4 -0.950000     3.765999973    26.582319581    11.879380951   0   0   0 # ohk
   2075      1   1  1.575000     5.272399962    24.967411587     5.988838887   0   0   0 # feok
   2076      1   2  0.425000     5.272399962    23.362579661     8.436457269   0   0   0 # hoy
   2077      1   3 -1.050000     5.272399962    26.495299542     9.407970414   0   0   0 # obsk
   2078      1   4 -0.950000     5.272399962    24.292319619     7.947726626   0   0   0 # ohk
   2079      1   1  1.575000     5.272399962    23.122587612    10.945538735   0   0   0 # feok
   2080      1   2  0.425000     5.272399962    24.727419538     3.479757421   0   0   0 # hoy
   2081      1   3 -1.050000     5.272399962    26.174699580     4.451270565   0   0   0 # obsk
   2082      1   4 -0.950000     5.272399962    23.797679580     2.991026778   0   0   0 # ohk
   2083      1   1  1.575000     3.765999973    25.412587574     8.881568842   0   0   0 # feok
   2084      1   2  0.425000     3.765999973    27.017419500     6.433950460   0   0   0 # hoy
   2085      1   3 -1.050000     3.765999973    23.884699619     5.462437316   0   0   0 # obsk
   2086      1   4 -0.950000     3.765999973    26.087679542     6.922681103   0   0   0 # ohk
   2087      1   1  1.575000     3.765999973    27.257411549    13.838268690   0   0   0 # feok
   2088      1   2  0.425000     3.765999973    25.652579623    21.304050005   0   0   0 # hoy
   2089      1   3 -1.050000     3.765999973    24.205299580    20.332536860   0   0   0 # obsk
   2090      1   4 -0.950000     3.765999973    26.582319581    21.792780648   0   0   0 # ohk
   2091      1   1  1.575000     5.272399962    24.967411587    15.902238583   0   0   0 # feok
   2092      1   2  0.425000     5.272399962    23.362579661    18.349856965   0   0   0 # hoy
   2093      1   3 -1.050000     5.272399962    26.495299542    19.321370110   0   0   0 # obsk
   2094      1   4 -0.950000     5.272399962    24.292319619    17.861126322   0   0   0 # ohk
   2095      1   1  1.575000     5.272399962    23.122587612    20.858938431   0   0   0 # feok
   2096      1   2  0.425000     5.272399962    24.727419538    13.393157117   0   0   0 # hoy
   2097      1   3 -1.050000     5.272399962    26.174699580    14.364670262   0   0   0 # obsk
   2098      1   4 -0.950000     5.272399962    23.797679580    12.904426474   0   0   0 # ohk
   2099      1   1  1.575000     3.765999973    25.412587574    18.794968539   0   0   0 # feok
   2100      1   2  0.425000     3.765999973    27.017419500    16.347350157   0   0   0 # hoy
   2101      1   3 -1.050000     3.765999973    23.884699619    15.375837012   0   0   0 # obsk
   2102      1   4 -0.950000     3.765999973    26.087679542    16.836080799   0   0   0 # ohk
   2103      1   1  1.575000     3.765999973    27.257411549    23.751668387   0   0   0 # feok
   2104      1   3 -1.050000     3.765999973    24.205299580    30.245936556   0   0   0 # obsk
   2105      1   1  1.575000     5.272399962    24.967411587    25.815638280   0   0   0 # feok
   2106      1   2  0.425000     5.272399962    23.362579661    28.263256661   0   0   0 # hoy
   2107      1   3 -1.050000     5.272399962    26.495299542    29.234769806   0   0   0 # obsk
   2108      1   4 -0.950000     5.272399962    24.292319619    27.774526019   0   0   0 # ohk
   2109      1   2  0.425000     5.272399962    24.727419538    23.306556813   0   0   0 # hoy
   2110      1   3 -1.050000     5.272399962    26.174699580    24.278069958   0   0   0 # obsk
   2111      1   4 -0.950000     5.272399962    23.797679580    22.817826171   0   0   0 # ohk
   2112      1   1  1.575000     3.765999973    25.412587574    28.708368235   0   0   0 # feok
   2113      1   2  0.425000     3.765999973    27.017419500    26.260749853   0   0   0 # hoy
   2114      1   3 -1.050000     3.765999973    23.884699619    25.289236708   0   0   0 # obsk
   2115      1   4 -0.950000     3.765999973    26.087679542    26.749480496   0   0   0 # ohk
   2116      1   1  1.575000     6.778799951    27.257411549     3.924868994   0   0   0 # feok
   2117      1   2  0.425000     6.778799951    25.652579623    11.390650309   0   0   0 # hoy
   2118      1   3 -1.050000     6.778799951    24.205299580    10.419137164   0   0   0 # obsk
   2119      1   4 -0.950000     6.778799951    26.582319581    11.879380951   0   0   0 # ohk
   2120      1   1  1.575000     8.285199940    24.967411587     5.988838887   0   0   0 # feok
   2121      1   2  0.425000     8.285199940    23.362579661     8.436457269   0   0   0 # hoy
   2122      1   3 -1.050000     8.285199940    26.495299542     9.407970414   0   0   0 # obsk
   2123      1   4 -0.950000     8.285199940    24.292319619     7.947726626   0   0   0 # ohk
   2124      1   1  1.575000     8.285199940    23.122587612    10.945538735   0   0   0 # feok
   2125      1   2  0.425000     8.285199940    24.727419538     3.479757421   0   0   0 # hoy
   2126      1   3 -1.050000     8.285199940    26.174699580     4.451270565   0   0   0 # obsk
   2127      1   4 -0.950000     8.285199940    23.797679580     2.991026778   0   0   0 # ohk
   2128      1   1  1.575000     6.778799951    25.412587574     8.881568842   0   0   0 # feok
   2129      1   2  0.425000     6.778799951    27.017419500     6.433950460   0   0   0 # hoy
   2130      1   3 -1.050000     6.778799951    23.884699619     5.462437316   0   0   0 # obsk
   2131      1   4 -0.950000     6.778799951    26.087679542     6.922681103   0   0   0 # ohk
   2132      1   1  1.575000     6.778799951    27.257411549    13.838268690   0   0   0 # feok
   2133      1   2  0.425000     6.778799951    25.652579623    21.304050005   0   0   0 # hoy
   2134      1   3 -1.050000     6.778799951    24.205299580    20.332536860   0   0   0 # obsk
   2135      1   4 -0.950000     6.778799951    26.582319581    21.792780648   0   0   0 # ohk
   2136      1   1  1.575000     8.285199940    24.967411587    15.902238583   0   0   0 # feok
   2137      1   2  0.425000     8.285199940    23.362579661    18.349856965   0   0   0 # hoy
   2138      1   3 -1.050000     8.285199940    26.495299542    19.321370110   0   0   0 # obsk
   2139      1   4 -0.950000     8.285199940    24.292319619    17.861126322   0   0   0 # ohk
   2140      1   1  1.575000     8.285199940    23.122587612    20.858938431   0   0   0 # feok
   2141      1   2  0.425000     8.285199940    24.727419538    13.393157117   0   0   0 # hoy
   2142      1   3 -1.050000     8.285199940    26.174699580    14.364670262   0   0   0 # obsk
   2143      1   4 -0.950000     8.285199940    23.797679580    12.904426474   0   0   0 # ohk
   2144      1   1  1.575000     6.778799951    25.412587574    18.794968539   0   0   0 # feok
   2145      1   2  0.425000     6.778799951    27.017419500    16.347350157   0   0   0 # hoy
   2146      1   3 -1.050000     6.778799951    23.884699619    15.375837012   0   0   0 # obsk
   2147      1   4 -0.950000     6.778799951    26.087679542    16.836080799   0   0   0 # ohk
   2148      1   1  1.575000     6.778799951    27.257411549    23.751668387   0   0   0 # feok
   2149      1   3 -1.109400     6.778799951    24.205299580    30.245936556   0   0   0 # obsk
   2150      1   1  1.575000     8.285199940    24.967411587    25.815638280   0   0   0 # feok
   2151      1   2  0.425000     8.285199940    23.362579661    28.263256661   0   0   0 # hoy
   2152      1   3 -1.050000     8.285199940    26.495299542    29.234769806   0   0   0 # obsk
   2153      1   4 -0.950000     8.285199940    24.292319619    27.774526019   0   0   0 # ohk
   2154      1   2  0.425000     8.285199940    24.727419538    23.306556813   0   0   0 # hoy
   2155      1   3 -1.050000     8.285199940    26.174699580    24.278069958   0   0   0 # obsk
   2156      1   4 -0.950000     8.285199940    23.797679580    22.817826171   0   0   0 # ohk
   2157      1   1  1.575000     6.778799951    25.412587574    28.708368235   0   0   0 # feok
   2158      1   2  0.425000     6.778799951    27.017419500    26.260749853   0   0   0 # hoy
   2159      1   3 -1.050000     6.778799951    23.884699619    25.289236708   0   0   0 # obsk
   2160      1   4 -0.950000     6.778799951    26.087679542    26.749480496   0   0   0 # ohk
   2161      1   1  1.575000     9.791599929    27.257411549     3.924868994   0   0   0 # feok
   2162      1   2  0.425000     9.791599929    25.652579623    11.390650309   0   0   0 # hoy
   2163      1   3 -1.050000     9.791599929    24.205299580    10.419137164   0   0   0 # obsk
   2164      1   4 -0.950000     9.791599929    26.582319581    11.879380951   0   0   0 # ohk
   2165      1   1  1.575000    11.297999918    24.967411587     5.988838887   0   0   0 # feok
   2166      1   2  0.425000    11.297999918    23.362579661     8.436457269   0   0   0 # hoy
   2167      1   3 -1.050000    11.297999918    26.495299542     9.407970414   0   0   0 # obsk
   2168      1   4 -0.950000    11.297999918    24.292319619     7.947726626   0   0   0 # ohk
   2169      1   1  1.575000    11.297999918    23.122587612    10.945538735   0   0   0 # feok
   2170      1   2  0.425000    11.297999918    24.727419538     3.479757421   0   0   0 # hoy
   2171      1   3 -1.050000    11.297999918    26.174699580     4.451270565   0   0   0 # obsk
   2172      1   4 -0.950000    11.297999918    23.797679580     2.991026778   0   0   0 # ohk
   2173      1   1  1.575000     9.791599929    25.412587574     8.881568842   0   0   0 # feok
   2174      1   2  0.425000     9.791599929    27.017419500     6.433950460   0   0   0 # hoy
   2175      1   3 -1.050000     9.791599929    23.884699619     5.462437316   0   0   0 # obsk
   2176      1   4 -0.950000     9.791599929    26.087679542     6.922681103   0   0   0 # ohk
   2177      1   1  1.575000     9.791599929    27.257411549    13.838268690   0   0   0 # feok
   2178      1   2  0.425000     9.791599929    25.652579623    21.304050005   0   0   0 # hoy
   2179      1   3 -1.050000     9.791599929    24.205299580    20.332536860   0   0   0 # obsk
   2180      1   4 -0.950000     9.791599929    26.582319581    21.792780648   0   0   0 # ohk
   2181      1   1  1.575000    11.297999918    24.967411587    15.902238583   0   0   0 # feok
   2182      1   2  0.425000    11.297999918    23.362579661    18.349856965   0   0   0 # hoy
   2183      1   3 -1.050000    11.297999918    26.495299542    19.321370110   0   0   0 # obsk
   2184      1   4 -0.950000    11.297999918    24.292319619    17.861126322   0   0   0 # ohk
   2185      1   1  1.575000    11.297999918    23.122587612    20.858938431   0   0   0 # feok
   2186      1   2  0.425000    11.297999918    24.727419538    13.393157117   0   0   0 # hoy
   2187      1   3 -1.050000    11.297999918    26.174699580    14.364670262   0   0   0 # obsk
   2188      1   4 -0.950000    11.297999918    23.797679580    12.904426474   0   0   0 # ohk
   2189      1   1  1.575000     9.791599929    25.412587574    18.794968539   0   0   0 # feok
   2190      1   2  0.425000     9.791599929    27.017419500    16.347350157   0   0   0 # hoy
   2191      1   3 -1.050000     9.791599929    23.884699619    15.375837012   0   0   0 # obsk
   2192      1   4 -0.950000     9.791599929    26.087679542    16.836080799   0   0   0 # ohk
   2193      1   1  1.575000     9.791599929    27.257411549    23.751668387   0   0   0 # feok
   2194      1   3 -1.109400     9.791599929    24.205299580    30.245936556   0   0   0 # obsk
   2195      1   1  1.575000    11.297999918    24.967411587    25.815638280   0   0   0 # feok
   2196      1   2  0.425000    11.297999918    23.362579661    28.263256661   0   0   0 # hoy
   2197      1   3 -1.050000    11.297999918    26.495299542    29.234769806   0   0   0 # obsk
   2198      1   4 -0.950000    11.297999918    24.292319619    27.774526019   0   0   0 # ohk
   2199      1   2  0.425000    11.297999918    24.727419538    23.306556813   0   0   0 # hoy
   2200      1   3 -1.050000    11.297999918    26.174699580    24.278069958   0   0   0 # obsk
   2201      1   4 -0.950000    11.297999918    23.797679580    22.817826171   0   0   0 # ohk
   2202      1   1  1.575000     9.791599929    25.412587574    28.708368235   0   0   0 # feok
   2203      1   2  0.425000     9.791599929    27.017419500    26.260749853   0   0   0 # hoy
   2204      1   3 -1.050000     9.791599929    23.884699619    25.289236708   0   0   0 # obsk
   2205      1   4 -0.950000     9.791599929    26.087679542    26.749480496   0   0   0 # ohk
   2206      1   1  1.575000    12.804399908    27.257411549     3.924868994   0   0   0 # feok
   2207      1   2  0.425000    12.804399908    25.652579623    11.390650309   0   0   0 # hoy
   2208      1   3 -1.050000    12.804399908    24.205299580    10.419137164   0   0   0 # obsk
   2209      1   4 -0.950000    12.804399908    26.582319581    11.879380951   0   0   0 # ohk
   2210      1   1  1.575000    14.310799897    24.967411587     5.988838887   0   0   0 # feok
   2211      1   2  0.425000    14.310799897    23.362579661     8.436457269   0   0   0 # hoy
   2212      1   3 -1.050000    14.310799897    26.495299542     9.407970414   0   0   0 # obsk
   2213      1   4 -0.950000    14.310799897    24.292319619     7.947726626   0   0   0 # ohk
   2214      1   1  1.575000    14.310799897    23.122587612    10.945538735   0   0   0 # feok
   2215      1   2  0.425000    14.310799897    24.727419538     3.479757421   0   0   0 # hoy
   2216      1   3 -1.050000    14.310799897    26.174699580     4.451270565   0   0   0 # obsk
   2217      1   4 -0.950000    14.310799897    23.797679580     2.991026778   0   0   0 # ohk
   2218      1   1  1.575000    12.804399908    25.412587574     8.881568842   0   0   0 # feok
   2219      1   2  0.425000    12.804399908    27.017419500     6.433950460   0   0   0 # hoy
   2220      1   3 -1.050000    12.804399908    23.884699619     5.462437316   0   0   0 # obsk
   2221      1   4 -0.950000    12.804399908    26.087679542     6.922681103   0   0   0 # ohk
   2222      1   1  1.575000    12.804399908    27.257411549    13.838268690   0   0   0 # feok
   2223      1   2  0.425000    12.804399908    25.652579623    21.304050005   0   0   0 # hoy
   2224      1   3 -1.050000    12.804399908    24.205299580    20.332536860   0   0   0 # obsk
   2225      1   4 -0.950000    12.804399908    26.582319581    21.792780648   0   0   0 # ohk
   2226      1   1  1.575000    14.310799897    24.967411587    15.902238583   0   0   0 # feok
   2227      1   2  0.425000    14.310799897    23.362579661    18.349856965   0   0   0 # hoy
   2228      1   3 -1.050000    14.310799897    26.495299542    19.321370110   0   0   0 # obsk
   2229      1   4 -0.950000    14.310799897    24.292319619    17.861126322   0   0   0 # ohk
   2230      1   1  1.575000    14.310799897    23.122587612    20.858938431   0   0   0 # feok
   2231      1   2  0.425000    14.310799897    24.727419538    13.393157117   0   0   0 # hoy
   2232      1   3 -1.050000    14.310799897    26.174699580    14.364670262   0   0   0 # obsk
   2233      1   4 -0.950000    14.310799897    23.797679580    12.904426474   0   0   0 # ohk
   2234      1   1  1.575000    12.804399908    25.412587574    18.794968539   0   0   0 # feok
   2235      1   2  0.425000    12.804399908    27.017419500    16.347350157   0   0   0 # hoy
   2236      1   3 -1.050000    12.804399908    23.884699619    15.375837012   0   0   0 # obsk
   2237      1   4 -0.950000    12.804399908    26.087679542    16.836080799   0   0   0 # ohk
   2238      1   1  1.575000    12.804399908    27.257411549    23.751668387   0   0   0 # feok
   2239      1   3 -1.050000    12.804399908    24.205299580    30.245936556   0   0   0 # obsk
   2240      1   1  1.575000    14.310799897    24.967411587    25.815638280   0   0   0 # feok
   2241      1   2  0.425000    14.310799897    23.362579661    28.263256661   0   0   0 # hoy
   2242      1   3 -1.109400    14.310799897    26.495299542    29.234769806   0   0   0 # obsk
   2243      1   4 -0.950000    14.310799897    24.292319619    27.774526019   0   0   0 # ohk
   2244      1   2  0.425000    14.310799897    24.727419538    23.306556813   0   0   0 # hoy
   2245      1   3 -1.050000    14.310799897    26.174699580    24.278069958   0   0   0 # obsk
   2246      1   4 -0.950000    14.310799897    23.797679580    22.817826171   0   0   0 # ohk
   2247      1   1  1.575000    12.804399908    25.412587574    28.708368235   0   0   0 # feok
   2248      1   2  0.425000    12.804399908    27.017419500    26.260749853   0   0   0 # hoy
   2249      1   3 -1.050000    12.804399908    23.884699619    25.289236708   0   0   0 # obsk
   2250      1   4 -0.950000    12.804399908    26.087679542    26.749480496   0   0   0 # ohk
   2251      1   1  1.575000    15.817199886    27.257411549     3.924868994   0   0   0 # feok
   2252      1   2  0.425000    15.817199886    25.652579623    11.390650309   0   0   0 # hoy
   2253      1   3 -1.050000    15.817199886    24.205299580    10.419137164   0   0   0 # obsk
   2254      1   4 -0.950000    15.817199886    26.582319581    11.879380951   0   0   0 # ohk
   2255      1   1  1.575000    17.323599875    24.967411587     5.988838887   0   0   0 # feok
   2256      1   2  0.425000    17.323599875    23.362579661     8.436457269   0   0   0 # hoy
   2257      1   3 -1.050000    17.323599875    26.495299542     9.407970414   0   0   0 # obsk
   2258      1   4 -0.950000    17.323599875    24.292319619     7.947726626   0   0   0 # ohk
   2259      1   1  1.575000    17.323599875    23.122587612    10.945538735   0   0   0 # feok
   2260      1   2  0.425000    17.323599875    24.727419538     3.479757421   0   0   0 # hoy
   2261      1   3 -1.050000    17.323599875    26.174699580     4.451270565   0   0   0 # obsk
   2262      1   4 -0.950000    17.323599875    23.797679580     2.991026778   0   0   0 # ohk
   2263      1   1  1.575000    15.817199886    25.412587574     8.881568842   0   0   0 # feok
   2264      1   2  0.425000    15.817199886    27.017419500     6.433950460   0   0   0 # hoy
   2265      1   3 -1.050000    15.817199886    23.884699619     5.462437316   0   0   0 # obsk
   2266      1   4 -0.950000    15.817199886    26.087679542     6.922681103   0   0   0 # ohk
   2267      1   1  1.575000    15.817199886    27.257411549    13.838268690   0   0   0 # feok
   2268      1   2  0.425000    15.817199886    25.652579623    21.304050005   0   0   0 # hoy
   2269      1   3 -1.050000    15.817199886    24.205299580    20.332536860   0   0   0 # obsk
   2270      1   4 -0.950000    15.817199886    26.582319581    21.792780648   0   0   0 # ohk
   2271      1   1  1.575000    17.323599875    24.967411587    15.902238583   0   0   0 # feok
   2272      1   2  0.425000    17.323599875    23.362579661    18.349856965   0   0   0 # hoy
   2273      1   3 -1.050000    17.323599875    26.495299542    19.321370110   0   0   0 # obsk
   2274      1   4 -0.950000    17.323599875    24.292319619    17.861126322   0   0   0 # ohk
   2275      1   1  1.575000    17.323599875    23.122587612    20.858938431   0   0   0 # feok
   2276      1   2  0.425000    17.323599875    24.727419538    13.393157117   0   0   0 # hoy
   2277      1   3 -1.050000    17.323599875    26.174699580    14.364670262   0   0   0 # obsk
   2278      1   4 -0.950000    17.323599875    23.797679580    12.904426474   0   0   0 # ohk
   2279      1   1  1.575000    15.817199886    25.412587574    18.794968539   0   0   0 # feok
   2280      1   2  0.425000    15.817199886    27.017419500    16.347350157   0   0   0 # hoy
   2281      1   3 -1.050000    15.817199886    23.884699619    15.375837012   0   0   0 # obsk
   2282      1   4 -0.950000    15.817199886    26.087679542    16.836080799   0   0   0 # ohk
   2283      1   1  1.575000    15.817199886    27.257411549    23.751668387   0   0   0 # feok
   2284      1   3 -1.050000    15.817199886    24.205299580    30.245936556   0   0   0 # obsk
   2285      1   1  1.575000    17.323599875    24.967411587    25.815638280   0   0   0 # feok
   2286      1   2  0.425000    17.323599875    23.362579661    28.263256661   0   0   0 # hoy
   2287      1   3 -1.050000    17.323599875    26.495299542    29.234769806   0   0   0 # obsk
   2288      1   4 -0.950000    17.323599875    24.292319619    27.774526019   0   0   0 # ohk
   2289      1   2  0.425000    17.323599875    24.727419538    23.306556813   0   0   0 # hoy
   2290      1   3 -1.050000    17.323599875    26.174699580    24.278069958   0   0   0 # obsk
   2291      1   4 -0.950000    17.323599875    23.797679580    22.817826171   0   0   0 # ohk
   2292      1   1  1.575000    15.817199886    25.412587574    28.708368235   0   0   0 # feok
   2293      1   2  0.425000    15.817199886    27.017419500    26.260749853   0   0   0 # hoy
   2294      1   3 -1.050000    15.817199886    23.884699619    25.289236708   0   0   0 # obsk
   2295      1   4 -0.950000    15.817199886    26.087679542    26.749480496   0   0   0 # ohk
   2296      1   1  1.575000    18.829999864    27.257411549     3.924868994   0   0   0 # feok
   2297      1   2  0.425000    18.829999864    25.652579623    11.390650309   0   0   0 # hoy
   2298      1   3 -1.050000    18.829999864    24.205299580    10.419137164   0   0   0 # obsk
   2299      1   4 -0.950000    18.829999864    26.582319581    11.879380951   0   0   0 # ohk
   2300      1   1  1.575000    20.336399853    24.967411587     5.988838887   0   0   0 # feok
   2301      1   2  0.425000    20.336399853    23.362579661     8.436457269   0   0   0 # hoy
   2302      1   3 -1.050000    20.336399853    26.495299542     9.407970414   0   0   0 # obsk
   2303      1   4 -0.950000    20.336399853    24.292319619     7.947726626   0   0   0 # ohk
   2304      1   1  1.575000    20.336399853    23.122587612    10.945538735   0   0   0 # feok
   2305      1   2  0.425000    20.336399853    24.727419538     3.479757421   0   0   0 # hoy
   2306      1   3 -1.050000    20.336399853    26.174699580     4.451270565   0   0   0 # obsk
   2307      1   4 -0.950000    20.336399853    23.797679580     2.991026778   0   0   0 # ohk
   2308      1   1  1.575000    18.829999864    25.412587574     8.881568842   0   0   0 # feok
   2309      1   2  0.425000    18.829999864    27.017419500     6.433950460   0   0   0 # hoy
   2310      1   3 -1.050000    18.829999864    23.884699619     5.462437316   0   0   0 # obsk
   2311      1   4 -0.950000    18.829999864    26.087679542     6.922681103   0   0   0 # ohk
   2312      1   1  1.575000    18.829999864    27.257411549    13.838268690   0   0   0 # feok
   2313      1   2  0.425000    18.829999864    25.652579623    21.304050005   0   0   0 # hoy
   2314      1   3 -1.050000    18.829999864    24.205299580    20.332536860   0   0   0 # obsk
   2315      1   4 -0.950000    18.829999864    26.582319581    21.792780648   0   0   0 # ohk
   2316      1   1  1.575000    20.336399853    24.967411587    15.902238583   0   0   0 # feok
   2317      1   2  0.425000    20.336399853    23.362579661    18.349856965   0   0   0 # hoy
   2318      1   3 -1.050000    20.336399853    26.495299542    19.321370110   0   0   0 # obsk
   2319      1   4 -0.950000    20.336399853    24.292319619    17.861126322   0   0   0 # ohk
   2320      1   1  1.575000    20.336399853    23.122587612    20.858938431   0   0   0 # feok
   2321      1   2  0.425000    20.336399853    24.727419538    13.393157117   0   0   0 # hoy
   2322      1   3 -1.050000    20.336399853    26.174699580    14.364670262   0   0   0 # obsk
   2323      1   4 -0.950000    20.336399853    23.797679580    12.904426474   0   0   0 # ohk
   2324      1   1  1.575000    18.829999864    25.412587574    18.794968539   0   0   0 # feok
   2325      1   2  0.425000    18.829999864    27.017419500    16.347350157   0   0   0 # hoy
   2326      1   3 -1.050000    18.829999864    23.884699619    15.375837012   0   0   0 # obsk
   2327      1   4 -0.950000    18.829999864    26.087679542    16.836080799   0   0   0 # ohk
   2328      1   1  1.575000    18.829999864    27.257411549    23.751668387   0   0   0 # feok
   2329      1   3 -1.109400    18.829999864    24.205299580    30.245936556   0   0   0 # obsk
   2330      1   1  1.575000    20.336399853    24.967411587    25.815638280   0   0   0 # feok
   2331      1   2  0.425000    20.336399853    23.362579661    28.263256661   0   0   0 # hoy
   2332      1   3 -1.050000    20.336399853    26.495299542    29.234769806   0   0   0 # obsk
   2333      1   4 -0.950000    20.336399853    24.292319619    27.774526019   0   0   0 # ohk
   2334      1   2  0.425000    20.336399853    24.727419538    23.306556813   0   0   0 # hoy
   2335      1   3 -1.050000    20.336399853    26.174699580    24.278069958   0   0   0 # obsk
   2336      1   4 -0.950000    20.336399853    23.797679580    22.817826171   0   0   0 # ohk
   2337      1   1  1.575000    18.829999864    25.412587574    28.708368235   0   0   0 # feok
   2338      1   2  0.425000    18.829999864    27.017419500    26.260749853   0   0   0 # hoy
   2339      1   3 -1.050000    18.829999864    23.884699619    25.289236708   0   0   0 # obsk
   2340      1   4 -0.950000    18.829999864    26.087679542    26.749480496   0   0   0 # ohk
   2341      1   1  1.575000    21.842799842    27.257411549     3.924868994   0   0   0 # feok
   2342      1   2  0.425000    21.842799842    25.652579623    11.390650309   0   0   0 # hoy
   2343      1   3 -1.050000    21.842799842    24.205299580    10.419137164   0   0   0 # obsk
   2344      1   4 -0.950000    21.842799842    26.582319581    11.879380951   0   0   0 # ohk
   2345      1   1  1.575000    23.349199831    24.967411587     5.988838887   0   0   0 # feok
   2346      1   2  0.425000    23.349199831    23.362579661     8.436457269   0   0   0 # hoy
   2347      1   3 -1.050000    23.349199831    26.495299542     9.407970414   0   0   0 # obsk
   2348      1   4 -0.950000    23.349199831    24.292319619     7.947726626   0   0   0 # ohk
   2349      1   1  1.575000    23.349199831    23.122587612    10.945538735   0   0   0 # feok
   2350      1   2  0.425000    23.349199831    24.727419538     3.479757421   0   0   0 # hoy
   2351      1   3 -1.050000    23.349199831    26.174699580     4.451270565   0   0   0 # obsk
   2352      1   4 -0.950000    23.349199831    23.797679580     2.991026778   0   0   0 # ohk
   2353      1   1  1.575000    21.842799842    25.412587574     8.881568842   0   0   0 # feok
   2354      1   2  0.425000    21.842799842    27.017419500     6.433950460   0   0   0 # hoy
   2355      1   3 -1.050000    21.842799842    23.884699619     5.462437316   0   0   0 # obsk
   2356      1   4 -0.950000    21.842799842    26.087679542     6.922681103   0   0   0 # ohk
   2357      1   1  1.575000    21.842799842    27.257411549    13.838268690   0   0   0 # feok
   2358      1   2  0.425000    21.842799842    25.652579623    21.304050005   0   0   0 # hoy
   2359      1   3 -1.050000    21.842799842    24.205299580    20.332536860   0   0   0 # obsk
   2360      1   4 -0.950000    21.842799842    26.582319581    21.792780648   0   0   0 # ohk
   2361      1   1  1.575000    23.349199831    24.967411587    15.902238583   0   0   0 # feok
   2362      1   2  0.425000    23.349199831    23.362579661    18.349856965   0   0   0 # hoy
   2363      1   3 -1.050000    23.349199831    26.495299542    19.321370110   0   0   0 # obsk
   2364      1   4 -0.950000    23.349199831    24.292319619    17.861126322   0   0   0 # ohk
   2365      1   1  1.575000    23.349199831    23.122587612    20.858938431   0   0   0 # feok
   2366      1   2  0.425000    23.349199831    24.727419538    13.393157117   0   0   0 # hoy
   2367      1   3 -1.050000    23.349199831    26.174699580    14.364670262   0   0   0 # obsk
   2368      1   4 -0.950000    23.349199831    23.797679580    12.904426474   0   0   0 # ohk
   2369      1   1  1.575000    21.842799842    25.412587574    18.794968539   0   0   0 # feok
   2370      1   2  0.425000    21.842799842    27.017419500    16.347350157   0   0   0 # hoy
   2371      1   3 -1.050000    21.842799842    23.884699619    15.375837012   0   0   0 # obsk
   2372      1   4 -0.950000    21.842799842    26.087679542    16.836080799   0   0   0 # ohk
   2373      1   1  1.575000    21.842799842    27.257411549    23.751668387   0   0   0 # feok
   2374      1   3 -1.109400    21.842799842    24.205299580    30.245936556   0   0   0 # obsk
   2375      1   1  1.575000    23.349199831    24.967411587    25.815638280   0   0   0 # feok
   2376      1   2  0.425000    23.349199831    23.362579661    28.263256661   0   0   0 # hoy
   2377      1   3 -1.050000    23.349199831    26.495299542    29.234769806   0   0   0 # obsk
   2378      1   4 -0.950000    23.349199831    24.292319619    27.774526019   0   0   0 # ohk
   2379      1   2  0.425000    23.349199831    24.727419538    23.306556813   0   0   0 # hoy
   2380      1   3 -1.050000    23.349199831    26.174699580    24.278069958   0   0   0 # obsk
   2381      1   4 -0.950000    23.349199831    23.797679580    22.817826171   0   0   0 # ohk
   2382      1   1  1.575000    21.842799842    25.412587574    28.708368235   0   0   0 # feok
   2383      1   2  0.425000    21.842799842    27.017419500    26.260749853   0   0   0 # hoy
   2384      1   3 -1.050000    21.842799842    23.884699619    25.289236708   0   0   0 # obsk
   2385      1   4 -0.950000    21.842799842    26.087679542    26.749480496   0   0   0 # ohk
   2386      1   1  1.575000    24.855599821    27.257411549     3.924868994   0   0   0 # feok
   2387      1   2  0.425000    24.855599821    25.652579623    11.390650309   0   0   0 # hoy
   2388      1   3 -1.050000    24.855599821    24.205299580    10.419137164   0   0   0 # obsk
   2389      1   4 -0.950000    24.855599821    26.582319581    11.879380951   0   0   0 # ohk
   2390      1   1  1.575000    26.361999810    24.967411587     5.988838887   0   0   0 # feok
   2391      1   2  0.425000    26.361999810    23.362579661     8.436457269   0   0   0 # hoy
   2392      1   3 -1.050000    26.361999810    26.495299542     9.407970414   0   0   0 # obsk
   2393      1   4 -0.950000    26.361999810    24.292319619     7.947726626   0   0   0 # ohk
   2394      1   1  1.575000    26.361999810    23.122587612    10.945538735   0   0   0 # feok
   2395      1   2  0.425000    26.361999810    24.727419538     3.479757421   0   0   0 # hoy
   2396      1   3 -1.050000    26.361999810    26.174699580     4.451270565   0   0   0 # obsk
   2397      1   4 -0.950000    26.361999810    23.797679580     2.991026778   0   0   0 # ohk
   2398      1   1  1.575000    24.855599821    25.412587574     8.881568842   0   0   0 # feok
   2399      1   2  0.425000    24.855599821    27.017419500     6.433950460   0   0   0 # hoy
   2400      1   3 -1.050000    24.855599821    23.884699619     5.462437316   0   0   0 # obsk
   2401      1   4 -0.950000    24.855599821    26.087679542     6.922681103   0   0   0 # ohk
   2402      1   1  1.575000    24.855599821    27.257411549    13.838268690   0   0   0 # feok
   2403      1   2  0.425000    24.855599821    25.652579623    21.304050005   0   0   0 # hoy
   2404      1   3 -1.050000    24.855599821    24.205299580    20.332536860   0   0   0 # obsk
   2405      1   4 -0.950000    24.855599821    26.582319581    21.792780648   0   0   0 # ohk
   2406      1   1  1.575000    26.361999810    24.967411587    15.902238583   0   0   0 # feok
   2407      1   2  0.425000    26.361999810    23.362579661    18.349856965   0   0   0 # hoy
   2408      1   3 -1.050000    26.361999810    26.495299542    19.321370110   0   0   0 # obsk
   2409      1   4 -0.950000    26.361999810    24.292319619    17.861126322   0   0   0 # ohk
   2410      1   1  1.575000    26.361999810    23.122587612    20.858938431   0   0   0 # feok
   2411      1   2  0.425000    26.361999810    24.727419538    13.393157117   0   0   0 # hoy
   2412      1   3 -1.050000    26.361999810    26.174699580    14.364670262   0   0   0 # obsk
   2413      1   4 -0.950000    26.361999810    23.797679580    12.904426474   0   0   0 # ohk
   2414      1   1  1.575000    24.855599821    25.412587574    18.794968539   0   0   0 # feok
   2415      1   2  0.425000    24.855599821    27.017419500    16.347350157   0   0   0 # hoy
   2416      1   3 -1.050000    24.855599821    23.884699619    15.375837012   0   0   0 # obsk
   2417      1   4 -0.950000    24.855599821    26.087679542    16.836080799   0   0   0 # ohk
   2418      1   1  1.575000    24.855599821    27.257411549    23.751668387   0   0   0 # feok
   2419      1   3 -1.050000    24.855599821    24.205299580    30.245936556   0   0   0 # obsk
   2420      1   1  1.575000    26.361999810    24.967411587    25.815638280   0   0   0 # feok
   2421      1   2  0.425000    26.361999810    23.362579661    28.263256661   0   0   0 # hoy
   2422      1   3 -1.050000    26.361999810    26.495299542    29.234769806   0   0   0 # obsk
   2423      1   4 -0.950000    26.361999810    24.292319619    27.774526019   0   0   0 # ohk
   2424      1   2  0.425000    26.361999810    24.727419538    23.306556813   0   0   0 # hoy
   2425      1   3 -1.050000    26.361999810    26.174699580    24.278069958   0   0   0 # obsk
   2426      1   4 -0.950000    26.361999810    23.797679580    22.817826171   0   0   0 # ohk
   2427      1   1  1.575000    24.855599821    25.412587574    28.708368235   0   0   0 # feok
   2428      1   2  0.425000    24.855599821    27.017419500    26.260749853   0   0   0 # hoy
   2429      1   3 -1.050000    24.855599821    23.884699619    25.289236708   0   0   0 # obsk
   2430      1   4 -0.950000    24.855599821    26.087679542    26.749480496   0   0   0 # ohk
   2431      1   4 -1.009400     2.150831260     1.369563872    32.741259136   0   0   0 # ohk
   2432      1   4 -1.009400    14.202031185     1.369563893    32.741259094   0   0   0 # ohk
   2433      1   4 -1.009400     8.176431206     5.949564094    32.741259328   0   0   0 # ohk
   2434      1   4 -1.009400    20.227631129     5.949564096    32.741259323   0   0   0 # ohk
   2435      1   4 -1.009400     2.150831237    10.529563993    32.741259348   0   0   0 # ohk
   2436      1   4 -1.009400    23.240431104    10.529564006    32.741259328   0   0   0 # ohk
   2437      1   4 -1.009400     8.176431192    15.109563935    32.741259314   0   0   0 # ohk
   2438      1   4 -1.009400    20.227631115    15.109563935    32.741259307   0   0   0 # ohk
   2439      1   4 -1.009400     2.150831230    19.689563853    32.741259329   0   0   0 # ohk
   2440      1   4 -1.009400    14.202031158    19.689563872    32.741259289   0   0   0 # ohk
   2441      1   4 -1.009400    23.240431097    19.689563865    32.741259309   0   0   0 # ohk
   2442      1   4 -1.009400     8.176431188    24.269563818    32.741259311   0   0   0 # ohk
   2443      1   4 -1.009400    20.227631110    24.269563819    32.741259304   0   0   0 # ohk
   2444      1   2  0.365600     1.244970475     1.034583426    33.057833087   0   0   0 # hoy
   2445      1   2  0.365600    13.296170374     1.034583534    33.057833090   0   0   0 # hoy
   2446      1   2  0.365600     7.270570277     5.614583826    33.057833085   0   0   0 # hoy
   2447      1   2  0.365600    19.321770190     5.614583854    33.057833068   0   0   0 # hoy
   2448      1   2  0.365600     1.244970328    10.194583649    33.057833065   0   0   0 # hoy
   2449      1   2  0.365600    22.334570164    10.194583761    33.057833067   0   0   0 # hoy
   2450      1   2  0.365600     7.270570262    14.774583660    33.057833062   0   0   0 # hoy
   2451      1   2  0.365600    19.321770174    14.774583686    33.057833047   0   0   0 # hoy
   2452      1   2  0.365600     1.244970319    19.354583517    33.057833037   0   0   0 # hoy
   2453      1   2  0.365600    13.296170218    19.354583626    33.057833040   0   0   0 # hoy
   2454      1   2  0.365600    22.334570153    19.354583628    33.057833042   0   0   0 # hoy
   2455      1   2  0.365600     7.270570242    23.934583588    33.057833047   0   0   0 # hoy
   2456      1   2  0.365600    19.321770154    23.934583613    33.057833037   0   0   0 # hoy
   2457      1   2  0.425000     0.753199995     2.752580004    31.217449701   0   0   0 # hoy
   2458      1   4 -0.950000     0.753199995     3.682319962    31.706180344   0   0   0 # ohk
   2459      1   2  0.425000     3.765999973     2.752580004    31.217449701   0   0   0 # hoy
   2460      1   4 -0.950000     3.765999973     3.682319962    31.706180344   0   0   0 # ohk
   2461      1   2  0.425000     6.778799951     2.752580004    31.217449701   0   0   0 # hoy
   2462      1   4 -1.009400     6.778799951     3.682319962    31.706180344   0   0   0 # ohk
   2463      1   2  0.425000     9.791599929     2.752580004    31.217449701   0   0   0 # hoy
   2464      1   4 -1.009400     9.791599929     3.682319962    31.706180344   0   0   0 # ohk
   2465      1   2  0.425000    12.804399908     2.752580004    31.217449701   0   0   0 # hoy
   2466      1   4 -0.950000    12.804399908     3.682319962    31.706180344   0   0   0 # ohk
   2467      1   2  0.425000    15.817199886     2.752580004    31.217449701   0   0   0 # hoy
   2468      1   4 -0.950000    15.817199886     3.682319962    31.706180344   0   0   0 # ohk
   2469      1   2  0.425000    18.829999864     2.752580004    31.217449701   0   0   0 # hoy
   2470      1   4 -1.009400    18.829999864     3.682319962    31.706180344   0   0   0 # ohk
   2471      1   2  0.425000    21.842799842     2.752580004    31.217449701   0   0   0 # hoy
   2472      1   4 -1.009400    21.842799842     3.682319962    31.706180344   0   0   0 # ohk
   2473      1   2  0.425000    24.855599821     2.752580004    31.217449701   0   0   0 # hoy
   2474      1   4 -0.950000    24.855599821     3.682319962    31.706180344   0   0   0 # ohk
   2475      1   2  0.425000     0.753199995     7.332579928    31.217449701   0   0   0 # hoy
   2476      1   4 -1.009400     0.753199995     8.262319886    31.706180344   0   0   0 # ohk
   2477      1   1  1.575000     2.259599984     4.802587917    30.772338128   0   0   0 # feok
   2478      1   2  0.425000     3.765999973     7.332579928    31.217449701   0   0   0 # hoy
   2479      1   4 -1.009400     3.765999973     8.262319886    31.706180344   0   0   0 # ohk
   2480      1   1  1.575000     5.272399962     4.802587917    30.772338128   0   0   0 # feok
   2481      1   2  0.425000     6.778799951     7.332579928    31.217449701   0   0   0 # hoy
   2482      1   4 -0.950000     6.778799951     8.262319886    31.706180344   0   0   0 # ohk
   2483      1   1  1.515600     8.285199940     4.802587917    30.772338128   0   0   0 # feok
   2484      1   2  0.425000     9.791599929     7.332579928    31.217449701   0   0   0 # hoy
   2485      1   4 -0.950000     9.791599929     8.262319886    31.706180344   0   0   0 # ohk
   2486      1   1  1.575000    11.297999918     4.802587917    30.772338128   0   0   0 # feok
   2487      1   2  0.425000    12.804399908     7.332579928    31.217449701   0   0   0 # hoy
   2488      1   4 -1.009400    12.804399908     8.262319886    31.706180344   0   0   0 # ohk
   2489      1   1  1.575000    14.310799897     4.802587917    30.772338128   0   0   0 # feok
   2490      1   2  0.425000    15.817199886     7.332579928    31.217449701   0   0   0 # hoy
   2491      1   4 -1.009400    15.817199886     8.262319886    31.706180344   0   0   0 # ohk
   2492      1   1  1.575000    17.323599875     4.802587917    30.772338128   0   0   0 # feok
   2493      1   2  0.425000    18.829999864     7.332579928    31.217449701   0   0   0 # hoy
   2494      1   4 -0.950000    18.829999864     8.262319886    31.706180344   0   0   0 # ohk
   2495      1   1  1.515600    20.336399853     4.802587917    30.772338128   0   0   0 # feok
   2496      1   2  0.425000    21.842799842     7.332579928    31.217449701   0   0   0 # hoy
   2497      1   4 -1.009400    21.842799842     8.262319886    31.706180344   0   0   0 # ohk
   2498      1   1  1.575000    23.349199831     4.802587917    30.772338128   0   0   0 # feok
   2499      1   2  0.425000    24.855599821     7.332579928    31.217449701   0   0   0 # hoy
   2500      1   4 -1.009400    24.855599821     8.262319886    31.706180344   0   0   0 # ohk
   2501      1   1  1.575000    26.361999810     4.802587917    30.772338128   0   0   0 # feok
   2502      1   2  0.425000     0.753199995    11.912579852    31.217449701   0   0   0 # hoy
   2503      1   4 -0.950000     0.753199995    12.842319810    31.706180344   0   0   0 # ohk
   2504      1   1  1.515600     2.259599984     9.382587841    30.772338128   0   0   0 # feok
   2505      1   2  0.425000     3.765999973    11.912579852    31.217449701   0   0   0 # hoy
   2506      1   4 -0.950000     3.765999973    12.842319810    31.706180344   0   0   0 # ohk
   2507      1   1  1.575000     5.272399962     9.382587841    30.772338128   0   0   0 # feok
   2508      1   2  0.425000     6.778799951    11.912579852    31.217449701   0   0   0 # hoy
   2509      1   4 -1.009400     6.778799951    12.842319810    31.706180344   0   0   0 # ohk
   2510      1   1  1.575000     8.285199940     9.382587841    30.772338128   0   0   0 # feok
   2511      1   2  0.425000     9.791599929    11.912579852    31.217449701   0   0   0 # hoy
   2512      1   4 -1.009400     9.791599929    12.842319810    31.706180344   0   0   0 # ohk
   2513      1   1  1.575000    11.297999918     9.382587841    30.772338128   0   0   0 # feok
   2514      1   2  0.425000    12.804399908    11.912579852    31.217449701   0   0   0 # hoy
   2515      1   4 -0.950000    12.804399908    12.842319810    31.706180344   0   0   0 # ohk
   2516      1   1  1.515600    14.310799897     9.382587841    30.772338128   0   0   0 # feok
   2517      1   2  0.425000    15.817199886    11.912579852    31.217449701   0   0   0 # hoy
   2518      1   4 -0.950000    15.817199886    12.842319810    31.706180344   0   0   0 # ohk
   2519      1   1  1.575000    17.323599875     9.382587841    30.772338128   0   0   0 # feok
   2520      1   2  0.425000    18.829999864    11.912579852    31.217449701   0   0   0 # hoy
   2521      1   4 -1.009400    18.829999864    12.842319810    31.706180344   0   0   0 # ohk
   2522      1   1  1.575000    20.336399853     9.382587841    30.772338128   0   0   0 # feok
   2523      1   2  0.425000    21.842799842    11.912579852    31.217449701   0   0   0 # hoy
   2524      1   4 -1.009400    21.842799842    12.842319810    31.706180344   0   0   0 # ohk
   2525      1   1  1.515600    23.349199831     9.382587841    30.772338128   0   0   0 # feok
   2526      1   2  0.425000    24.855599821    11.912579852    31.217449701   0   0   0 # hoy
   2527      1   4 -0.950000    24.855599821    12.842319810    31.706180344   0   0   0 # ohk
   2528      1   1  1.575000    26.361999810     9.382587841    30.772338128   0   0   0 # feok
   2529      1   2  0.425000     0.753199995    16.492579775    31.217449701   0   0   0 # hoy
   2530      1   4 -1.009400     0.753199995    17.422319733    31.706180344   0   0   0 # ohk
   2531      1   1  1.575000     2.259599984    13.962587765    30.772338128   0   0   0 # feok
   2532      1   2  0.425000     3.765999973    16.492579775    31.217449701   0   0   0 # hoy
   2533      1   4 -1.009400     3.765999973    17.422319733    31.706180344   0   0   0 # ohk
   2534      1   1  1.575000     5.272399962    13.962587765    30.772338128   0   0   0 # feok
   2535      1   2  0.425000     6.778799951    16.492579775    31.217449701   0   0   0 # hoy
   2536      1   4 -0.950000     6.778799951    17.422319733    31.706180344   0   0   0 # ohk
   2537      1   1  1.515600     8.285199940    13.962587765    30.772338128   0   0   0 # feok
   2538      1   2  0.425000     9.791599929    16.492579775    31.217449701   0   0   0 # hoy
   2539      1   4 -0.950000     9.791599929    17.422319733    31.706180344   0   0   0 # ohk
   2540      1   1  1.575000    11.297999918    13.962587765    30.772338128   0   0   0 # feok
   2541      1   2  0.425000    12.804399908    16.492579775    31.217449701   0   0   0 # hoy
   2542      1   4 -1.009400    12.804399908    17.422319733    31.706180344   0   0   0 # ohk
   2543      1   1  1.575000    14.310799897    13.962587765    30.772338128   0   0   0 # feok
   2544      1   2  0.425000    15.817199886    16.492579775    31.217449701   0   0   0 # hoy
   2545      1   4 -1.009400    15.817199886    17.422319733    31.706180344   0   0   0 # ohk
   2546      1   1  1.575000    17.323599875    13.962587765    30.772338128   0   0   0 # feok
   2547      1   2  0.425000    18.829999864    16.492579775    31.217449701   0   0   0 # hoy
   2548      1   4 -0.950000    18.829999864    17.422319733    31.706180344   0   0   0 # ohk
   2549      1   1  1.515600    20.336399853    13.962587765    30.772338128   0   0   0 # feok
   2550      1   2  0.425000    21.842799842    16.492579775    31.217449701   0   0   0 # hoy
   2551      1   4 -1.009400    21.842799842    17.422319733    31.706180344   0   0   0 # ohk
   2552      1   1  1.575000    23.349199831    13.962587765    30.772338128   0   0   0 # feok
   2553      1   2  0.425000    24.855599821    16.492579775    31.217449701   0   0   0 # hoy
   2554      1   4 -1.009400    24.855599821    17.422319733    31.706180344   0   0   0 # ohk
   2555      1   1  1.575000    26.361999810    13.962587765    30.772338128   0   0   0 # feok
   2556      1   2  0.425000     0.753199995    21.072579699    31.217449701   0   0   0 # hoy
   2557      1   4 -0.950000     0.753199995    22.002319657    31.706180344   0   0   0 # ohk
   2558      1   1  1.515600     2.259599984    18.542587688    30.772338128   0   0   0 # feok
   2559      1   2  0.425000     3.765999973    21.072579699    31.217449701   0   0   0 # hoy
   2560      1   4 -0.950000     3.765999973    22.002319657    31.706180344   0   0   0 # ohk
   2561      1   1  1.575000     5.272399962    18.542587688    30.772338128   0   0   0 # feok
   2562      1   2  0.425000     6.778799951    21.072579699    31.217449701   0   0   0 # hoy
   2563      1   4 -1.009400     6.778799951    22.002319657    31.706180344   0   0   0 # ohk
   2564      1   1  1.575000     8.285199940    18.542587688    30.772338128   0   0   0 # feok
   2565      1   2  0.425000     9.791599929    21.072579699    31.217449701   0   0   0 # hoy
   2566      1   4 -1.009400     9.791599929    22.002319657    31.706180344   0   0   0 # ohk
   2567      1   1  1.575000    11.297999918    18.542587688    30.772338128   0   0   0 # feok
   2568      1   2  0.425000    12.804399908    21.072579699    31.217449701   0   0   0 # hoy
   2569      1   4 -0.950000    12.804399908    22.002319657    31.706180344   0   0   0 # ohk
   2570      1   1  1.515600    14.310799897    18.542587688    30.772338128   0   0   0 # feok
   2571      1   2  0.425000    15.817199886    21.072579699    31.217449701   0   0   0 # hoy
   2572      1   4 -0.950000    15.817199886    22.002319657    31.706180344   0   0   0 # ohk
   2573      1   1  1.575000    17.323599875    18.542587688    30.772338128   0   0   0 # feok
   2574      1   2  0.425000    18.829999864    21.072579699    31.217449701   0   0   0 # hoy
   2575      1   4 -1.009400    18.829999864    22.002319657    31.706180344   0   0   0 # ohk
   2576      1   1  1.575000    20.336399853    18.542587688    30.772338128   0   0   0 # feok
   2577      1   2  0.425000    21.842799842    21.072579699    31.217449701   0   0   0 # hoy
   2578      1   4 -1.009400    21.842799842    22.002319657    31.706180344   0   0   0 # ohk
   2579      1   1  1.515600    23.349199831    18.542587688    30.772338128   0   0   0 # feok
   2580      1   2  0.425000    24.855599821    21.072579699    31.217449701   0   0   0 # hoy
   2581      1   4 -0.950000    24.855599821    22.002319657    31.706180344   0   0   0 # ohk
   2582      1   1  1.575000    26.361999810    18.542587688    30.772338128   0   0   0 # feok
   2583      1   2  0.425000     0.753199995    25.652579623    31.217449701   0   0   0 # hoy
   2584      1   4 -1.009400     0.753199995    26.582319581    31.706180344   0   0   0 # ohk
   2585      1   1  1.575000     2.259599984    23.122587612    30.772338128   0   0   0 # feok
   2586      1   2  0.425000     3.765999973    25.652579623    31.217449701   0   0   0 # hoy
   2587      1   4 -1.009400     3.765999973    26.582319581    31.706180344   0   0   0 # ohk
   2588      1   1  1.575000     5.272399962    23.122587612    30.772338128   0   0   0 # feok
   2589      1   2  0.425000     6.778799951    25.652579623    31.217449701   0   0   0 # hoy
   2590      1   4 -0.950000     6.778799951    26.582319581    31.706180344   0   0   0 # ohk
   2591      1   1  1.515600     8.285199940    23.122587612    30.772338128   0   0   0 # feok
   2592      1   2  0.425000     9.791599929    25.652579623    31.217449701   0   0   0 # hoy
   2593      1   4 -0.950000     9.791599929    26.582319581    31.706180344   0   0   0 # ohk
   2594      1   1  1.575000    11.297999918    23.122587612    30.772338128   0   0   0 # feok
   2595      1   2  0.425000    12.804399908    25.652579623    31.217449701   0   0   0 # hoy
   2596      1   4 -1.009400    12.804399908    26.582319581    31.706180344   0   0   0 # ohk
   2597      1   1  1.575000    14.310799897    23.122587612    30.772338128   0   0   0 # feok
   2598      1   2  0.425000    15.817199886    25.652579623    31.217449701   0   0   0 # hoy
   2599      1   4 -1.009400    15.817199886    26.582319581    31.706180344   0   0   0 # ohk
   2600      1   1  1.575000    17.323599875    23.122587612    30.772338128   0   0   0 # feok
   2601      1   2  0.425000    18.829999864    25.652579623    31.217449701   0   0   0 # hoy
   2602      1   4 -0.950000    18.829999864    26.582319581    31.706180344   0   0   0 # ohk
   2603      1   1  1.515600    20.336399853    23.122587612    30.772338128   0   0   0 # feok
   2604      1   2  0.425000    21.842799842    25.652579623    31.217449701   0   0   0 # hoy
   2605      1   4 -0.950000    21.842799842    26.582319581    31.706180344   0   0   0 # ohk
   2606      1   1  1.575000    23.349199831    23.122587612    30.772338128   0   0   0 # feok
   2607      1   2  0.425000    24.855599821    25.652579623    31.217449701   0   0   0 # hoy
   2608      1   4 -0.950000    24.855599821    26.582319581    31.706180344   0   0   0 # ohk
   2609      1   1  1.575000    26.361999810    23.122587612    30.772338128   0   0   0 # feok
   2610      1   4 -1.009400    14.202031164    10.529564014    32.741259306   0   0   0 # ohk
   2611      1   2  0.365600    13.296170228    10.194583758    33.057833068   0   0   0 # hoy
   2612      1   1  1.515600     2.259599984     0.222587994    30.772338128   0   1   0 # feok
   2613      1   1  1.575000     5.272399962     0.222587994    30.772338128   0   1   0 # feok
   2614      1   1  1.575000     8.285199940     0.222587994    30.772338128   0   1   0 # feok
   2615      1   1  1.575000    11.297999918     0.222587994    30.772338128   0   1   0 # feok
   2616      1   1  1.515600    14.310799897     0.222587994    30.772338128   0   1   0 # feok
   2617      1   1  1.575000    17.323599875     0.222587994    30.772338128   0   1   0 # feok
   2618      1   1  1.575000    20.336399853     0.222587994    30.772338128   0   1   0 # feok
   2619      1   1  1.575000    23.349199831     0.222587994    30.772338128   0   1   0 # feok
   2620      1   1  1.575000    26.361999810     0.222587994    30.772338128   0   1   0 # feok

Bonds

     1   1      2      4
     2   1      6      8
     3   1     10     12
     4   1     14     16
     5   1     18     20
     6   1     22     24
     7   1     26     28
     8   1     30     32
     9   1     36     38
    10   1     39     41
    11   1     43     45
    12   1     47     49
    13   1     51     53
    14   1     55     57
    15   1     59     61
    16   1     63     65
    17   1     67     69
    18   1     71     73
    19   1     75     77
    20   1     81     83
    21   1     84     86
    22   1     88     90
    23   1     92     94
    24   1     96     98
    25   1    100    102
    26   1    104    106
    27   1    108    110
    28   1    112    114
    29   1    116    118
    30   1    120    122
    31   1    126    128
    32   1    129    131
    33   1    133    135
    34   1    137    139
    35   1    141    143
    36   1    145    147
    37   1    149    151
    38   1    153    155
    39   1    157    159
    40   1    161    163
    41   1    165    167
    42   1    171    173
    43   1    174    176
    44   1    178    180
    45   1    182    184
    46   1    186    188
    47   1    190    192
    48   1    194    196
    49   1    198    200
    50   1    202    204
    51   1    206    208
    52   1    210    212
    53   1    216    218
    54   1    219    221
    55   1    223    225
    56   1    227    229
    57   1    231    233
    58   1    235    237
    59   1    239    241
    60   1    243    245
    61   1    247    249
    62   1    251    253
    63   1    255    257
    64   1    261    263
    65   1    264    266
    66   1    268    270
    67   1    272    274
    68   1    276    278
    69   1    280    282
    70   1    284    286
    71   1    288    290
    72   1    292    294
    73   1    296    298
    74   1    300    302
    75   1    306    308
    76   1    309    311
    77   1    313    315
    78   1    317    319
    79   1    321    323
    80   1    325    327
    81   1    329    331
    82   1    333    335
    83   1    337    339
    84   1    341    343
    85   1    345    347
    86   1    351    353
    87   1    354    356
    88   1    358    360
    89   1    362    364
    90   1    366    368
    91   1    370    372
    92   1    374    376
    93   1    378    380
    94   1    382    384
    95   1    386    388
    96   1    390    392
    97   1    396    398
    98   1    399    401
    99   1    403    405
   100   1    407    409
   101   1    411    413
   102   1    415    417
   103   1    419    421
   104   1    423    425
   105   1    427    429
   106   1    431    433
   107   1    435    437
   108   1    441    443
   109   1    444    446
   110   1    448    450
   111   1    452    454
   112   1    456    458
   113   1    460    462
   114   1    464    466
   115   1    468    470
   116   1    472    474
   117   1    476    478
   118   1    480    482
   119   1    486    488
   120   1    489    491
   121   1    493    495
   122   1    497    499
   123   1    501    503
   124   1    505    507
   125   1    509    511
   126   1    513    515
   127   1    517    519
   128   1    521    523
   129   1    525    527
   130   1    531    533
   131   1    534    536
   132   1    538    540
   133   1    542    544
   134   1    546    548
   135   1    550    552
   136   1    554    556
   137   1    558    560
   138   1    562    564
   139   1    566    568
   140   1    570    572
   141   1    576    578
   142   1    579    581
   143   1    583    585
   144   1    587    589
   145   1    591    593
   146   1    595    597
   147   1    599    601
   148   1    603    605
   149   1    607    609
   150   1    611    613
   151   1    615    617
   152   1    621    623
   153   1    624    626
   154   1    628    630
   155   1    632    634
   156   1    636    638
   157   1    640    642
   158   1    644    646
   159   1    648    650
   160   1    652    654
   161   1    656    658
   162   1    660    662
   163   1    666    668
   164   1    669    671
   165   1    673    675
   166   1    677    679
   167   1    681    683
   168   1    685    687
   169   1    689    691
   170   1    693    695
   171   1    697    699
   172   1    701    703
   173   1    705    707
   174   1    711    713
   175   1    714    716
   176   1    718    720
   177   1    722    724
   178   1    726    728
   179   1    730    732
   180   1    734    736
   181   1    738    740
   182   1    742    744
   183   1    746    748
   184   1    750    752
   185   1    756    758
   186   1    759    761
   187   1    763    765
   188   1    767    769
   189   1    771    773
   190   1    775    777
   191   1    779    781
   192   1    783    785
   193   1    787    789
   194   1    791    793
   195   1    795    797
   196   1    801    803
   197   1    804    806
   198   1    808    810
   199   1    812    814
   200   1    816    818
   201   1    820    822
   202   1    824    826
   203   1    828    830
   204   1    832    834
   205   1    836    838
   206   1    840    842
   207   1    846    848
   208   1    849    851
   209   1    853    855
   210   1    857    859
   211   1    861    863
   212   1    865    867
   213   1    869    871
   214   1    873    875
   215   1    877    879
   216   1    881    883
   217   1    885    887
   218   1    891    893
   219   1    894    896
   220   1    898    900
   221   1    902    904
   222   1    906    908
   223   1    910    912
   224   1    914    916
   225   1    918    920
   226   1    922    924
   227   1    926    928
   228   1    930    932
   229   1    936    938
   230   1    939    941
   231   1    943    945
   232   1    947    949
   233   1    951    953
   234   1    955    957
   235   1    959    961
   236   1    963    965
   237   1    967    969
   238   1    971    973
   239   1    975    977
   240   1    981    983
   241   1    984    986
   242   1    988    990
   243   1    992    994
   244   1    996    998
   245   1   1000   1002
   246   1   1004   1006
   247   1   1008   1010
   248   1   1012   1014
   249   1   1016   1018
   250   1   1020   1022
   251   1   1026   1028
   252   1   1029   1031
   253   1   1033   1035
   254   1   1037   1039
   255   1   1041   1043
   256   1   1045   1047
   257   1   1049   1051
   258   1   1053   1055
   259   1   1057   1059
   260   1   1061   1063
   261   1   1065   1067
   262   1   1071   1073
   263   1   1074   1076
   264   1   1078   1080
   265   1   1082   1084
   266   1   1086   1088
   267   1   1090   1092
   268   1   1094   1096
   269   1   1098   1100
   270   1   1102   1104
   271   1   1106   1108
   272   1   1110   1112
   273   1   1116   1118
   274   1   1119   1121
   275   1   1123   1125
   276   1   1127   1129
   277   1   1131   1133
   278   1   1135   1137
   279   1   1139   1141
   280   1   1143   1145
   281   1   1147   1149
   282   1   1151   1153
   283   1   1155   1157
   284   1   1161   1163
   285   1   1164   1166
   286   1   1168   1170
   287   1   1172   1174
   288   1   1176   1178
   289   1   1180   1182
   290   1   1184   1186
   291   1   1188   1190
   292   1   1192   1194
   293   1   1196   1198
   294   1   1200   1202
   295   1   1206   1208
   296   1   1209   1211
   297   1   1213   1215
   298   1   1217   1219
   299   1   1221   1223
   300   1   1225   1227
   301   1   1229   1231
   302   1   1233   1235
   303   1   1237   1239
   304   1   1241   1243
   305   1   1245   1247
   306   1   1251   1253
   307   1   1254   1256
   308   1   1258   1260
   309   1   1262   1264
   310   1   1266   1268
   311   1   1270   1272
   312   1   1274   1276
   313   1   1278   1280
   314   1   1282   1284
   315   1   1286   1288
   316   1   1290   1292
   317   1   1296   1298
   318   1   1299   1301
   319   1   1303   1305
   320   1   1307   1309
   321   1   1311   1313
   322   1   1315   1317
   323   1   1319   1321
   324   1   1323   1325
   325   1   1327   1329
   326   1   1331   1333
   327   1   1335   1337
   328   1   1341   1343
   329   1   1344   1346
   330   1   1348   1350
   331   1   1352   1354
   332   1   1356   1358
   333   1   1360   1362
   334   1   1364   1366
   335   1   1368   1370
   336   1   1372   1374
   337   1   1376   1378
   338   1   1380   1382
   339   1   1386   1388
   340   1   1389   1391
   341   1   1393   1395
   342   1   1397   1399
   343   1   1401   1403
   344   1   1405   1407
   345   1   1409   1411
   346   1   1413   1415
   347   1   1417   1419
   348   1   1421   1423
   349   1   1425   1427
   350   1   1431   1433
   351   1   1434   1436
   352   1   1438   1440
   353   1   1442   1444
   354   1   1446   1448
   355   1   1450   1452
   356   1   1454   1456
   357   1   1458   1460
   358   1   1462   1464
   359   1   1466   1468
   360   1   1470   1472
   361   1   1476   1478
   362   1   1479   1481
   363   1   1483   1485
   364   1   1487   1489
   365   1   1491   1493
   366   1   1495   1497
   367   1   1499   1501
   368   1   1503   1505
   369   1   1507   1509
   370   1   1511   1513
   371   1   1515   1517
   372   1   1521   1523
   373   1   1524   1526
   374   1   1528   1530
   375   1   1532   1534
   376   1   1536   1538
   377   1   1540   1542
   378   1   1544   1546
   379   1   1548   1550
   380   1   1552   1554
   381   1   1556   1558
   382   1   1560   1562
   383   1   1566   1568
   384   1   1569   1571
   385   1   1573   1575
   386   1   1577   1579
   387   1   1581   1583
   388   1   1585   1587
   389   1   1589   1591
   390   1   1593   1595
   391   1   1597   1599
   392   1   1601   1603
   393   1   1605   1607
   394   1   1611   1613
   395   1   1614   1616
   396   1   1618   1620
   397   1   1622   1624
   398   1   1626   1628
   399   1   1630   1632
   400   1   1634   1636
   401   1   1638   1640
   402   1   1642   1644
   403   1   1646   1648
   404   1   1650   1652
   405   1   1656   1658
   406   1   1659   1661
   407   1   1663   1665
   408   1   1667   1669
   409   1   1671   1673
   410   1   1675   1677
   411   1   1679   1681
   412   1   1683   1685
   413   1   1687   1689
   414   1   1691   1693
   415   1   1695   1697
   416   1   1701   1703
   417   1   1704   1706
   418   1   1708   1710
   419   1   1712   1714
   420   1   1716   1718
   421   1   1720   1722
   422   1   1724   1726
   423   1   1728   1730
   424   1   1732   1734
   425   1   1736   1738
   426   1   1740   1742
   427   1   1746   1748
   428   1   1749   1751
   429   1   1753   1755
   430   1   1757   1759
   431   1   1761   1763
   432   1   1765   1767
   433   1   1769   1771
   434   1   1773   1775
   435   1   1777   1779
   436   1   1781   1783
   437   1   1785   1787
   438   1   1791   1793
   439   1   1794   1796
   440   1   1798   1800
   441   1   1802   1804
   442   1   1806   1808
   443   1   1810   1812
   444   1   1814   1816
   445   1   1818   1820
   446   1   1822   1824
   447   1   1826   1828
   448   1   1830   1832
   449   1   1836   1838
   450   1   1839   1841
   451   1   1843   1845
   452   1   1847   1849
   453   1   1851   1853
   454   1   1855   1857
   455   1   1859   1861
   456   1   1863   1865
   457   1   1867   1869
   458   1   1871   1873
   459   1   1875   1877
   460   1   1881   1883
   461   1   1884   1886
   462   1   1888   1890
   463   1   1892   1894
   464   1   1896   1898
   465   1   1900   1902
   466   1   1904   1906
   467   1   1908   1910
   468   1   1912   1914
   469   1   1916   1918
   470   1   1920   1922
   471   1   1926   1928
   472   1   1929   1931
   473   1   1933   1935
   474   1   1937   1939
   475   1   1941   1943
   476   1   1945   1947
   477   1   1949   1951
   478   1   1953   1955
   479   1   1957   1959
   480   1   1961   1963
   481   1   1965   1967
   482   1   1971   1973
   483   1   1974   1976
   484   1   1978   1980
   485   1   1982   1984
   486   1   1986   1988
   487   1   1990   1992
   488   1   1994   1996
   489   1   1998   2000
   490   1   2002   2004
   491   1   2006   2008
   492   1   2010   2012
   493   1   2016   2018
   494   1   2019   2021
   495   1   2023   2025
   496   1   2027   2029
   497   1   2031   2033
   498   1   2035   2037
   499   1   2039   2041
   500   1   2043   2045
   501   1   2047   2049
   502   1   2051   2053
   503   1   2055   2057
   504   1   2061   2063
   505   1   2064   2066
   506   1   2068   2070
   507   1   2072   2074
   508   1   2076   2078
   509   1   2080   2082
   510   1   2084   2086
   511   1   2088   2090
   512   1   2092   2094
   513   1   2096   2098
   514   1   2100   2102
   515   1   2106   2108
   516   1   2109   2111
   517   1   2113   2115
   518   1   2117   2119
   519   1   2121   2123
   520   1   2125   2127
   521   1   2129   2131
   522   1   2133   2135
   523   1   2137   2139
   524   1   2141   2143
   525   1   2145   2147
   526   1   2151   2153
   527   1   2154   2156
   528   1   2158   2160
   529   1   2162   2164
   530   1   2166   2168
   531   1   2170   2172
   532   1   2174   2176
   533   1   2178   2180
   534   1   2182   2184
   535   1   2186   2188
   536   1   2190   2192
   537   1   2196   2198
   538   1   2199   2201
   539   1   2203   2205
   540   1   2207   2209
   541   1   2211   2213
   542   1   2215   2217
   543   1   2219   2221
   544   1   2223   2225
   545   1   2227   2229
   546   1   2231   2233
   547   1   2235   2237
   548   1   2241   2243
   549   1   2244   2246
   550   1   2248   2250
   551   1   2252   2254
   552   1   2256   2258
   553   1   2260   2262
   554   1   2264   2266
   555   1   2268   2270
   556   1   2272   2274
   557   1   2276   2278
   558   1   2280   2282
   559   1   2286   2288
   560   1   2289   2291
   561   1   2293   2295
   562   1   2297   2299
   563   1   2301   2303
   564   1   2305   2307
   565   1   2309   2311
   566   1   2313   2315
   567   1   2317   2319
   568   1   2321   2323
   569   1   2325   2327
   570   1   2331   2333
   571   1   2334   2336
   572   1   2338   2340
   573   1   2342   2344
   574   1   2346   2348
   575   1   2350   2352
   576   1   2354   2356
   577   1   2358   2360
   578   1   2362   2364
   579   1   2366   2368
   580   1   2370   2372
   581   1   2376   2378
   582   1   2379   2381
   583   1   2383   2385
   584   1   2387   2389
   585   1   2391   2393
   586   1   2395   2397
   587   1   2399   2401
   588   1   2403   2405
   589   1   2407   2409
   590   1   2411   2413
   591   1   2415   2417
   592   1   2421   2423
   593   1   2424   2426
   594   1   2428   2430
   595   1   2444   2431
   596   1   2445   2432
   597   1   2446   2433
   598   1   2447   2434
   599   1   2448   2435
   600   1   2449   2436
   601   1   2450   2437
   602   1   2451   2438
   603   1   2452   2439
   604   1   2453   2440
   605   1   2454   2441
   606   1   2455   2442
   607   1   2456   2443
   608   1   2457   2458
   609   1   2459   2460
   610   1   2461   2462
   611   1   2463   2464
   612   1   2465   2466
   613   1   2467   2468
   614   1   2469   2470
   615   1   2471   2472
   616   1   2473   2474
   617   1   2475   2476
   618   1   2478   2479
   619   1   2481   2482
   620   1   2484   2485
   621   1   2487   2488
   622   1   2490   2491
   623   1   2493   2494
   624   1   2496   2497
   625   1   2499   2500
   626   1   2502   2503
   627   1   2505   2506
   628   1   2508   2509
   629   1   2511   2512
   630   1   2514   2515
   631   1   2517   2518
   632   1   2520   2521
   633   1   2523   2524
   634   1   2526   2527
   635   1   2529   2530
   636   1   2532   2533
   637   1   2535   2536
   638   1   2538   2539
   639   1   2541   2542
   640   1   2544   2545
   641   1   2547   2548
   642   1   2550   2551
   643   1   2553   2554
   644   1   2556   2557
   645   1   2559   2560
   646   1   2562   2563
   647   1   2565   2566
   648   1   2568   2569
   649   1   2571   2572
   650   1   2574   2575
   651   1   2577   2578
   652   1   2580   2581
   653   1   2583   2584
   654   1   2586   2587
   655   1   2589   2590
   656   1   2592   2593
   657   1   2595   2596
   658   1   2598   2599
   659   1   2601   2602
   660   1   2604   2605
   661   1   2607   2608
   662   1   2611   2610

Angles

     1   1   2026     12     10
     2   1   2071     12     10
     3   1   2071     57     55
     4   1   2116     57     55
     5   1   2116    102    100
     6   1   2161    102    100
     7   1   2161    147    145
     8   1   2206    147    145
     9   1   2206    192    190
    10   1   2251    192    190
    11   1   2251    237    235
    12   1   2296    237    235
    13   1   2296    282    280
    14   1   2341    282    280
    15   1   2341    327    325
    16   1   2386    327    325
    17   1   2386    372    370
    18   1   2026    372    370
    19   1      1    417    415
    20   1     46    417    415
    21   1     46    462    460
    22   1     91    462    460
    23   1     91    507    505
    24   1    136    507    505
    25   1    136    552    550
    26   1    181    552    550
    27   1    181    597    595
    28   1    226    597    595
    29   1    226    642    640
    30   1    271    642    640
    31   1    271    687    685
    32   1    316    687    685
    33   1    316    732    730
    34   1    361    732    730
    35   1    361    777    775
    36   1      1    777    775
    37   1    406    822    820
    38   1    451    822    820
    39   1    451    867    865
    40   1    496    867    865
    41   1    496    912    910
    42   1    541    912    910
    43   1    541    957    955
    44   1    586    957    955
    45   1    586   1002   1000
    46   1    631   1002   1000
    47   1    631   1047   1045
    48   1    676   1047   1045
    49   1    676   1092   1090
    50   1    721   1092   1090
    51   1    721   1137   1135
    52   1    766   1137   1135
    53   1    766   1182   1180
    54   1    406   1182   1180
    55   1    811   1227   1225
    56   1    856   1227   1225
    57   1    856   1272   1270
    58   1    901   1272   1270
    59   1    901   1317   1315
    60   1    946   1317   1315
    61   1    946   1362   1360
    62   1    991   1362   1360
    63   1    991   1407   1405
    64   1   1036   1407   1405
    65   1   1036   1452   1450
    66   1   1081   1452   1450
    67   1   1081   1497   1495
    68   1   1126   1497   1495
    69   1   1126   1542   1540
    70   1   1171   1542   1540
    71   1   1171   1587   1585
    72   1    811   1587   1585
    73   1   1216   1632   1630
    74   1   1261   1632   1630
    75   1   1261   1677   1675
    76   1   1306   1677   1675
    77   1   1306   1722   1720
    78   1   1351   1722   1720
    79   1   1351   1767   1765
    80   1   1396   1767   1765
    81   1   1396   1812   1810
    82   1   1441   1812   1810
    83   1   1441   1857   1855
    84   1   1486   1857   1855
    85   1   1486   1902   1900
    86   1   1531   1902   1900
    87   1   1531   1947   1945
    88   1   1576   1947   1945
    89   1   1576   1992   1990
    90   1   1216   1992   1990
    91   1   1621   2037   2035
    92   1   1666   2037   2035
    93   1   1666   2082   2080
    94   1   1711   2082   2080
    95   1   1711   2127   2125
    96   1   1756   2127   2125
    97   1   1756   2172   2170
    98   1   1801   2172   2170
    99   1   1801   2217   2215
   100   1   1846   2217   2215
   101   1   1846   2262   2260
   102   1   1891   2262   2260
   103   1   1891   2307   2305
   104   1   1936   2307   2305
   105   1   1936   2352   2350
   106   1   1981   2352   2350
   107   1   1981   2397   2395
   108   1   1621   2397   2395
   109   1   2612   2431   2444
   110   1   2616   2432   2445
   111   1   2483   2433   2446
   112   1   2495   2434   2447
   113   1   2504   2435   2448
   114   1   2525   2436   2449
   115   1   2537   2437   2450
   116   1   2549   2438   2451
   117   1   2558   2439   2452
   118   1   2570   2440   2453
   119   1   2579   2441   2454
   120   1   2591   2442   2455
   121   1   2603   2443   2456
   122   1   2477   2458   2457
   123   1   2501   2458   2457
   124   1   2477   2460   2459
   125   1   2480   2460   2459
   126   1   2480   2462   2461
   127   1   2483   2462   2461
   128   1   2486   2464   2463
   129   1   2483   2464   2463
   130   1   2486   2466   2465
   131   1   2489   2466   2465
   132   1   2489   2468   2467
   133   1   2492   2468   2467
   134   1   2495   2470   2469
   135   1   2492   2470   2469
   136   1   2495   2472   2471
   137   1   2498   2472   2471
   138   1   2498   2474   2473
   139   1   2501   2474   2473
   140   1   2504   2476   2475
   141   1   2528   2476   2475
   142   1   2504   2479   2478
   143   1   2507   2479   2478
   144   1   2507   2482   2481
   145   1   2510   2482   2481
   146   1   2513   2485   2484
   147   1   2510   2485   2484
   148   1   2513   2488   2487
   149   1   2516   2488   2487
   150   1   2516   2491   2490
   151   1   2519   2491   2490
   152   1   2522   2494   2493
   153   1   2519   2494   2493
   154   1   2522   2497   2496
   155   1   2525   2497   2496
   156   1   2525   2500   2499
   157   1   2528   2500   2499
   158   1   2531   2503   2502
   159   1   2555   2503   2502
   160   1   2531   2506   2505
   161   1   2534   2506   2505
   162   1   2534   2509   2508
   163   1   2537   2509   2508
   164   1   2540   2512   2511
   165   1   2537   2512   2511
   166   1   2540   2515   2514
   167   1   2543   2515   2514
   168   1   2543   2518   2517
   169   1   2546   2518   2517
   170   1   2549   2521   2520
   171   1   2546   2521   2520
   172   1   2549   2524   2523
   173   1   2552   2524   2523
   174   1   2552   2527   2526
   175   1   2555   2527   2526
   176   1   2558   2530   2529
   177   1   2582   2530   2529
   178   1   2558   2533   2532
   179   1   2561   2533   2532
   180   1   2561   2536   2535
   181   1   2564   2536   2535
   182   1   2567   2539   2538
   183   1   2564   2539   2538
   184   1   2567   2542   2541
   185   1   2570   2542   2541
   186   1   2570   2545   2544
   187   1   2573   2545   2544
   188   1   2576   2548   2547
   189   1   2573   2548   2547
   190   1   2576   2551   2550
   191   1   2579   2551   2550
   192   1   2579   2554   2553
   193   1   2582   2554   2553
   194   1   2585   2557   2556
   195   1   2609   2557   2556
   196   1   2585   2560   2559
   197   1   2588   2560   2559
   198   1   2588   2563   2562
   199   1   2591   2563   2562
   200   1   2594   2566   2565
   201   1   2591   2566   2565
   202   1   2594   2569   2568
   203   1   2597   2569   2568
   204   1   2597   2572   2571
   205   1   2600   2572   2571
   206   1   2603   2575   2574
   207   1   2600   2575   2574
   208   1   2603   2578   2577
   209   1   2606   2578   2577
   210   1   2606   2581   2580
   211   1   2609   2581   2580
   212   1   2612   2584   2583
   213   1   2620   2584   2583
   214   1   2612   2587   2586
   215   1   2613   2587   2586
   216   1   2613   2590   2589
   217   1   2614   2590   2589
   218   1   2615   2593   2592
   219   1   2614   2593   2592
   220   1   2615   2596   2595
   221   1   2616   2596   2595
   222   1   2616   2599   2598
   223   1   2617   2599   2598
   224   1   2618   2602   2601
   225   1   2617   2602   2601
   226   1   2618   2605   2604
   227   1   2619   2605   2604
   228   1   2619   2608   2607
   229   1   2620   2608   2607
   230   1   2516   2610   2611
