LAMMPS data file for goe-010-1

   2594 atoms
   649 bonds
      1 angles
      0 dihedrals
      0 impropers

   4 atom types
   1 bond types
   1 angle types

     0.001397286    27.481397286 xlo xhi
     0.002074186    29.742274186 ylo yhi
   -72.259111690   103.615988310 zlo zhi

Masses

   1  55.847000 # feok
   2   1.007940 # hoy
   3  15.999400 # obsk
   4  15.999400 # ohk

Pair Coeffs # lj/cut/coul/long

   1   0.0000090298   4.0722178483 # feok
   2   0.0000000000   0.0000000000 # hoy
   3   0.1554000000   3.1655413253 # obsk
   4   0.1554000000   3.1655413253 # ohk

Bond Coeffs # harmonic

   1   554.1348     1.0000 # hoy-ohk

Angle Coeffs # harmonic

   1    30.0000   109.4700 # feok-ohk-hoy

Atoms # full

      1      1   1  1.575000     4.357411861     1.446364999     2.863179684   0   0   0 # feok
      2      1   2  0.425000     2.752579927     8.912146568     2.863179684   0   0   0 # hoy
      3      1   3 -1.050000     1.305299997     7.940633297     2.863179684   0   0   0 # obsk
      4      1   4 -0.950000     3.682319880     9.400876999     2.863179684   0   0   0 # ohk
      5      1   1  1.575000     2.067411900     3.510334969     4.369579792   0   0   0 # feok
      6      1   2  0.425000     0.462580055     5.957953453     4.369579792   0   0   0 # hoy
      7      1   3 -1.050000     3.595299959     6.929466248     4.369579792   0   0   0 # obsk
      8      1   4 -0.950000     1.392320037     5.469222546     4.369579792   0   0   0 # ohk
      9      1   1  1.575000     0.222587988     8.467034340     4.369579792   0   0   0 # feok
     10      1   2  0.425000     1.827419877     1.001253366     4.369579792   0   0   0 # hoy
     11      1   3 -1.050000     3.274699926     1.972766519     4.369579792   0   0   0 # obsk
     12      1   4 -0.950000     0.897679985     0.512522757     4.369579792   0   0   0 # ohk
     13      1   1  1.575000     2.512588024     6.403064728     2.863179684   0   0   0 # feok
     14      1   2  0.425000     4.117419720     3.955446482     2.863179684   0   0   0 # hoy
     15      1   3 -1.050000     0.984700024     2.983933210     2.863179684   0   0   0 # obsk
     16      1   4 -0.950000     3.187680006     4.444177151     2.863179684   0   0   0 # ohk
     17      1   1  1.575000     4.357411861    11.359765053     2.863179684   0   0   0 # feok
     18      1   2  0.425000     2.752579927    18.825546265     2.863179684   0   0   0 # hoy
     19      1   3 -1.050000     1.305299997    17.854032516     2.863179684   0   0   0 # obsk
     20      1   4 -0.950000     3.682319880    19.314275742     2.863179684   0   0   0 # ohk
     21      1   1  1.575000     2.067411900    13.423734665     4.369579792   0   0   0 # feok
     22      1   2  0.425000     0.462580055    15.871353149     4.369579792   0   0   0 # hoy
     23      1   3 -1.050000     3.595299959    16.842866898     4.369579792   0   0   0 # obsk
     24      1   4 -0.950000     1.392320037    15.382622719     4.369579792   0   0   0 # ohk
     25      1   1  1.575000     0.222587988    18.380434036     4.369579792   0   0   0 # feok
     26      1   2  0.425000     1.827419877    10.914652824     4.369579792   0   0   0 # hoy
     27      1   3 -1.050000     3.274699926    11.886166573     4.369579792   0   0   0 # obsk
     28      1   4 -0.950000     0.897679985    10.425922394     4.369579792   0   0   0 # ohk
     29      1   1  1.575000     2.512588024    16.316465378     2.863179684   0   0   0 # feok
     30      1   2  0.425000     4.117419720    13.868845940     2.863179684   0   0   0 # hoy
     31      1   3 -1.050000     0.984700024    12.897333145     2.863179684   0   0   0 # obsk
     32      1   4 -0.950000     3.187680006    14.357576370     2.863179684   0   0   0 # ohk
     33      1   1  1.575000     4.357411861    21.273164749     2.863179684   0   0   0 # feok
     34      1   2  0.425000     2.752579927    28.738945007     2.863179684   0   0   0 # hoy
     35      1   3 -1.050000     1.305299997    27.767433167     2.863179684   0   0   0 # obsk
     36      1   4 -0.950000     3.682319880    29.227676392     2.863179684   0   0   0 # ohk
     37      1   1  1.575000     2.067411900    23.337133408     4.369579792   0   0   0 # feok
     38      1   2  0.425000     0.462580055    25.784751892     4.369579792   0   0   0 # hoy
     39      1   3 -1.050000     3.595299959    26.756265640     4.369579792   0   0   0 # obsk
     40      1   4 -0.950000     1.392320037    25.296022415     4.369579792   0   0   0 # ohk
     41      1   1  1.575000     0.222587988    28.293834686     4.369579792   0   0   0 # feok
     42      1   2  0.425000     1.827419877    20.828052521     4.369579792   0   0   0 # hoy
     43      1   3 -1.050000     3.274699926    21.799566269     4.369579792   0   0   0 # obsk
     44      1   4 -0.950000     0.897679985    20.339323044     4.369579792   0   0   0 # ohk
     45      1   1  1.575000     2.512588024    26.229864120     2.863179684   0   0   0 # feok
     46      1   2  0.425000     4.117419720    23.782245636     2.863179684   0   0   0 # hoy
     47      1   3 -1.050000     0.984700024    22.810731888     2.863179684   0   0   0 # obsk
     48      1   4 -0.950000     3.187680006    24.270977020     2.863179684   0   0   0 # ohk
     49      1   1  1.575000     4.357411861     1.446364999     5.875979424   0   0   0 # feok
     50      1   2  0.425000     2.752579927     8.912146568     5.875979424   0   0   0 # hoy
     51      1   3 -1.050000     1.305299997     7.940633297     5.875979424   0   0   0 # obsk
     52      1   4 -0.950000     3.682319880     9.400876999     5.875979424   0   0   0 # ohk
     53      1   1  1.575000     2.067411900     3.510334969     7.382379532   0   0   0 # feok
     54      1   2  0.425000     0.462580055     5.957953453     7.382379532   0   0   0 # hoy
     55      1   3 -1.050000     3.595299959     6.929466248     7.382379532   0   0   0 # obsk
     56      1   4 -0.950000     1.392320037     5.469222546     7.382379532   0   0   0 # ohk
     57      1   1  1.575000     0.222587988     8.467034340     7.382379532   0   0   0 # feok
     58      1   2  0.425000     1.827419877     1.001253366     7.382379532   0   0   0 # hoy
     59      1   3 -1.050000     3.274699926     1.972766519     7.382379532   0   0   0 # obsk
     60      1   4 -0.950000     0.897679985     0.512522757     7.382379532   0   0   0 # ohk
     61      1   1  1.575000     2.512588024     6.403064728     5.875979424   0   0   0 # feok
     62      1   2  0.425000     4.117419720     3.955446482     5.875979424   0   0   0 # hoy
     63      1   3 -1.050000     0.984700024     2.983933210     5.875979424   0   0   0 # obsk
     64      1   4 -0.950000     3.187680006     4.444177151     5.875979424   0   0   0 # ohk
     65      1   1  1.575000     4.357411861    11.359765053     5.875979424   0   0   0 # feok
     66      1   2  0.425000     2.752579927    18.825546265     5.875979424   0   0   0 # hoy
     67      1   3 -1.050000     1.305299997    17.854032516     5.875979424   0   0   0 # obsk
     68      1   4 -0.950000     3.682319880    19.314275742     5.875979424   0   0   0 # ohk
     69      1   1  1.575000     2.067411900    13.423734665     7.382379532   0   0   0 # feok
     70      1   2  0.425000     0.462580055    15.871353149     7.382379532   0   0   0 # hoy
     71      1   3 -1.050000     3.595299959    16.842866898     7.382379532   0   0   0 # obsk
     72      1   4 -0.950000     1.392320037    15.382622719     7.382379532   0   0   0 # ohk
     73      1   1  1.575000     0.222587988    18.380434036     7.382379532   0   0   0 # feok
     74      1   2  0.425000     1.827419877    10.914652824     7.382379532   0   0   0 # hoy
     75      1   3 -1.050000     3.274699926    11.886166573     7.382379532   0   0   0 # obsk
     76      1   4 -0.950000     0.897679985    10.425922394     7.382379532   0   0   0 # ohk
     77      1   1  1.575000     2.512588024    16.316465378     5.875979424   0   0   0 # feok
     78      1   2  0.425000     4.117419720    13.868845940     5.875979424   0   0   0 # hoy
     79      1   3 -1.050000     0.984700024    12.897333145     5.875979424   0   0   0 # obsk
     80      1   4 -0.950000     3.187680006    14.357576370     5.875979424   0   0   0 # ohk
     81      1   1  1.575000     4.357411861    21.273164749     5.875979424   0   0   0 # feok
     82      1   2  0.425000     2.752579927    28.738945007     5.875979424   0   0   0 # hoy
     83      1   3 -1.050000     1.305299997    27.767433167     5.875979424   0   0   0 # obsk
     84      1   4 -0.950000     3.682319880    29.227676392     5.875979424   0   0   0 # ohk
     85      1   1  1.575000     2.067411900    23.337133408     7.382379532   0   0   0 # feok
     86      1   2  0.425000     0.462580055    25.784751892     7.382379532   0   0   0 # hoy
     87      1   3 -1.050000     3.595299959    26.756265640     7.382379532   0   0   0 # obsk
     88      1   4 -0.950000     1.392320037    25.296022415     7.382379532   0   0   0 # ohk
     89      1   1  1.575000     0.222587988    28.293834686     7.382379532   0   0   0 # feok
     90      1   2  0.425000     1.827419877    20.828052521     7.382379532   0   0   0 # hoy
     91      1   3 -1.050000     3.274699926    21.799566269     7.382379532   0   0   0 # obsk
     92      1   4 -0.950000     0.897679985    20.339323044     7.382379532   0   0   0 # ohk
     93      1   1  1.575000     2.512588024    26.229864120     5.875979424   0   0   0 # feok
     94      1   2  0.425000     4.117419720    23.782245636     5.875979424   0   0   0 # hoy
     95      1   3 -1.050000     0.984700024    22.810731888     5.875979424   0   0   0 # obsk
     96      1   4 -0.950000     3.187680006    24.270977020     5.875979424   0   0   0 # ohk
     97      1   1  1.575000     4.357411861     1.446364999     8.888779640   0   0   0 # feok
     98      1   2  0.425000     2.752579927     8.912146568     8.888779640   0   0   0 # hoy
     99      1   3 -1.050000     1.305299997     7.940633297     8.888779640   0   0   0 # obsk
    100      1   4 -0.950000     3.682319880     9.400876999     8.888779640   0   0   0 # ohk
    101      1   1  1.575000     2.067411900     3.510334969    10.395179749   0   0   0 # feok
    102      1   2  0.425000     0.462580055     5.957953453    10.395179749   0   0   0 # hoy
    103      1   3 -1.050000     3.595299959     6.929466248    10.395179749   0   0   0 # obsk
    104      1   4 -0.950000     1.392320037     5.469222546    10.395179749   0   0   0 # ohk
    105      1   1  1.575000     0.222587988     8.467034340    10.395179749   0   0   0 # feok
    106      1   2  0.425000     1.827419877     1.001253366    10.395179749   0   0   0 # hoy
    107      1   3 -1.050000     3.274699926     1.972766519    10.395179749   0   0   0 # obsk
    108      1   4 -0.950000     0.897679985     0.512522757    10.395179749   0   0   0 # ohk
    109      1   1  1.575000     2.512588024     6.403064728     8.888779640   0   0   0 # feok
    110      1   2  0.425000     4.117419720     3.955446482     8.888779640   0   0   0 # hoy
    111      1   3 -1.050000     0.984700024     2.983933210     8.888779640   0   0   0 # obsk
    112      1   4 -0.950000     3.187680006     4.444177151     8.888779640   0   0   0 # ohk
    113      1   1  1.575000     4.357411861    11.359765053     8.888779640   0   0   0 # feok
    114      1   2  0.425000     2.752579927    18.825546265     8.888779640   0   0   0 # hoy
    115      1   3 -1.050000     1.305299997    17.854032516     8.888779640   0   0   0 # obsk
    116      1   4 -0.950000     3.682319880    19.314275742     8.888779640   0   0   0 # ohk
    117      1   1  1.575000     2.067411900    13.423734665    10.395179749   0   0   0 # feok
    118      1   2  0.425000     0.462580055    15.871353149    10.395179749   0   0   0 # hoy
    119      1   3 -1.050000     3.595299959    16.842866898    10.395179749   0   0   0 # obsk
    120      1   4 -0.950000     1.392320037    15.382622719    10.395179749   0   0   0 # ohk
    121      1   1  1.575000     0.222587988    18.380434036    10.395179749   0   0   0 # feok
    122      1   2  0.425000     1.827419877    10.914652824    10.395179749   0   0   0 # hoy
    123      1   3 -1.050000     3.274699926    11.886166573    10.395179749   0   0   0 # obsk
    124      1   4 -0.950000     0.897679985    10.425922394    10.395179749   0   0   0 # ohk
    125      1   1  1.575000     2.512588024    16.316465378     8.888779640   0   0   0 # feok
    126      1   2  0.425000     4.117419720    13.868845940     8.888779640   0   0   0 # hoy
    127      1   3 -1.050000     0.984700024    12.897333145     8.888779640   0   0   0 # obsk
    128      1   4 -0.950000     3.187680006    14.357576370     8.888779640   0   0   0 # ohk
    129      1   1  1.575000     4.357411861    21.273164749     8.888779640   0   0   0 # feok
    130      1   2  0.425000     2.752579927    28.738945007     8.888779640   0   0   0 # hoy
    131      1   3 -1.050000     1.305299997    27.767433167     8.888779640   0   0   0 # obsk
    132      1   4 -0.950000     3.682319880    29.227676392     8.888779640   0   0   0 # ohk
    133      1   1  1.575000     2.067411900    23.337133408    10.395179749   0   0   0 # feok
    134      1   2  0.425000     0.462580055    25.784751892    10.395179749   0   0   0 # hoy
    135      1   3 -1.050000     3.595299959    26.756265640    10.395179749   0   0   0 # obsk
    136      1   4 -0.950000     1.392320037    25.296022415    10.395179749   0   0   0 # ohk
    137      1   1  1.575000     0.222587988    28.293834686    10.395179749   0   0   0 # feok
    138      1   2  0.425000     1.827419877    20.828052521    10.395179749   0   0   0 # hoy
    139      1   3 -1.050000     3.274699926    21.799566269    10.395179749   0   0   0 # obsk
    140      1   4 -0.950000     0.897679985    20.339323044    10.395179749   0   0   0 # ohk
    141      1   1  1.575000     2.512588024    26.229864120     8.888779640   0   0   0 # feok
    142      1   2  0.425000     4.117419720    23.782245636     8.888779640   0   0   0 # hoy
    143      1   3 -1.050000     0.984700024    22.810731888     8.888779640   0   0   0 # obsk
    144      1   4 -0.950000     3.187680006    24.270977020     8.888779640   0   0   0 # ohk
    145      1   1  1.575000     4.357411861     1.446364999    11.901579857   0   0   0 # feok
    146      1   2  0.425000     2.752579927     8.912146568    11.901579857   0   0   0 # hoy
    147      1   3 -1.050000     1.305299997     7.940633297    11.901579857   0   0   0 # obsk
    148      1   4 -0.950000     3.682319880     9.400876999    11.901579857   0   0   0 # ohk
    149      1   1  1.575000     2.067411900     3.510334969    13.407979965   0   0   0 # feok
    150      1   2  0.425000     0.462580055     5.957953453    13.407979965   0   0   0 # hoy
    151      1   3 -1.050000     3.595299959     6.929466248    13.407979965   0   0   0 # obsk
    152      1   4 -0.950000     1.392320037     5.469222546    13.407979965   0   0   0 # ohk
    153      1   1  1.575000     0.222587988     8.467034340    13.407979965   0   0   0 # feok
    154      1   2  0.425000     1.827419877     1.001253366    13.407979965   0   0   0 # hoy
    155      1   3 -1.050000     3.274699926     1.972766519    13.407979965   0   0   0 # obsk
    156      1   4 -0.950000     0.897679985     0.512522757    13.407979965   0   0   0 # ohk
    157      1   1  1.575000     2.512588024     6.403064728    11.901579857   0   0   0 # feok
    158      1   2  0.425000     4.117419720     3.955446482    11.901579857   0   0   0 # hoy
    159      1   3 -1.050000     0.984700024     2.983933210    11.901579857   0   0   0 # obsk
    160      1   4 -0.950000     3.187680006     4.444177151    11.901579857   0   0   0 # ohk
    161      1   1  1.575000     4.357411861    11.359765053    11.901579857   0   0   0 # feok
    162      1   2  0.425000     2.752579927    18.825546265    11.901579857   0   0   0 # hoy
    163      1   3 -1.050000     1.305299997    17.854032516    11.901579857   0   0   0 # obsk
    164      1   4 -0.950000     3.682319880    19.314275742    11.901579857   0   0   0 # ohk
    165      1   1  1.575000     2.067411900    13.423734665    13.407979965   0   0   0 # feok
    166      1   2  0.425000     0.462580055    15.871353149    13.407979965   0   0   0 # hoy
    167      1   3 -1.050000     3.595299959    16.842866898    13.407979965   0   0   0 # obsk
    168      1   4 -0.950000     1.392320037    15.382622719    13.407979965   0   0   0 # ohk
    169      1   1  1.575000     0.222587988    18.380434036    13.407979965   0   0   0 # feok
    170      1   2  0.425000     1.827419877    10.914652824    13.407979965   0   0   0 # hoy
    171      1   3 -1.050000     3.274699926    11.886166573    13.407979965   0   0   0 # obsk
    172      1   4 -0.950000     0.897679985    10.425922394    13.407979965   0   0   0 # ohk
    173      1   1  1.575000     2.512588024    16.316465378    11.901579857   0   0   0 # feok
    174      1   2  0.425000     4.117419720    13.868845940    11.901579857   0   0   0 # hoy
    175      1   3 -1.050000     0.984700024    12.897333145    11.901579857   0   0   0 # obsk
    176      1   4 -0.950000     3.187680006    14.357576370    11.901579857   0   0   0 # ohk
    177      1   1  1.575000     4.357411861    21.273164749    11.901579857   0   0   0 # feok
    178      1   2  0.425000     2.752579927    28.738945007    11.901579857   0   0   0 # hoy
    179      1   3 -1.050000     1.305299997    27.767433167    11.901579857   0   0   0 # obsk
    180      1   4 -0.950000     3.682319880    29.227676392    11.901579857   0   0   0 # ohk
    181      1   1  1.575000     2.067411900    23.337133408    13.407979965   0   0   0 # feok
    182      1   2  0.425000     0.462580055    25.784751892    13.407979965   0   0   0 # hoy
    183      1   3 -1.050000     3.595299959    26.756265640    13.407979965   0   0   0 # obsk
    184      1   4 -0.950000     1.392320037    25.296022415    13.407979965   0   0   0 # ohk
    185      1   1  1.575000     0.222587988    28.293834686    13.407979965   0   0   0 # feok
    186      1   2  0.425000     1.827419877    20.828052521    13.407979965   0   0   0 # hoy
    187      1   3 -1.050000     3.274699926    21.799566269    13.407979965   0   0   0 # obsk
    188      1   4 -0.950000     0.897679985    20.339323044    13.407979965   0   0   0 # ohk
    189      1   1  1.575000     2.512588024    26.229864120    11.901579857   0   0   0 # feok
    190      1   2  0.425000     4.117419720    23.782245636    11.901579857   0   0   0 # hoy
    191      1   3 -1.050000     0.984700024    22.810731888    11.901579857   0   0   0 # obsk
    192      1   4 -0.950000     3.187680006    24.270977020    11.901579857   0   0   0 # ohk
    193      1   1  1.575000     4.357411861     1.446364999    14.914379120   0   0   0 # feok
    194      1   2  0.425000     2.752579927     8.912146568    14.914379120   0   0   0 # hoy
    195      1   3 -1.050000     1.305299997     7.940633297    14.914379120   0   0   0 # obsk
    196      1   4 -0.950000     3.682319880     9.400876999    14.914379120   0   0   0 # ohk
    197      1   1  1.575000     2.067411900     3.510334969    16.420780182   0   0   0 # feok
    198      1   2  0.425000     0.462580055     5.957953453    16.420780182   0   0   0 # hoy
    199      1   3 -1.050000     3.595299959     6.929466248    16.420780182   0   0   0 # obsk
    200      1   4 -0.950000     1.392320037     5.469222546    16.420780182   0   0   0 # ohk
    201      1   1  1.575000     0.222587988     8.467034340    16.420780182   0   0   0 # feok
    202      1   2  0.425000     1.827419877     1.001253366    16.420780182   0   0   0 # hoy
    203      1   3 -1.050000     3.274699926     1.972766519    16.420780182   0   0   0 # obsk
    204      1   4 -0.950000     0.897679985     0.512522757    16.420780182   0   0   0 # ohk
    205      1   1  1.575000     2.512588024     6.403064728    14.914379120   0   0   0 # feok
    206      1   2  0.425000     4.117419720     3.955446482    14.914379120   0   0   0 # hoy
    207      1   3 -1.050000     0.984700024     2.983933210    14.914379120   0   0   0 # obsk
    208      1   4 -0.950000     3.187680006     4.444177151    14.914379120   0   0   0 # ohk
    209      1   1  1.575000     4.357411861    11.359765053    14.914379120   0   0   0 # feok
    210      1   2  0.425000     2.752579927    18.825546265    14.914379120   0   0   0 # hoy
    211      1   3 -1.050000     1.305299997    17.854032516    14.914379120   0   0   0 # obsk
    212      1   4 -0.950000     3.682319880    19.314275742    14.914379120   0   0   0 # ohk
    213      1   1  1.575000     2.067411900    13.423734665    16.420780182   0   0   0 # feok
    214      1   2  0.425000     0.462580055    15.871353149    16.420780182   0   0   0 # hoy
    215      1   3 -1.050000     3.595299959    16.842866898    16.420780182   0   0   0 # obsk
    216      1   4 -0.950000     1.392320037    15.382622719    16.420780182   0   0   0 # ohk
    217      1   1  1.575000     0.222587988    18.380434036    16.420780182   0   0   0 # feok
    218      1   2  0.425000     1.827419877    10.914652824    16.420780182   0   0   0 # hoy
    219      1   3 -1.050000     3.274699926    11.886166573    16.420780182   0   0   0 # obsk
    220      1   4 -0.950000     0.897679985    10.425922394    16.420780182   0   0   0 # ohk
    221      1   1  1.575000     2.512588024    16.316465378    14.914379120   0   0   0 # feok
    222      1   2  0.425000     4.117419720    13.868845940    14.914379120   0   0   0 # hoy
    223      1   3 -1.050000     0.984700024    12.897333145    14.914379120   0   0   0 # obsk
    224      1   4 -0.950000     3.187680006    14.357576370    14.914379120   0   0   0 # ohk
    225      1   1  1.575000     4.357411861    21.273164749    14.914379120   0   0   0 # feok
    226      1   2  0.425000     2.752579927    28.738945007    14.914379120   0   0   0 # hoy
    227      1   3 -1.050000     1.305299997    27.767433167    14.914379120   0   0   0 # obsk
    228      1   4 -0.950000     3.682319880    29.227676392    14.914379120   0   0   0 # ohk
    229      1   1  1.575000     2.067411900    23.337133408    16.420780182   0   0   0 # feok
    230      1   2  0.425000     0.462580055    25.784751892    16.420780182   0   0   0 # hoy
    231      1   3 -1.050000     3.595299959    26.756265640    16.420780182   0   0   0 # obsk
    232      1   4 -0.950000     1.392320037    25.296022415    16.420780182   0   0   0 # ohk
    233      1   1  1.575000     0.222587988    28.293834686    16.420780182   0   0   0 # feok
    234      1   2  0.425000     1.827419877    20.828052521    16.420780182   0   0   0 # hoy
    235      1   3 -1.050000     3.274699926    21.799566269    16.420780182   0   0   0 # obsk
    236      1   4 -0.950000     0.897679985    20.339323044    16.420780182   0   0   0 # ohk
    237      1   1  1.575000     2.512588024    26.229864120    14.914379120   0   0   0 # feok
    238      1   2  0.425000     4.117419720    23.782245636    14.914379120   0   0   0 # hoy
    239      1   3 -1.050000     0.984700024    22.810731888    14.914379120   0   0   0 # obsk
    240      1   4 -0.950000     3.187680006    24.270977020    14.914379120   0   0   0 # ohk
    241      1   1  1.575000     4.357411861     1.446364999    17.927179337   0   0   0 # feok
    242      1   2  0.425000     2.752579927     8.912146568    17.927179337   0   0   0 # hoy
    243      1   3 -1.050000     1.305299997     7.940633297    17.927179337   0   0   0 # obsk
    244      1   4 -0.950000     3.682319880     9.400876999    17.927179337   0   0   0 # ohk
    245      1   1  1.575000     2.067411900     3.510334969    19.433580399   0   0   0 # feok
    246      1   2  0.425000     0.462580055     5.957953453    19.433580399   0   0   0 # hoy
    247      1   3 -1.050000     3.595299959     6.929466248    19.433580399   0   0   0 # obsk
    248      1   4 -0.950000     1.392320037     5.469222546    19.433580399   0   0   0 # ohk
    249      1   1  1.575000     0.222587988     8.467034340    19.433580399   0   0   0 # feok
    250      1   2  0.425000     1.827419877     1.001253366    19.433580399   0   0   0 # hoy
    251      1   3 -1.050000     3.274699926     1.972766519    19.433580399   0   0   0 # obsk
    252      1   4 -0.950000     0.897679985     0.512522757    19.433580399   0   0   0 # ohk
    253      1   1  1.575000     2.512588024     6.403064728    17.927179337   0   0   0 # feok
    254      1   2  0.425000     4.117419720     3.955446482    17.927179337   0   0   0 # hoy
    255      1   3 -1.050000     0.984700024     2.983933210    17.927179337   0   0   0 # obsk
    256      1   4 -0.950000     3.187680006     4.444177151    17.927179337   0   0   0 # ohk
    257      1   1  1.575000     4.357411861    11.359765053    17.927179337   0   0   0 # feok
    258      1   2  0.425000     2.752579927    18.825546265    17.927179337   0   0   0 # hoy
    259      1   3 -1.050000     1.305299997    17.854032516    17.927179337   0   0   0 # obsk
    260      1   4 -0.950000     3.682319880    19.314275742    17.927179337   0   0   0 # ohk
    261      1   1  1.575000     2.067411900    13.423734665    19.433580399   0   0   0 # feok
    262      1   2  0.425000     0.462580055    15.871353149    19.433580399   0   0   0 # hoy
    263      1   3 -1.050000     3.595299959    16.842866898    19.433580399   0   0   0 # obsk
    264      1   4 -0.950000     1.392320037    15.382622719    19.433580399   0   0   0 # ohk
    265      1   1  1.575000     0.222587988    18.380434036    19.433580399   0   0   0 # feok
    266      1   2  0.425000     1.827419877    10.914652824    19.433580399   0   0   0 # hoy
    267      1   3 -1.050000     3.274699926    11.886166573    19.433580399   0   0   0 # obsk
    268      1   4 -0.950000     0.897679985    10.425922394    19.433580399   0   0   0 # ohk
    269      1   1  1.575000     2.512588024    16.316465378    17.927179337   0   0   0 # feok
    270      1   2  0.425000     4.117419720    13.868845940    17.927179337   0   0   0 # hoy
    271      1   3 -1.050000     0.984700024    12.897333145    17.927179337   0   0   0 # obsk
    272      1   4 -0.950000     3.187680006    14.357576370    17.927179337   0   0   0 # ohk
    273      1   1  1.575000     4.357411861    21.273164749    17.927179337   0   0   0 # feok
    274      1   2  0.425000     2.752579927    28.738945007    17.927179337   0   0   0 # hoy
    275      1   3 -1.050000     1.305299997    27.767433167    17.927179337   0   0   0 # obsk
    276      1   4 -0.950000     3.682319880    29.227676392    17.927179337   0   0   0 # ohk
    277      1   1  1.575000     2.067411900    23.337133408    19.433580399   0   0   0 # feok
    278      1   2  0.425000     0.462580055    25.784751892    19.433580399   0   0   0 # hoy
    279      1   3 -1.050000     3.595299959    26.756265640    19.433580399   0   0   0 # obsk
    280      1   4 -0.950000     1.392320037    25.296022415    19.433580399   0   0   0 # ohk
    281      1   1  1.575000     0.222587988    28.293834686    19.433580399   0   0   0 # feok
    282      1   2  0.425000     1.827419877    20.828052521    19.433580399   0   0   0 # hoy
    283      1   3 -1.050000     3.274699926    21.799566269    19.433580399   0   0   0 # obsk
    284      1   4 -0.950000     0.897679985    20.339323044    19.433580399   0   0   0 # ohk
    285      1   1  1.575000     2.512588024    26.229864120    17.927179337   0   0   0 # feok
    286      1   2  0.425000     4.117419720    23.782245636    17.927179337   0   0   0 # hoy
    287      1   3 -1.050000     0.984700024    22.810731888    17.927179337   0   0   0 # obsk
    288      1   4 -0.950000     3.187680006    24.270977020    17.927179337   0   0   0 # ohk
    289      1   1  1.575000     4.357411861     1.446364999    20.939979553   0   0   0 # feok
    290      1   2  0.425000     2.752579927     8.912146568    20.939979553   0   0   0 # hoy
    291      1   3 -1.050000     1.305299997     7.940633297    20.939979553   0   0   0 # obsk
    292      1   4 -0.950000     3.682319880     9.400876999    20.939979553   0   0   0 # ohk
    293      1   1  1.575000     2.067411900     3.510334969    22.446378708   0   0   0 # feok
    294      1   2  0.425000     0.462580055     5.957953453    22.446378708   0   0   0 # hoy
    295      1   3 -1.050000     3.595299959     6.929466248    22.446378708   0   0   0 # obsk
    296      1   4 -0.950000     1.392320037     5.469222546    22.446378708   0   0   0 # ohk
    297      1   1  1.575000     0.222587988     8.467034340    22.446378708   0   0   0 # feok
    298      1   2  0.425000     1.827419877     1.001253366    22.446378708   0   0   0 # hoy
    299      1   3 -1.050000     3.274699926     1.972766519    22.446378708   0   0   0 # obsk
    300      1   4 -0.950000     0.897679985     0.512522757    22.446378708   0   0   0 # ohk
    301      1   1  1.575000     2.512588024     6.403064728    20.939979553   0   0   0 # feok
    302      1   2  0.425000     4.117419720     3.955446482    20.939979553   0   0   0 # hoy
    303      1   3 -1.050000     0.984700024     2.983933210    20.939979553   0   0   0 # obsk
    304      1   4 -0.950000     3.187680006     4.444177151    20.939979553   0   0   0 # ohk
    305      1   1  1.575000     4.357411861    11.359765053    20.939979553   0   0   0 # feok
    306      1   2  0.425000     2.752579927    18.825546265    20.939979553   0   0   0 # hoy
    307      1   3 -1.050000     1.305299997    17.854032516    20.939979553   0   0   0 # obsk
    308      1   4 -0.950000     3.682319880    19.314275742    20.939979553   0   0   0 # ohk
    309      1   1  1.575000     2.067411900    13.423734665    22.446378708   0   0   0 # feok
    310      1   2  0.425000     0.462580055    15.871353149    22.446378708   0   0   0 # hoy
    311      1   3 -1.050000     3.595299959    16.842866898    22.446378708   0   0   0 # obsk
    312      1   4 -0.950000     1.392320037    15.382622719    22.446378708   0   0   0 # ohk
    313      1   1  1.575000     0.222587988    18.380434036    22.446378708   0   0   0 # feok
    314      1   2  0.425000     1.827419877    10.914652824    22.446378708   0   0   0 # hoy
    315      1   3 -1.050000     3.274699926    11.886166573    22.446378708   0   0   0 # obsk
    316      1   4 -0.950000     0.897679985    10.425922394    22.446378708   0   0   0 # ohk
    317      1   1  1.575000     2.512588024    16.316465378    20.939979553   0   0   0 # feok
    318      1   2  0.425000     4.117419720    13.868845940    20.939979553   0   0   0 # hoy
    319      1   3 -1.050000     0.984700024    12.897333145    20.939979553   0   0   0 # obsk
    320      1   4 -0.950000     3.187680006    14.357576370    20.939979553   0   0   0 # ohk
    321      1   1  1.575000     4.357411861    21.273164749    20.939979553   0   0   0 # feok
    322      1   2  0.425000     2.752579927    28.738945007    20.939979553   0   0   0 # hoy
    323      1   3 -1.050000     1.305299997    27.767433167    20.939979553   0   0   0 # obsk
    324      1   4 -0.950000     3.682319880    29.227676392    20.939979553   0   0   0 # ohk
    325      1   1  1.575000     2.067411900    23.337133408    22.446378708   0   0   0 # feok
    326      1   2  0.425000     0.462580055    25.784751892    22.446378708   0   0   0 # hoy
    327      1   3 -1.050000     3.595299959    26.756265640    22.446378708   0   0   0 # obsk
    328      1   4 -0.950000     1.392320037    25.296022415    22.446378708   0   0   0 # ohk
    329      1   1  1.575000     0.222587988    28.293834686    22.446378708   0   0   0 # feok
    330      1   2  0.425000     1.827419877    20.828052521    22.446378708   0   0   0 # hoy
    331      1   3 -1.050000     3.274699926    21.799566269    22.446378708   0   0   0 # obsk
    332      1   4 -0.950000     0.897679985    20.339323044    22.446378708   0   0   0 # ohk
    333      1   1  1.575000     2.512588024    26.229864120    20.939979553   0   0   0 # feok
    334      1   2  0.425000     4.117419720    23.782245636    20.939979553   0   0   0 # hoy
    335      1   3 -1.050000     0.984700024    22.810731888    20.939979553   0   0   0 # obsk
    336      1   4 -0.950000     3.187680006    24.270977020    20.939979553   0   0   0 # ohk
    337      1   1  1.575000     4.357411861     1.446364999    23.952779770   0   0   0 # feok
    338      1   2  0.425000     2.752579927     8.912146568    23.952779770   0   0   0 # hoy
    339      1   3 -1.050000     1.305299997     7.940633297    23.952779770   0   0   0 # obsk
    340      1   4 -0.950000     3.682319880     9.400876999    23.952779770   0   0   0 # ohk
    341      1   1  1.575000     2.067411900     3.510334969    25.459178925   0   0   0 # feok
    342      1   2  0.425000     0.462580055     5.957953453    25.459178925   0   0   0 # hoy
    343      1   3 -1.050000     3.595299959     6.929466248    25.459178925   0   0   0 # obsk
    344      1   4 -0.950000     1.392320037     5.469222546    25.459178925   0   0   0 # ohk
    345      1   1  1.575000     0.222587988     8.467034340    25.459178925   0   0   0 # feok
    346      1   2  0.425000     1.827419877     1.001253366    25.459178925   0   0   0 # hoy
    347      1   3 -1.050000     3.274699926     1.972766519    25.459178925   0   0   0 # obsk
    348      1   4 -0.950000     0.897679985     0.512522757    25.459178925   0   0   0 # ohk
    349      1   1  1.575000     2.512588024     6.403064728    23.952779770   0   0   0 # feok
    350      1   2  0.425000     4.117419720     3.955446482    23.952779770   0   0   0 # hoy
    351      1   3 -1.050000     0.984700024     2.983933210    23.952779770   0   0   0 # obsk
    352      1   4 -0.950000     3.187680006     4.444177151    23.952779770   0   0   0 # ohk
    353      1   1  1.575000     4.357411861    11.359765053    23.952779770   0   0   0 # feok
    354      1   2  0.425000     2.752579927    18.825546265    23.952779770   0   0   0 # hoy
    355      1   3 -1.050000     1.305299997    17.854032516    23.952779770   0   0   0 # obsk
    356      1   4 -0.950000     3.682319880    19.314275742    23.952779770   0   0   0 # ohk
    357      1   1  1.575000     2.067411900    13.423734665    25.459178925   0   0   0 # feok
    358      1   2  0.425000     0.462580055    15.871353149    25.459178925   0   0   0 # hoy
    359      1   3 -1.050000     3.595299959    16.842866898    25.459178925   0   0   0 # obsk
    360      1   4 -0.950000     1.392320037    15.382622719    25.459178925   0   0   0 # ohk
    361      1   1  1.575000     0.222587988    18.380434036    25.459178925   0   0   0 # feok
    362      1   2  0.425000     1.827419877    10.914652824    25.459178925   0   0   0 # hoy
    363      1   3 -1.050000     3.274699926    11.886166573    25.459178925   0   0   0 # obsk
    364      1   4 -0.950000     0.897679985    10.425922394    25.459178925   0   0   0 # ohk
    365      1   1  1.575000     2.512588024    16.316465378    23.952779770   0   0   0 # feok
    366      1   2  0.425000     4.117419720    13.868845940    23.952779770   0   0   0 # hoy
    367      1   3 -1.050000     0.984700024    12.897333145    23.952779770   0   0   0 # obsk
    368      1   4 -0.950000     3.187680006    14.357576370    23.952779770   0   0   0 # ohk
    369      1   1  1.575000     4.357411861    21.273164749    23.952779770   0   0   0 # feok
    370      1   2  0.425000     2.752579927    28.738945007    23.952779770   0   0   0 # hoy
    371      1   3 -1.050000     1.305299997    27.767433167    23.952779770   0   0   0 # obsk
    372      1   4 -0.950000     3.682319880    29.227676392    23.952779770   0   0   0 # ohk
    373      1   1  1.575000     2.067411900    23.337133408    25.459178925   0   0   0 # feok
    374      1   2  0.425000     0.462580055    25.784751892    25.459178925   0   0   0 # hoy
    375      1   3 -1.050000     3.595299959    26.756265640    25.459178925   0   0   0 # obsk
    376      1   4 -0.950000     1.392320037    25.296022415    25.459178925   0   0   0 # ohk
    377      1   1  1.575000     0.222587988    28.293834686    25.459178925   0   0   0 # feok
    378      1   2  0.425000     1.827419877    20.828052521    25.459178925   0   0   0 # hoy
    379      1   3 -1.050000     3.274699926    21.799566269    25.459178925   0   0   0 # obsk
    380      1   4 -0.950000     0.897679985    20.339323044    25.459178925   0   0   0 # ohk
    381      1   1  1.575000     2.512588024    26.229864120    23.952779770   0   0   0 # feok
    382      1   2  0.425000     4.117419720    23.782245636    23.952779770   0   0   0 # hoy
    383      1   3 -1.050000     0.984700024    22.810731888    23.952779770   0   0   0 # obsk
    384      1   4 -0.950000     3.187680006    24.270977020    23.952779770   0   0   0 # ohk
    385      1   1  1.575000     4.357411861     1.446364999    26.965579987   0   0   0 # feok
    386      1   2  0.425000     2.752579927     8.912146568    26.965579987   0   0   0 # hoy
    387      1   3 -1.050000     1.305299997     7.940633297    26.965579987   0   0   0 # obsk
    388      1   4 -0.950000     3.682319880     9.400876999    26.965579987   0   0   0 # ohk
    389      1   1  1.575000     2.067411900     3.510334969    28.471979141   0   0   0 # feok
    390      1   2  0.425000     0.462580055     5.957953453    28.471979141   0   0   0 # hoy
    391      1   3 -1.050000     3.595299959     6.929466248    28.471979141   0   0   0 # obsk
    392      1   4 -0.950000     1.392320037     5.469222546    28.471979141   0   0   0 # ohk
    393      1   1  1.575000     0.222587988     8.467034340    28.471979141   0   0   0 # feok
    394      1   2  0.425000     1.827419877     1.001253366    28.471979141   0   0   0 # hoy
    395      1   3 -1.050000     3.274699926     1.972766519    28.471979141   0   0   0 # obsk
    396      1   4 -0.950000     0.897679985     0.512522757    28.471979141   0   0   0 # ohk
    397      1   1  1.575000     2.512588024     6.403064728    26.965579987   0   0   0 # feok
    398      1   2  0.425000     4.117419720     3.955446482    26.965579987   0   0   0 # hoy
    399      1   3 -1.050000     0.984700024     2.983933210    26.965579987   0   0   0 # obsk
    400      1   4 -0.950000     3.187680006     4.444177151    26.965579987   0   0   0 # ohk
    401      1   1  1.575000     4.357411861    11.359765053    26.965579987   0   0   0 # feok
    402      1   2  0.425000     2.752579927    18.825546265    26.965579987   0   0   0 # hoy
    403      1   3 -1.050000     1.305299997    17.854032516    26.965579987   0   0   0 # obsk
    404      1   4 -0.950000     3.682319880    19.314275742    26.965579987   0   0   0 # ohk
    405      1   1  1.575000     2.067411900    13.423734665    28.471979141   0   0   0 # feok
    406      1   2  0.425000     0.462580055    15.871353149    28.471979141   0   0   0 # hoy
    407      1   3 -1.050000     3.595299959    16.842866898    28.471979141   0   0   0 # obsk
    408      1   4 -0.950000     1.392320037    15.382622719    28.471979141   0   0   0 # ohk
    409      1   1  1.575000     0.222587988    18.380434036    28.471979141   0   0   0 # feok
    410      1   2  0.425000     1.827419877    10.914652824    28.471979141   0   0   0 # hoy
    411      1   3 -1.050000     3.274699926    11.886166573    28.471979141   0   0   0 # obsk
    412      1   4 -0.950000     0.897679985    10.425922394    28.471979141   0   0   0 # ohk
    413      1   1  1.575000     2.512588024    16.316465378    26.965579987   0   0   0 # feok
    414      1   2  0.425000     4.117419720    13.868845940    26.965579987   0   0   0 # hoy
    415      1   3 -1.050000     0.984700024    12.897333145    26.965579987   0   0   0 # obsk
    416      1   4 -0.950000     3.187680006    14.357576370    26.965579987   0   0   0 # ohk
    417      1   1  1.575000     4.357411861    21.273164749    26.965579987   0   0   0 # feok
    418      1   2  0.425000     2.752579927    28.738945007    26.965579987   0   0   0 # hoy
    419      1   3 -1.050000     1.305299997    27.767433167    26.965579987   0   0   0 # obsk
    420      1   4 -0.950000     3.682319880    29.227676392    26.965579987   0   0   0 # ohk
    421      1   1  1.575000     2.067411900    23.337133408    28.471979141   0   0   0 # feok
    422      1   2  0.425000     0.462580055    25.784751892    28.471979141   0   0   0 # hoy
    423      1   3 -1.050000     3.595299959    26.756265640    28.471979141   0   0   0 # obsk
    424      1   4 -0.950000     1.392320037    25.296022415    28.471979141   0   0   0 # ohk
    425      1   1  1.575000     0.222587988    28.293834686    28.471979141   0   0   0 # feok
    426      1   2  0.425000     1.827419877    20.828052521    28.471979141   0   0   0 # hoy
    427      1   3 -1.050000     3.274699926    21.799566269    28.471979141   0   0   0 # obsk
    428      1   4 -0.950000     0.897679985    20.339323044    28.471979141   0   0   0 # ohk
    429      1   1  1.575000     2.512588024    26.229864120    26.965579987   0   0   0 # feok
    430      1   2  0.425000     4.117419720    23.782245636    26.965579987   0   0   0 # hoy
    431      1   3 -1.050000     0.984700024    22.810731888    26.965579987   0   0   0 # obsk
    432      1   4 -0.950000     3.187680006    24.270977020    26.965579987   0   0   0 # ohk
    433      1   1  1.575000     8.937412262     1.446364999     2.863179684   0   0   0 # feok
    434      1   2  0.425000     7.332580090     8.912146568     2.863179684   0   0   0 # hoy
    435      1   3 -1.050000     5.885299683     7.940633297     2.863179684   0   0   0 # obsk
    436      1   4 -0.950000     8.262319565     9.400876999     2.863179684   0   0   0 # ohk
    437      1   1  1.575000     6.647411823     3.510334969     4.369579792   0   0   0 # feok
    438      1   2  0.425000     5.042580128     5.957953453     4.369579792   0   0   0 # hoy
    439      1   3 -1.050000     8.175299644     6.929466248     4.369579792   0   0   0 # obsk
    440      1   4 -0.950000     5.972320080     5.469222546     4.369579792   0   0   0 # ohk
    441      1   1  1.575000     4.802587986     8.467034340     4.369579792   0   0   0 # feok
    442      1   2  0.425000     6.407419682     1.001253366     4.369579792   0   0   0 # hoy
    443      1   3 -1.050000     7.854700089     1.972766519     4.369579792   0   0   0 # obsk
    444      1   4 -0.950000     5.477679729     0.512522757     4.369579792   0   0   0 # ohk
    445      1   1  1.575000     7.092587948     6.403064728     2.863179684   0   0   0 # feok
    446      1   2  0.425000     8.697420120     3.955446482     2.863179684   0   0   0 # hoy
    447      1   3 -1.050000     5.564700127     2.983933210     2.863179684   0   0   0 # obsk
    448      1   4 -0.950000     7.767679691     4.444177151     2.863179684   0   0   0 # ohk
    449      1   1  1.575000     8.937412262    11.359765053     2.863179684   0   0   0 # feok
    450      1   2  0.425000     7.332580090    18.825546265     2.863179684   0   0   0 # hoy
    451      1   3 -1.050000     5.885299683    17.854032516     2.863179684   0   0   0 # obsk
    452      1   4 -0.950000     8.262319565    19.314275742     2.863179684   0   0   0 # ohk
    453      1   1  1.575000     6.647411823    13.423734665     4.369579792   0   0   0 # feok
    454      1   2  0.425000     5.042580128    15.871353149     4.369579792   0   0   0 # hoy
    455      1   3 -1.050000     8.175299644    16.842866898     4.369579792   0   0   0 # obsk
    456      1   4 -0.950000     5.972320080    15.382622719     4.369579792   0   0   0 # ohk
    457      1   1  1.575000     4.802587986    18.380434036     4.369579792   0   0   0 # feok
    458      1   2  0.425000     6.407419682    10.914652824     4.369579792   0   0   0 # hoy
    459      1   3 -1.050000     7.854700089    11.886166573     4.369579792   0   0   0 # obsk
    460      1   4 -0.950000     5.477679729    10.425922394     4.369579792   0   0   0 # ohk
    461      1   1  1.575000     7.092587948    16.316465378     2.863179684   0   0   0 # feok
    462      1   2  0.425000     8.697420120    13.868845940     2.863179684   0   0   0 # hoy
    463      1   3 -1.050000     5.564700127    12.897333145     2.863179684   0   0   0 # obsk
    464      1   4 -0.950000     7.767679691    14.357576370     2.863179684   0   0   0 # ohk
    465      1   1  1.575000     8.937412262    21.273164749     2.863179684   0   0   0 # feok
    466      1   2  0.425000     7.332580090    28.738945007     2.863179684   0   0   0 # hoy
    467      1   3 -1.050000     5.885299683    27.767433167     2.863179684   0   0   0 # obsk
    468      1   4 -0.950000     8.262319565    29.227676392     2.863179684   0   0   0 # ohk
    469      1   1  1.575000     6.647411823    23.337133408     4.369579792   0   0   0 # feok
    470      1   2  0.425000     5.042580128    25.784751892     4.369579792   0   0   0 # hoy
    471      1   3 -1.050000     8.175299644    26.756265640     4.369579792   0   0   0 # obsk
    472      1   4 -0.950000     5.972320080    25.296022415     4.369579792   0   0   0 # ohk
    473      1   1  1.575000     4.802587986    28.293834686     4.369579792   0   0   0 # feok
    474      1   2  0.425000     6.407419682    20.828052521     4.369579792   0   0   0 # hoy
    475      1   3 -1.050000     7.854700089    21.799566269     4.369579792   0   0   0 # obsk
    476      1   4 -0.950000     5.477679729    20.339323044     4.369579792   0   0   0 # ohk
    477      1   1  1.575000     7.092587948    26.229864120     2.863179684   0   0   0 # feok
    478      1   2  0.425000     8.697420120    23.782245636     2.863179684   0   0   0 # hoy
    479      1   3 -1.050000     5.564700127    22.810731888     2.863179684   0   0   0 # obsk
    480      1   4 -0.950000     7.767679691    24.270977020     2.863179684   0   0   0 # ohk
    481      1   1  1.575000     8.937412262     1.446364999     5.875979424   0   0   0 # feok
    482      1   2  0.425000     7.332580090     8.912146568     5.875979424   0   0   0 # hoy
    483      1   3 -1.050000     5.885299683     7.940633297     5.875979424   0   0   0 # obsk
    484      1   4 -0.950000     8.262319565     9.400876999     5.875979424   0   0   0 # ohk
    485      1   1  1.575000     6.647411823     3.510334969     7.382379532   0   0   0 # feok
    486      1   2  0.425000     5.042580128     5.957953453     7.382379532   0   0   0 # hoy
    487      1   3 -1.050000     8.175299644     6.929466248     7.382379532   0   0   0 # obsk
    488      1   4 -0.950000     5.972320080     5.469222546     7.382379532   0   0   0 # ohk
    489      1   1  1.575000     4.802587986     8.467034340     7.382379532   0   0   0 # feok
    490      1   2  0.425000     6.407419682     1.001253366     7.382379532   0   0   0 # hoy
    491      1   3 -1.050000     7.854700089     1.972766519     7.382379532   0   0   0 # obsk
    492      1   4 -0.950000     5.477679729     0.512522757     7.382379532   0   0   0 # ohk
    493      1   1  1.575000     7.092587948     6.403064728     5.875979424   0   0   0 # feok
    494      1   2  0.425000     8.697420120     3.955446482     5.875979424   0   0   0 # hoy
    495      1   3 -1.050000     5.564700127     2.983933210     5.875979424   0   0   0 # obsk
    496      1   4 -0.950000     7.767679691     4.444177151     5.875979424   0   0   0 # ohk
    497      1   1  1.575000     8.937412262    11.359765053     5.875979424   0   0   0 # feok
    498      1   2  0.425000     7.332580090    18.825546265     5.875979424   0   0   0 # hoy
    499      1   3 -1.050000     5.885299683    17.854032516     5.875979424   0   0   0 # obsk
    500      1   4 -0.950000     8.262319565    19.314275742     5.875979424   0   0   0 # ohk
    501      1   1  1.575000     6.647411823    13.423734665     7.382379532   0   0   0 # feok
    502      1   2  0.425000     5.042580128    15.871353149     7.382379532   0   0   0 # hoy
    503      1   3 -1.050000     8.175299644    16.842866898     7.382379532   0   0   0 # obsk
    504      1   4 -0.950000     5.972320080    15.382622719     7.382379532   0   0   0 # ohk
    505      1   1  1.575000     4.802587986    18.380434036     7.382379532   0   0   0 # feok
    506      1   2  0.425000     6.407419682    10.914652824     7.382379532   0   0   0 # hoy
    507      1   3 -1.050000     7.854700089    11.886166573     7.382379532   0   0   0 # obsk
    508      1   4 -0.950000     5.477679729    10.425922394     7.382379532   0   0   0 # ohk
    509      1   1  1.575000     7.092587948    16.316465378     5.875979424   0   0   0 # feok
    510      1   2  0.425000     8.697420120    13.868845940     5.875979424   0   0   0 # hoy
    511      1   3 -1.050000     5.564700127    12.897333145     5.875979424   0   0   0 # obsk
    512      1   4 -0.950000     7.767679691    14.357576370     5.875979424   0   0   0 # ohk
    513      1   1  1.575000     8.937412262    21.273164749     5.875979424   0   0   0 # feok
    514      1   2  0.425000     7.332580090    28.738945007     5.875979424   0   0   0 # hoy
    515      1   3 -1.050000     5.885299683    27.767433167     5.875979424   0   0   0 # obsk
    516      1   4 -0.950000     8.262319565    29.227676392     5.875979424   0   0   0 # ohk
    517      1   1  1.575000     6.647411823    23.337133408     7.382379532   0   0   0 # feok
    518      1   2  0.425000     5.042580128    25.784751892     7.382379532   0   0   0 # hoy
    519      1   3 -1.050000     8.175299644    26.756265640     7.382379532   0   0   0 # obsk
    520      1   4 -0.950000     5.972320080    25.296022415     7.382379532   0   0   0 # ohk
    521      1   1  1.575000     4.802587986    28.293834686     7.382379532   0   0   0 # feok
    522      1   2  0.425000     6.407419682    20.828052521     7.382379532   0   0   0 # hoy
    523      1   3 -1.050000     7.854700089    21.799566269     7.382379532   0   0   0 # obsk
    524      1   4 -0.950000     5.477679729    20.339323044     7.382379532   0   0   0 # ohk
    525      1   1  1.575000     7.092587948    26.229864120     5.875979424   0   0   0 # feok
    526      1   2  0.425000     8.697420120    23.782245636     5.875979424   0   0   0 # hoy
    527      1   3 -1.050000     5.564700127    22.810731888     5.875979424   0   0   0 # obsk
    528      1   4 -0.950000     7.767679691    24.270977020     5.875979424   0   0   0 # ohk
    529      1   1  1.575000     8.937412262     1.446364999     8.888779640   0   0   0 # feok
    530      1   2  0.425000     7.332580090     8.912146568     8.888779640   0   0   0 # hoy
    531      1   3 -1.050000     5.885299683     7.940633297     8.888779640   0   0   0 # obsk
    532      1   4 -0.950000     8.262319565     9.400876999     8.888779640   0   0   0 # ohk
    533      1   1  1.575000     6.647411823     3.510334969    10.395179749   0   0   0 # feok
    534      1   2  0.425000     5.042580128     5.957953453    10.395179749   0   0   0 # hoy
    535      1   3 -1.050000     8.175299644     6.929466248    10.395179749   0   0   0 # obsk
    536      1   4 -0.950000     5.972320080     5.469222546    10.395179749   0   0   0 # ohk
    537      1   1  1.575000     4.802587986     8.467034340    10.395179749   0   0   0 # feok
    538      1   2  0.425000     6.407419682     1.001253366    10.395179749   0   0   0 # hoy
    539      1   3 -1.050000     7.854700089     1.972766519    10.395179749   0   0   0 # obsk
    540      1   4 -0.950000     5.477679729     0.512522757    10.395179749   0   0   0 # ohk
    541      1   1  1.575000     7.092587948     6.403064728     8.888779640   0   0   0 # feok
    542      1   2  0.425000     8.697420120     3.955446482     8.888779640   0   0   0 # hoy
    543      1   3 -1.050000     5.564700127     2.983933210     8.888779640   0   0   0 # obsk
    544      1   4 -0.950000     7.767679691     4.444177151     8.888779640   0   0   0 # ohk
    545      1   1  1.575000     8.937412262    11.359765053     8.888779640   0   0   0 # feok
    546      1   2  0.425000     7.332580090    18.825546265     8.888779640   0   0   0 # hoy
    547      1   3 -1.050000     5.885299683    17.854032516     8.888779640   0   0   0 # obsk
    548      1   4 -0.950000     8.262319565    19.314275742     8.888779640   0   0   0 # ohk
    549      1   1  1.575000     6.647411823    13.423734665    10.395179749   0   0   0 # feok
    550      1   2  0.425000     5.042580128    15.871353149    10.395179749   0   0   0 # hoy
    551      1   3 -1.050000     8.175299644    16.842866898    10.395179749   0   0   0 # obsk
    552      1   4 -0.950000     5.972320080    15.382622719    10.395179749   0   0   0 # ohk
    553      1   1  1.575000     4.802587986    18.380434036    10.395179749   0   0   0 # feok
    554      1   2  0.425000     6.407419682    10.914652824    10.395179749   0   0   0 # hoy
    555      1   3 -1.050000     7.854700089    11.886166573    10.395179749   0   0   0 # obsk
    556      1   4 -0.950000     5.477679729    10.425922394    10.395179749   0   0   0 # ohk
    557      1   1  1.575000     7.092587948    16.316465378     8.888779640   0   0   0 # feok
    558      1   2  0.425000     8.697420120    13.868845940     8.888779640   0   0   0 # hoy
    559      1   3 -1.050000     5.564700127    12.897333145     8.888779640   0   0   0 # obsk
    560      1   4 -0.950000     7.767679691    14.357576370     8.888779640   0   0   0 # ohk
    561      1   1  1.575000     8.937412262    21.273164749     8.888779640   0   0   0 # feok
    562      1   2  0.425000     7.332580090    28.738945007     8.888779640   0   0   0 # hoy
    563      1   3 -1.050000     5.885299683    27.767433167     8.888779640   0   0   0 # obsk
    564      1   4 -0.950000     8.262319565    29.227676392     8.888779640   0   0   0 # ohk
    565      1   1  1.575000     6.647411823    23.337133408    10.395179749   0   0   0 # feok
    566      1   2  0.425000     5.042580128    25.784751892    10.395179749   0   0   0 # hoy
    567      1   3 -1.050000     8.175299644    26.756265640    10.395179749   0   0   0 # obsk
    568      1   4 -0.950000     5.972320080    25.296022415    10.395179749   0   0   0 # ohk
    569      1   1  1.575000     4.802587986    28.293834686    10.395179749   0   0   0 # feok
    570      1   2  0.425000     6.407419682    20.828052521    10.395179749   0   0   0 # hoy
    571      1   3 -1.050000     7.854700089    21.799566269    10.395179749   0   0   0 # obsk
    572      1   4 -0.950000     5.477679729    20.339323044    10.395179749   0   0   0 # ohk
    573      1   1  1.575000     7.092587948    26.229864120     8.888779640   0   0   0 # feok
    574      1   2  0.425000     8.697420120    23.782245636     8.888779640   0   0   0 # hoy
    575      1   3 -1.050000     5.564700127    22.810731888     8.888779640   0   0   0 # obsk
    576      1   4 -0.950000     7.767679691    24.270977020     8.888779640   0   0   0 # ohk
    577      1   1  1.575000     8.937412262     1.446364999    11.901579857   0   0   0 # feok
    578      1   2  0.425000     7.332580090     8.912146568    11.901579857   0   0   0 # hoy
    579      1   3 -1.050000     5.885299683     7.940633297    11.901579857   0   0   0 # obsk
    580      1   4 -0.950000     8.262319565     9.400876999    11.901579857   0   0   0 # ohk
    581      1   1  1.575000     6.647411823     3.510334969    13.407979965   0   0   0 # feok
    582      1   2  0.425000     5.042580128     5.957953453    13.407979965   0   0   0 # hoy
    583      1   3 -1.050000     8.175299644     6.929466248    13.407979965   0   0   0 # obsk
    584      1   4 -0.950000     5.972320080     5.469222546    13.407979965   0   0   0 # ohk
    585      1   1  1.575000     4.802587986     8.467034340    13.407979965   0   0   0 # feok
    586      1   2  0.425000     6.407419682     1.001253366    13.407979965   0   0   0 # hoy
    587      1   3 -1.050000     7.854700089     1.972766519    13.407979965   0   0   0 # obsk
    588      1   4 -0.950000     5.477679729     0.512522757    13.407979965   0   0   0 # ohk
    589      1   1  1.575000     7.092587948     6.403064728    11.901579857   0   0   0 # feok
    590      1   2  0.425000     8.697420120     3.955446482    11.901579857   0   0   0 # hoy
    591      1   3 -1.050000     5.564700127     2.983933210    11.901579857   0   0   0 # obsk
    592      1   4 -0.950000     7.767679691     4.444177151    11.901579857   0   0   0 # ohk
    593      1   1  1.575000     8.937412262    11.359765053    11.901579857   0   0   0 # feok
    594      1   2  0.425000     7.332580090    18.825546265    11.901579857   0   0   0 # hoy
    595      1   3 -1.050000     5.885299683    17.854032516    11.901579857   0   0   0 # obsk
    596      1   4 -0.950000     8.262319565    19.314275742    11.901579857   0   0   0 # ohk
    597      1   1  1.575000     6.647411823    13.423734665    13.407979965   0   0   0 # feok
    598      1   2  0.425000     5.042580128    15.871353149    13.407979965   0   0   0 # hoy
    599      1   3 -1.050000     8.175299644    16.842866898    13.407979965   0   0   0 # obsk
    600      1   4 -0.950000     5.972320080    15.382622719    13.407979965   0   0   0 # ohk
    601      1   1  1.575000     4.802587986    18.380434036    13.407979965   0   0   0 # feok
    602      1   2  0.425000     6.407419682    10.914652824    13.407979965   0   0   0 # hoy
    603      1   3 -1.050000     7.854700089    11.886166573    13.407979965   0   0   0 # obsk
    604      1   4 -0.950000     5.477679729    10.425922394    13.407979965   0   0   0 # ohk
    605      1   1  1.575000     7.092587948    16.316465378    11.901579857   0   0   0 # feok
    606      1   2  0.425000     8.697420120    13.868845940    11.901579857   0   0   0 # hoy
    607      1   3 -1.050000     5.564700127    12.897333145    11.901579857   0   0   0 # obsk
    608      1   4 -0.950000     7.767679691    14.357576370    11.901579857   0   0   0 # ohk
    609      1   1  1.575000     8.937412262    21.273164749    11.901579857   0   0   0 # feok
    610      1   2  0.425000     7.332580090    28.738945007    11.901579857   0   0   0 # hoy
    611      1   3 -1.050000     5.885299683    27.767433167    11.901579857   0   0   0 # obsk
    612      1   4 -0.950000     8.262319565    29.227676392    11.901579857   0   0   0 # ohk
    613      1   1  1.575000     6.647411823    23.337133408    13.407979965   0   0   0 # feok
    614      1   2  0.425000     5.042580128    25.784751892    13.407979965   0   0   0 # hoy
    615      1   3 -1.050000     8.175299644    26.756265640    13.407979965   0   0   0 # obsk
    616      1   4 -0.950000     5.972320080    25.296022415    13.407979965   0   0   0 # ohk
    617      1   1  1.575000     4.802587986    28.293834686    13.407979965   0   0   0 # feok
    618      1   2  0.425000     6.407419682    20.828052521    13.407979965   0   0   0 # hoy
    619      1   3 -1.050000     7.854700089    21.799566269    13.407979965   0   0   0 # obsk
    620      1   4 -0.950000     5.477679729    20.339323044    13.407979965   0   0   0 # ohk
    621      1   1  1.575000     7.092587948    26.229864120    11.901579857   0   0   0 # feok
    622      1   2  0.425000     8.697420120    23.782245636    11.901579857   0   0   0 # hoy
    623      1   3 -1.050000     5.564700127    22.810731888    11.901579857   0   0   0 # obsk
    624      1   4 -0.950000     7.767679691    24.270977020    11.901579857   0   0   0 # ohk
    625      1   1  1.575000     8.937412262     1.446364999    14.914379120   0   0   0 # feok
    626      1   2  0.425000     7.332580090     8.912146568    14.914379120   0   0   0 # hoy
    627      1   3 -1.050000     5.885299683     7.940633297    14.914379120   0   0   0 # obsk
    628      1   4 -0.950000     8.262319565     9.400876999    14.914379120   0   0   0 # ohk
    629      1   1  1.575000     6.647411823     3.510334969    16.420780182   0   0   0 # feok
    630      1   2  0.425000     5.042580128     5.957953453    16.420780182   0   0   0 # hoy
    631      1   3 -1.050000     8.175299644     6.929466248    16.420780182   0   0   0 # obsk
    632      1   4 -0.950000     5.972320080     5.469222546    16.420780182   0   0   0 # ohk
    633      1   1  1.575000     4.802587986     8.467034340    16.420780182   0   0   0 # feok
    634      1   2  0.425000     6.407419682     1.001253366    16.420780182   0   0   0 # hoy
    635      1   3 -1.050000     7.854700089     1.972766519    16.420780182   0   0   0 # obsk
    636      1   4 -0.950000     5.477679729     0.512522757    16.420780182   0   0   0 # ohk
    637      1   1  1.575000     7.092587948     6.403064728    14.914379120   0   0   0 # feok
    638      1   2  0.425000     8.697420120     3.955446482    14.914379120   0   0   0 # hoy
    639      1   3 -1.050000     5.564700127     2.983933210    14.914379120   0   0   0 # obsk
    640      1   4 -0.950000     7.767679691     4.444177151    14.914379120   0   0   0 # ohk
    641      1   1  1.575000     8.937412262    11.359765053    14.914379120   0   0   0 # feok
    642      1   2  0.425000     7.332580090    18.825546265    14.914379120   0   0   0 # hoy
    643      1   3 -1.050000     5.885299683    17.854032516    14.914379120   0   0   0 # obsk
    644      1   4 -0.950000     8.262319565    19.314275742    14.914379120   0   0   0 # ohk
    645      1   1  1.575000     6.647411823    13.423734665    16.420780182   0   0   0 # feok
    646      1   2  0.425000     5.042580128    15.871353149    16.420780182   0   0   0 # hoy
    647      1   3 -1.050000     8.175299644    16.842866898    16.420780182   0   0   0 # obsk
    648      1   4 -0.950000     5.972320080    15.382622719    16.420780182   0   0   0 # ohk
    649      1   1  1.575000     4.802587986    18.380434036    16.420780182   0   0   0 # feok
    650      1   2  0.425000     6.407419682    10.914652824    16.420780182   0   0   0 # hoy
    651      1   3 -1.050000     7.854700089    11.886166573    16.420780182   0   0   0 # obsk
    652      1   4 -0.950000     5.477679729    10.425922394    16.420780182   0   0   0 # ohk
    653      1   1  1.575000     7.092587948    16.316465378    14.914379120   0   0   0 # feok
    654      1   2  0.425000     8.697420120    13.868845940    14.914379120   0   0   0 # hoy
    655      1   3 -1.050000     5.564700127    12.897333145    14.914379120   0   0   0 # obsk
    656      1   4 -0.950000     7.767679691    14.357576370    14.914379120   0   0   0 # ohk
    657      1   1  1.575000     8.937412262    21.273164749    14.914379120   0   0   0 # feok
    658      1   2  0.425000     7.332580090    28.738945007    14.914379120   0   0   0 # hoy
    659      1   3 -1.050000     5.885299683    27.767433167    14.914379120   0   0   0 # obsk
    660      1   4 -0.950000     8.262319565    29.227676392    14.914379120   0   0   0 # ohk
    661      1   1  1.575000     6.647411823    23.337133408    16.420780182   0   0   0 # feok
    662      1   2  0.425000     5.042580128    25.784751892    16.420780182   0   0   0 # hoy
    663      1   3 -1.050000     8.175299644    26.756265640    16.420780182   0   0   0 # obsk
    664      1   4 -0.950000     5.972320080    25.296022415    16.420780182   0   0   0 # ohk
    665      1   1  1.575000     4.802587986    28.293834686    16.420780182   0   0   0 # feok
    666      1   2  0.425000     6.407419682    20.828052521    16.420780182   0   0   0 # hoy
    667      1   3 -1.050000     7.854700089    21.799566269    16.420780182   0   0   0 # obsk
    668      1   4 -0.950000     5.477679729    20.339323044    16.420780182   0   0   0 # ohk
    669      1   1  1.575000     7.092587948    26.229864120    14.914379120   0   0   0 # feok
    670      1   2  0.425000     8.697420120    23.782245636    14.914379120   0   0   0 # hoy
    671      1   3 -1.050000     5.564700127    22.810731888    14.914379120   0   0   0 # obsk
    672      1   4 -0.950000     7.767679691    24.270977020    14.914379120   0   0   0 # ohk
    673      1   1  1.575000     8.937412262     1.446364999    17.927179337   0   0   0 # feok
    674      1   2  0.425000     7.332580090     8.912146568    17.927179337   0   0   0 # hoy
    675      1   3 -1.050000     5.885299683     7.940633297    17.927179337   0   0   0 # obsk
    676      1   4 -0.950000     8.262319565     9.400876999    17.927179337   0   0   0 # ohk
    677      1   1  1.575000     6.647411823     3.510334969    19.433580399   0   0   0 # feok
    678      1   2  0.425000     5.042580128     5.957953453    19.433580399   0   0   0 # hoy
    679      1   3 -1.050000     8.175299644     6.929466248    19.433580399   0   0   0 # obsk
    680      1   4 -0.950000     5.972320080     5.469222546    19.433580399   0   0   0 # ohk
    681      1   1  1.575000     4.802587986     8.467034340    19.433580399   0   0   0 # feok
    682      1   2  0.425000     6.407419682     1.001253366    19.433580399   0   0   0 # hoy
    683      1   3 -1.050000     7.854700089     1.972766519    19.433580399   0   0   0 # obsk
    684      1   4 -0.950000     5.477679729     0.512522757    19.433580399   0   0   0 # ohk
    685      1   1  1.575000     7.092587948     6.403064728    17.927179337   0   0   0 # feok
    686      1   2  0.425000     8.697420120     3.955446482    17.927179337   0   0   0 # hoy
    687      1   3 -1.050000     5.564700127     2.983933210    17.927179337   0   0   0 # obsk
    688      1   4 -0.950000     7.767679691     4.444177151    17.927179337   0   0   0 # ohk
    689      1   1  1.575000     8.937412262    11.359765053    17.927179337   0   0   0 # feok
    690      1   2  0.425000     7.332580090    18.825546265    17.927179337   0   0   0 # hoy
    691      1   3 -1.050000     5.885299683    17.854032516    17.927179337   0   0   0 # obsk
    692      1   4 -0.950000     8.262319565    19.314275742    17.927179337   0   0   0 # ohk
    693      1   1  1.575000     6.647411823    13.423734665    19.433580399   0   0   0 # feok
    694      1   2  0.425000     5.042580128    15.871353149    19.433580399   0   0   0 # hoy
    695      1   3 -1.050000     8.175299644    16.842866898    19.433580399   0   0   0 # obsk
    696      1   4 -0.950000     5.972320080    15.382622719    19.433580399   0   0   0 # ohk
    697      1   1  1.575000     4.802587986    18.380434036    19.433580399   0   0   0 # feok
    698      1   2  0.425000     6.407419682    10.914652824    19.433580399   0   0   0 # hoy
    699      1   3 -1.050000     7.854700089    11.886166573    19.433580399   0   0   0 # obsk
    700      1   4 -0.950000     5.477679729    10.425922394    19.433580399   0   0   0 # ohk
    701      1   1  1.575000     7.092587948    16.316465378    17.927179337   0   0   0 # feok
    702      1   2  0.425000     8.697420120    13.868845940    17.927179337   0   0   0 # hoy
    703      1   3 -1.050000     5.564700127    12.897333145    17.927179337   0   0   0 # obsk
    704      1   4 -0.950000     7.767679691    14.357576370    17.927179337   0   0   0 # ohk
    705      1   1  1.575000     8.937412262    21.273164749    17.927179337   0   0   0 # feok
    706      1   2  0.425000     7.332580090    28.738945007    17.927179337   0   0   0 # hoy
    707      1   3 -1.050000     5.885299683    27.767433167    17.927179337   0   0   0 # obsk
    708      1   4 -0.950000     8.262319565    29.227676392    17.927179337   0   0   0 # ohk
    709      1   1  1.575000     6.647411823    23.337133408    19.433580399   0   0   0 # feok
    710      1   2  0.425000     5.042580128    25.784751892    19.433580399   0   0   0 # hoy
    711      1   3 -1.050000     8.175299644    26.756265640    19.433580399   0   0   0 # obsk
    712      1   4 -0.950000     5.972320080    25.296022415    19.433580399   0   0   0 # ohk
    713      1   1  1.575000     4.802587986    28.293834686    19.433580399   0   0   0 # feok
    714      1   2  0.425000     6.407419682    20.828052521    19.433580399   0   0   0 # hoy
    715      1   3 -1.050000     7.854700089    21.799566269    19.433580399   0   0   0 # obsk
    716      1   4 -0.950000     5.477679729    20.339323044    19.433580399   0   0   0 # ohk
    717      1   1  1.575000     7.092587948    26.229864120    17.927179337   0   0   0 # feok
    718      1   2  0.425000     8.697420120    23.782245636    17.927179337   0   0   0 # hoy
    719      1   3 -1.050000     5.564700127    22.810731888    17.927179337   0   0   0 # obsk
    720      1   4 -0.950000     7.767679691    24.270977020    17.927179337   0   0   0 # ohk
    721      1   1  1.575000     8.937412262     1.446364999    20.939979553   0   0   0 # feok
    722      1   2  0.425000     7.332580090     8.912146568    20.939979553   0   0   0 # hoy
    723      1   3 -1.050000     5.885299683     7.940633297    20.939979553   0   0   0 # obsk
    724      1   4 -0.950000     8.262319565     9.400876999    20.939979553   0   0   0 # ohk
    725      1   1  1.575000     6.647411823     3.510334969    22.446378708   0   0   0 # feok
    726      1   2  0.425000     5.042580128     5.957953453    22.446378708   0   0   0 # hoy
    727      1   3 -1.050000     8.175299644     6.929466248    22.446378708   0   0   0 # obsk
    728      1   4 -0.950000     5.972320080     5.469222546    22.446378708   0   0   0 # ohk
    729      1   1  1.575000     4.802587986     8.467034340    22.446378708   0   0   0 # feok
    730      1   2  0.425000     6.407419682     1.001253366    22.446378708   0   0   0 # hoy
    731      1   3 -1.050000     7.854700089     1.972766519    22.446378708   0   0   0 # obsk
    732      1   4 -0.950000     5.477679729     0.512522757    22.446378708   0   0   0 # ohk
    733      1   1  1.575000     7.092587948     6.403064728    20.939979553   0   0   0 # feok
    734      1   2  0.425000     8.697420120     3.955446482    20.939979553   0   0   0 # hoy
    735      1   3 -1.050000     5.564700127     2.983933210    20.939979553   0   0   0 # obsk
    736      1   4 -0.950000     7.767679691     4.444177151    20.939979553   0   0   0 # ohk
    737      1   1  1.575000     8.937412262    11.359765053    20.939979553   0   0   0 # feok
    738      1   2  0.425000     7.332580090    18.825546265    20.939979553   0   0   0 # hoy
    739      1   3 -1.050000     5.885299683    17.854032516    20.939979553   0   0   0 # obsk
    740      1   4 -0.950000     8.262319565    19.314275742    20.939979553   0   0   0 # ohk
    741      1   1  1.575000     6.647411823    13.423734665    22.446378708   0   0   0 # feok
    742      1   2  0.425000     5.042580128    15.871353149    22.446378708   0   0   0 # hoy
    743      1   3 -1.050000     8.175299644    16.842866898    22.446378708   0   0   0 # obsk
    744      1   4 -0.950000     5.972320080    15.382622719    22.446378708   0   0   0 # ohk
    745      1   1  1.575000     4.802587986    18.380434036    22.446378708   0   0   0 # feok
    746      1   2  0.425000     6.407419682    10.914652824    22.446378708   0   0   0 # hoy
    747      1   3 -1.050000     7.854700089    11.886166573    22.446378708   0   0   0 # obsk
    748      1   4 -0.950000     5.477679729    10.425922394    22.446378708   0   0   0 # ohk
    749      1   1  1.575000     7.092587948    16.316465378    20.939979553   0   0   0 # feok
    750      1   2  0.425000     8.697420120    13.868845940    20.939979553   0   0   0 # hoy
    751      1   3 -1.050000     5.564700127    12.897333145    20.939979553   0   0   0 # obsk
    752      1   4 -0.950000     7.767679691    14.357576370    20.939979553   0   0   0 # ohk
    753      1   1  1.575000     8.937412262    21.273164749    20.939979553   0   0   0 # feok
    754      1   2  0.425000     7.332580090    28.738945007    20.939979553   0   0   0 # hoy
    755      1   3 -1.050000     5.885299683    27.767433167    20.939979553   0   0   0 # obsk
    756      1   4 -0.950000     8.262319565    29.227676392    20.939979553   0   0   0 # ohk
    757      1   1  1.575000     6.647411823    23.337133408    22.446378708   0   0   0 # feok
    758      1   2  0.425000     5.042580128    25.784751892    22.446378708   0   0   0 # hoy
    759      1   3 -1.050000     8.175299644    26.756265640    22.446378708   0   0   0 # obsk
    760      1   4 -0.950000     5.972320080    25.296022415    22.446378708   0   0   0 # ohk
    761      1   1  1.575000     4.802587986    28.293834686    22.446378708   0   0   0 # feok
    762      1   2  0.425000     6.407419682    20.828052521    22.446378708   0   0   0 # hoy
    763      1   3 -1.050000     7.854700089    21.799566269    22.446378708   0   0   0 # obsk
    764      1   4 -0.950000     5.477679729    20.339323044    22.446378708   0   0   0 # ohk
    765      1   1  1.575000     7.092587948    26.229864120    20.939979553   0   0   0 # feok
    766      1   2  0.425000     8.697420120    23.782245636    20.939979553   0   0   0 # hoy
    767      1   3 -1.050000     5.564700127    22.810731888    20.939979553   0   0   0 # obsk
    768      1   4 -0.950000     7.767679691    24.270977020    20.939979553   0   0   0 # ohk
    769      1   1  1.575000     8.937412262     1.446364999    23.952779770   0   0   0 # feok
    770      1   2  0.425000     7.332580090     8.912146568    23.952779770   0   0   0 # hoy
    771      1   3 -1.050000     5.885299683     7.940633297    23.952779770   0   0   0 # obsk
    772      1   4 -0.950000     8.262319565     9.400876999    23.952779770   0   0   0 # ohk
    773      1   1  1.575000     6.647411823     3.510334969    25.459178925   0   0   0 # feok
    774      1   2  0.425000     5.042580128     5.957953453    25.459178925   0   0   0 # hoy
    775      1   3 -1.050000     8.175299644     6.929466248    25.459178925   0   0   0 # obsk
    776      1   4 -0.950000     5.972320080     5.469222546    25.459178925   0   0   0 # ohk
    777      1   1  1.575000     4.802587986     8.467034340    25.459178925   0   0   0 # feok
    778      1   2  0.425000     6.407419682     1.001253366    25.459178925   0   0   0 # hoy
    779      1   3 -1.050000     7.854700089     1.972766519    25.459178925   0   0   0 # obsk
    780      1   4 -0.950000     5.477679729     0.512522757    25.459178925   0   0   0 # ohk
    781      1   1  1.575000     7.092587948     6.403064728    23.952779770   0   0   0 # feok
    782      1   2  0.425000     8.697420120     3.955446482    23.952779770   0   0   0 # hoy
    783      1   3 -1.050000     5.564700127     2.983933210    23.952779770   0   0   0 # obsk
    784      1   4 -0.950000     7.767679691     4.444177151    23.952779770   0   0   0 # ohk
    785      1   1  1.575000     8.937412262    11.359765053    23.952779770   0   0   0 # feok
    786      1   2  0.425000     7.332580090    18.825546265    23.952779770   0   0   0 # hoy
    787      1   3 -1.050000     5.885299683    17.854032516    23.952779770   0   0   0 # obsk
    788      1   4 -0.950000     8.262319565    19.314275742    23.952779770   0   0   0 # ohk
    789      1   1  1.575000     6.647411823    13.423734665    25.459178925   0   0   0 # feok
    790      1   2  0.425000     5.042580128    15.871353149    25.459178925   0   0   0 # hoy
    791      1   3 -1.050000     8.175299644    16.842866898    25.459178925   0   0   0 # obsk
    792      1   4 -0.950000     5.972320080    15.382622719    25.459178925   0   0   0 # ohk
    793      1   1  1.575000     4.802587986    18.380434036    25.459178925   0   0   0 # feok
    794      1   2  0.425000     6.407419682    10.914652824    25.459178925   0   0   0 # hoy
    795      1   3 -1.050000     7.854700089    11.886166573    25.459178925   0   0   0 # obsk
    796      1   4 -0.950000     5.477679729    10.425922394    25.459178925   0   0   0 # ohk
    797      1   1  1.575000     7.092587948    16.316465378    23.952779770   0   0   0 # feok
    798      1   2  0.425000     8.697420120    13.868845940    23.952779770   0   0   0 # hoy
    799      1   3 -1.050000     5.564700127    12.897333145    23.952779770   0   0   0 # obsk
    800      1   4 -0.950000     7.767679691    14.357576370    23.952779770   0   0   0 # ohk
    801      1   1  1.575000     8.937412262    21.273164749    23.952779770   0   0   0 # feok
    802      1   2  0.425000     7.332580090    28.738945007    23.952779770   0   0   0 # hoy
    803      1   3 -1.050000     5.885299683    27.767433167    23.952779770   0   0   0 # obsk
    804      1   4 -0.950000     8.262319565    29.227676392    23.952779770   0   0   0 # ohk
    805      1   1  1.575000     6.647411823    23.337133408    25.459178925   0   0   0 # feok
    806      1   2  0.425000     5.042580128    25.784751892    25.459178925   0   0   0 # hoy
    807      1   3 -1.050000     8.175299644    26.756265640    25.459178925   0   0   0 # obsk
    808      1   4 -0.950000     5.972320080    25.296022415    25.459178925   0   0   0 # ohk
    809      1   1  1.575000     4.802587986    28.293834686    25.459178925   0   0   0 # feok
    810      1   2  0.425000     6.407419682    20.828052521    25.459178925   0   0   0 # hoy
    811      1   3 -1.050000     7.854700089    21.799566269    25.459178925   0   0   0 # obsk
    812      1   4 -0.950000     5.477679729    20.339323044    25.459178925   0   0   0 # ohk
    813      1   1  1.575000     7.092587948    26.229864120    23.952779770   0   0   0 # feok
    814      1   2  0.425000     8.697420120    23.782245636    23.952779770   0   0   0 # hoy
    815      1   3 -1.050000     5.564700127    22.810731888    23.952779770   0   0   0 # obsk
    816      1   4 -0.950000     7.767679691    24.270977020    23.952779770   0   0   0 # ohk
    817      1   1  1.575000     8.937412262     1.446364999    26.965579987   0   0   0 # feok
    818      1   2  0.425000     7.332580090     8.912146568    26.965579987   0   0   0 # hoy
    819      1   3 -1.050000     5.885299683     7.940633297    26.965579987   0   0   0 # obsk
    820      1   4 -0.950000     8.262319565     9.400876999    26.965579987   0   0   0 # ohk
    821      1   2  0.425000     5.042580128     5.957953453    28.471979141   0   0   0 # hoy
    822      1   3 -1.050000     8.175299644     6.929466248    28.471979141   0   0   0 # obsk
    823      1   4 -0.950000     5.972320080     5.469222546    28.471979141   0   0   0 # ohk
    824      1   1  1.575000     4.802587986     8.467034340    28.471979141   0   0   0 # feok
    825      1   2  0.425000     6.407419682     1.001253366    28.471979141   0   0   0 # hoy
    826      1   3 -1.050000     7.854700089     1.972766519    28.471979141   0   0   0 # obsk
    827      1   4 -0.950000     5.477679729     0.512522757    28.471979141   0   0   0 # ohk
    828      1   1  1.575000     7.092587948     6.403064728    26.965579987   0   0   0 # feok
    829      1   2  0.425000     8.697420120     3.955446482    26.965579987   0   0   0 # hoy
    830      1   3 -1.050000     5.564700127     2.983933210    26.965579987   0   0   0 # obsk
    831      1   4 -0.950000     7.767679691     4.444177151    26.965579987   0   0   0 # ohk
    832      1   1  1.575000     8.937412262    11.359765053    26.965579987   0   0   0 # feok
    833      1   2  0.425000     7.332580090    18.825546265    26.965579987   0   0   0 # hoy
    834      1   3 -1.050000     5.885299683    17.854032516    26.965579987   0   0   0 # obsk
    835      1   4 -0.950000     8.262319565    19.314275742    26.965579987   0   0   0 # ohk
    836      1   2  0.425000     5.042580128    15.871353149    28.471979141   0   0   0 # hoy
    837      1   3 -1.050000     8.175299644    16.842866898    28.471979141   0   0   0 # obsk
    838      1   4 -0.950000     5.972320080    15.382622719    28.471979141   0   0   0 # ohk
    839      1   1  1.575000     4.802587986    18.380434036    28.471979141   0   0   0 # feok
    840      1   2  0.425000     6.407419682    10.914652824    28.471979141   0   0   0 # hoy
    841      1   3 -1.050000     7.854700089    11.886166573    28.471979141   0   0   0 # obsk
    842      1   4 -0.950000     5.477679729    10.425922394    28.471979141   0   0   0 # ohk
    843      1   1  1.575000     7.092587948    16.316465378    26.965579987   0   0   0 # feok
    844      1   2  0.425000     8.697420120    13.868845940    26.965579987   0   0   0 # hoy
    845      1   3 -1.050000     5.564700127    12.897333145    26.965579987   0   0   0 # obsk
    846      1   4 -0.950000     7.767679691    14.357576370    26.965579987   0   0   0 # ohk
    847      1   1  1.575000     8.937412262    21.273164749    26.965579987   0   0   0 # feok
    848      1   2  0.425000     7.332580090    28.738945007    26.965579987   0   0   0 # hoy
    849      1   3 -1.050000     5.885299683    27.767433167    26.965579987   0   0   0 # obsk
    850      1   4 -0.950000     8.262319565    29.227676392    26.965579987   0   0   0 # ohk
    851      1   2  0.425000     5.042580128    25.784751892    28.471979141   0   0   0 # hoy
    852      1   3 -1.050000     8.175299644    26.756265640    28.471979141   0   0   0 # obsk
    853      1   4 -0.950000     5.972320080    25.296022415    28.471979141   0   0   0 # ohk
    854      1   1  1.575000     4.802587986    28.293834686    28.471979141   0   0   0 # feok
    855      1   2  0.425000     6.407419682    20.828052521    28.471979141   0   0   0 # hoy
    856      1   3 -1.050000     7.854700089    21.799566269    28.471979141   0   0   0 # obsk
    857      1   4 -0.950000     5.477679729    20.339323044    28.471979141   0   0   0 # ohk
    858      1   1  1.575000     7.092587948    26.229864120    26.965579987   0   0   0 # feok
    859      1   2  0.425000     8.697420120    23.782245636    26.965579987   0   0   0 # hoy
    860      1   3 -1.050000     5.564700127    22.810731888    26.965579987   0   0   0 # obsk
    861      1   4 -0.950000     7.767679691    24.270977020    26.965579987   0   0   0 # ohk
    862      1   1  1.575000    13.517412186     1.446364999     2.863179684   0   0   0 # feok
    863      1   2  0.425000    11.912579536     8.912146568     2.863179684   0   0   0 # hoy
    864      1   3 -1.050000    10.465299606     7.940633297     2.863179684   0   0   0 # obsk
    865      1   4 -0.950000    12.842319489     9.400876999     2.863179684   0   0   0 # ohk
    866      1   1  1.575000    11.227412224     3.510334969     4.369579792   0   0   0 # feok
    867      1   2  0.425000     9.622579575     5.957953453     4.369579792   0   0   0 # hoy
    868      1   3 -1.050000    12.755299568     6.929466248     4.369579792   0   0   0 # obsk
    869      1   4 -0.950000    10.552319527     5.469222546     4.369579792   0   0   0 # ohk
    870      1   1  1.575000     9.382587433     8.467034340     4.369579792   0   0   0 # feok
    871      1   2  0.425000    10.987420082     1.001253366     4.369579792   0   0   0 # hoy
    872      1   3 -1.050000    12.434700012     1.972766519     4.369579792   0   0   0 # obsk
    873      1   4 -0.950000    10.057680130     0.512522757     4.369579792   0   0   0 # ohk
    874      1   1  1.575000    11.672587395     6.403064728     2.863179684   0   0   0 # feok
    875      1   2  0.425000    13.277420044     3.955446482     2.863179684   0   0   0 # hoy
    876      1   3 -1.050000    10.144700050     2.983933210     2.863179684   0   0   0 # obsk
    877      1   4 -0.950000    12.347680092     4.444177151     2.863179684   0   0   0 # ohk
    878      1   1  1.575000    13.517412186    11.359765053     2.863179684   0   0   0 # feok
    879      1   2  0.425000    11.912579536    18.825546265     2.863179684   0   0   0 # hoy
    880      1   3 -1.050000    10.465299606    17.854032516     2.863179684   0   0   0 # obsk
    881      1   4 -0.950000    12.842319489    19.314275742     2.863179684   0   0   0 # ohk
    882      1   1  1.575000    11.227412224    13.423734665     4.369579792   0   0   0 # feok
    883      1   2  0.425000     9.622579575    15.871353149     4.369579792   0   0   0 # hoy
    884      1   3 -1.050000    12.755299568    16.842866898     4.369579792   0   0   0 # obsk
    885      1   4 -0.950000    10.552319527    15.382622719     4.369579792   0   0   0 # ohk
    886      1   1  1.575000     9.382587433    18.380434036     4.369579792   0   0   0 # feok
    887      1   2  0.425000    10.987420082    10.914652824     4.369579792   0   0   0 # hoy
    888      1   3 -1.050000    12.434700012    11.886166573     4.369579792   0   0   0 # obsk
    889      1   4 -0.950000    10.057680130    10.425922394     4.369579792   0   0   0 # ohk
    890      1   1  1.575000    11.672587395    16.316465378     2.863179684   0   0   0 # feok
    891      1   2  0.425000    13.277420044    13.868845940     2.863179684   0   0   0 # hoy
    892      1   3 -1.050000    10.144700050    12.897333145     2.863179684   0   0   0 # obsk
    893      1   4 -0.950000    12.347680092    14.357576370     2.863179684   0   0   0 # ohk
    894      1   1  1.575000    13.517412186    21.273164749     2.863179684   0   0   0 # feok
    895      1   2  0.425000    11.912579536    28.738945007     2.863179684   0   0   0 # hoy
    896      1   3 -1.050000    10.465299606    27.767433167     2.863179684   0   0   0 # obsk
    897      1   4 -0.950000    12.842319489    29.227676392     2.863179684   0   0   0 # ohk
    898      1   1  1.575000    11.227412224    23.337133408     4.369579792   0   0   0 # feok
    899      1   2  0.425000     9.622579575    25.784751892     4.369579792   0   0   0 # hoy
    900      1   3 -1.050000    12.755299568    26.756265640     4.369579792   0   0   0 # obsk
    901      1   4 -0.950000    10.552319527    25.296022415     4.369579792   0   0   0 # ohk
    902      1   1  1.575000     9.382587433    28.293834686     4.369579792   0   0   0 # feok
    903      1   2  0.425000    10.987420082    20.828052521     4.369579792   0   0   0 # hoy
    904      1   3 -1.050000    12.434700012    21.799566269     4.369579792   0   0   0 # obsk
    905      1   4 -0.950000    10.057680130    20.339323044     4.369579792   0   0   0 # ohk
    906      1   1  1.575000    11.672587395    26.229864120     2.863179684   0   0   0 # feok
    907      1   2  0.425000    13.277420044    23.782245636     2.863179684   0   0   0 # hoy
    908      1   3 -1.050000    10.144700050    22.810731888     2.863179684   0   0   0 # obsk
    909      1   4 -0.950000    12.347680092    24.270977020     2.863179684   0   0   0 # ohk
    910      1   1  1.575000    13.517412186     1.446364999     5.875979424   0   0   0 # feok
    911      1   2  0.425000    11.912579536     8.912146568     5.875979424   0   0   0 # hoy
    912      1   3 -1.050000    10.465299606     7.940633297     5.875979424   0   0   0 # obsk
    913      1   4 -0.950000    12.842319489     9.400876999     5.875979424   0   0   0 # ohk
    914      1   1  1.575000    11.227412224     3.510334969     7.382379532   0   0   0 # feok
    915      1   2  0.425000     9.622579575     5.957953453     7.382379532   0   0   0 # hoy
    916      1   3 -1.050000    12.755299568     6.929466248     7.382379532   0   0   0 # obsk
    917      1   4 -0.950000    10.552319527     5.469222546     7.382379532   0   0   0 # ohk
    918      1   1  1.575000     9.382587433     8.467034340     7.382379532   0   0   0 # feok
    919      1   2  0.425000    10.987420082     1.001253366     7.382379532   0   0   0 # hoy
    920      1   3 -1.050000    12.434700012     1.972766519     7.382379532   0   0   0 # obsk
    921      1   4 -0.950000    10.057680130     0.512522757     7.382379532   0   0   0 # ohk
    922      1   1  1.575000    11.672587395     6.403064728     5.875979424   0   0   0 # feok
    923      1   2  0.425000    13.277420044     3.955446482     5.875979424   0   0   0 # hoy
    924      1   3 -1.050000    10.144700050     2.983933210     5.875979424   0   0   0 # obsk
    925      1   4 -0.950000    12.347680092     4.444177151     5.875979424   0   0   0 # ohk
    926      1   1  1.575000    13.517412186    11.359765053     5.875979424   0   0   0 # feok
    927      1   2  0.425000    11.912579536    18.825546265     5.875979424   0   0   0 # hoy
    928      1   3 -1.050000    10.465299606    17.854032516     5.875979424   0   0   0 # obsk
    929      1   4 -0.950000    12.842319489    19.314275742     5.875979424   0   0   0 # ohk
    930      1   1  1.575000    11.227412224    13.423734665     7.382379532   0   0   0 # feok
    931      1   2  0.425000     9.622579575    15.871353149     7.382379532   0   0   0 # hoy
    932      1   3 -1.050000    12.755299568    16.842866898     7.382379532   0   0   0 # obsk
    933      1   4 -0.950000    10.552319527    15.382622719     7.382379532   0   0   0 # ohk
    934      1   1  1.575000     9.382587433    18.380434036     7.382379532   0   0   0 # feok
    935      1   2  0.425000    10.987420082    10.914652824     7.382379532   0   0   0 # hoy
    936      1   3 -1.050000    12.434700012    11.886166573     7.382379532   0   0   0 # obsk
    937      1   4 -0.950000    10.057680130    10.425922394     7.382379532   0   0   0 # ohk
    938      1   1  1.575000    11.672587395    16.316465378     5.875979424   0   0   0 # feok
    939      1   2  0.425000    13.277420044    13.868845940     5.875979424   0   0   0 # hoy
    940      1   3 -1.050000    10.144700050    12.897333145     5.875979424   0   0   0 # obsk
    941      1   4 -0.950000    12.347680092    14.357576370     5.875979424   0   0   0 # ohk
    942      1   1  1.575000    13.517412186    21.273164749     5.875979424   0   0   0 # feok
    943      1   2  0.425000    11.912579536    28.738945007     5.875979424   0   0   0 # hoy
    944      1   3 -1.050000    10.465299606    27.767433167     5.875979424   0   0   0 # obsk
    945      1   4 -0.950000    12.842319489    29.227676392     5.875979424   0   0   0 # ohk
    946      1   1  1.575000    11.227412224    23.337133408     7.382379532   0   0   0 # feok
    947      1   2  0.425000     9.622579575    25.784751892     7.382379532   0   0   0 # hoy
    948      1   3 -1.050000    12.755299568    26.756265640     7.382379532   0   0   0 # obsk
    949      1   4 -0.950000    10.552319527    25.296022415     7.382379532   0   0   0 # ohk
    950      1   1  1.575000     9.382587433    28.293834686     7.382379532   0   0   0 # feok
    951      1   2  0.425000    10.987420082    20.828052521     7.382379532   0   0   0 # hoy
    952      1   3 -1.050000    12.434700012    21.799566269     7.382379532   0   0   0 # obsk
    953      1   4 -0.950000    10.057680130    20.339323044     7.382379532   0   0   0 # ohk
    954      1   1  1.575000    11.672587395    26.229864120     5.875979424   0   0   0 # feok
    955      1   2  0.425000    13.277420044    23.782245636     5.875979424   0   0   0 # hoy
    956      1   3 -1.050000    10.144700050    22.810731888     5.875979424   0   0   0 # obsk
    957      1   4 -0.950000    12.347680092    24.270977020     5.875979424   0   0   0 # ohk
    958      1   1  1.575000    13.517412186     1.446364999     8.888779640   0   0   0 # feok
    959      1   2  0.425000    11.912579536     8.912146568     8.888779640   0   0   0 # hoy
    960      1   3 -1.050000    10.465299606     7.940633297     8.888779640   0   0   0 # obsk
    961      1   4 -0.950000    12.842319489     9.400876999     8.888779640   0   0   0 # ohk
    962      1   1  1.575000    11.227412224     3.510334969    10.395179749   0   0   0 # feok
    963      1   2  0.425000     9.622579575     5.957953453    10.395179749   0   0   0 # hoy
    964      1   3 -1.050000    12.755299568     6.929466248    10.395179749   0   0   0 # obsk
    965      1   4 -0.950000    10.552319527     5.469222546    10.395179749   0   0   0 # ohk
    966      1   1  1.575000     9.382587433     8.467034340    10.395179749   0   0   0 # feok
    967      1   2  0.425000    10.987420082     1.001253366    10.395179749   0   0   0 # hoy
    968      1   3 -1.050000    12.434700012     1.972766519    10.395179749   0   0   0 # obsk
    969      1   4 -0.950000    10.057680130     0.512522757    10.395179749   0   0   0 # ohk
    970      1   1  1.575000    11.672587395     6.403064728     8.888779640   0   0   0 # feok
    971      1   2  0.425000    13.277420044     3.955446482     8.888779640   0   0   0 # hoy
    972      1   3 -1.050000    10.144700050     2.983933210     8.888779640   0   0   0 # obsk
    973      1   4 -0.950000    12.347680092     4.444177151     8.888779640   0   0   0 # ohk
    974      1   1  1.575000    13.517412186    11.359765053     8.888779640   0   0   0 # feok
    975      1   2  0.425000    11.912579536    18.825546265     8.888779640   0   0   0 # hoy
    976      1   3 -1.050000    10.465299606    17.854032516     8.888779640   0   0   0 # obsk
    977      1   4 -0.950000    12.842319489    19.314275742     8.888779640   0   0   0 # ohk
    978      1   1  1.575000    11.227412224    13.423734665    10.395179749   0   0   0 # feok
    979      1   2  0.425000     9.622579575    15.871353149    10.395179749   0   0   0 # hoy
    980      1   3 -1.050000    12.755299568    16.842866898    10.395179749   0   0   0 # obsk
    981      1   4 -0.950000    10.552319527    15.382622719    10.395179749   0   0   0 # ohk
    982      1   1  1.575000     9.382587433    18.380434036    10.395179749   0   0   0 # feok
    983      1   2  0.425000    10.987420082    10.914652824    10.395179749   0   0   0 # hoy
    984      1   3 -1.050000    12.434700012    11.886166573    10.395179749   0   0   0 # obsk
    985      1   4 -0.950000    10.057680130    10.425922394    10.395179749   0   0   0 # ohk
    986      1   1  1.575000    11.672587395    16.316465378     8.888779640   0   0   0 # feok
    987      1   2  0.425000    13.277420044    13.868845940     8.888779640   0   0   0 # hoy
    988      1   3 -1.050000    10.144700050    12.897333145     8.888779640   0   0   0 # obsk
    989      1   4 -0.950000    12.347680092    14.357576370     8.888779640   0   0   0 # ohk
    990      1   1  1.575000    13.517412186    21.273164749     8.888779640   0   0   0 # feok
    991      1   2  0.425000    11.912579536    28.738945007     8.888779640   0   0   0 # hoy
    992      1   3 -1.050000    10.465299606    27.767433167     8.888779640   0   0   0 # obsk
    993      1   4 -0.950000    12.842319489    29.227676392     8.888779640   0   0   0 # ohk
    994      1   1  1.575000    11.227412224    23.337133408    10.395179749   0   0   0 # feok
    995      1   2  0.425000     9.622579575    25.784751892    10.395179749   0   0   0 # hoy
    996      1   3 -1.050000    12.755299568    26.756265640    10.395179749   0   0   0 # obsk
    997      1   4 -0.950000    10.552319527    25.296022415    10.395179749   0   0   0 # ohk
    998      1   1  1.575000     9.382587433    28.293834686    10.395179749   0   0   0 # feok
    999      1   2  0.425000    10.987420082    20.828052521    10.395179749   0   0   0 # hoy
   1000      1   3 -1.050000    12.434700012    21.799566269    10.395179749   0   0   0 # obsk
   1001      1   4 -0.950000    10.057680130    20.339323044    10.395179749   0   0   0 # ohk
   1002      1   1  1.575000    11.672587395    26.229864120     8.888779640   0   0   0 # feok
   1003      1   2  0.425000    13.277420044    23.782245636     8.888779640   0   0   0 # hoy
   1004      1   3 -1.050000    10.144700050    22.810731888     8.888779640   0   0   0 # obsk
   1005      1   4 -0.950000    12.347680092    24.270977020     8.888779640   0   0   0 # ohk
   1006      1   1  1.575000    13.517412186     1.446364999    11.901579857   0   0   0 # feok
   1007      1   2  0.425000    11.912579536     8.912146568    11.901579857   0   0   0 # hoy
   1008      1   3 -1.050000    10.465299606     7.940633297    11.901579857   0   0   0 # obsk
   1009      1   4 -0.950000    12.842319489     9.400876999    11.901579857   0   0   0 # ohk
   1010      1   1  1.575000    11.227412224     3.510334969    13.407979965   0   0   0 # feok
   1011      1   2  0.425000     9.622579575     5.957953453    13.407979965   0   0   0 # hoy
   1012      1   3 -1.050000    12.755299568     6.929466248    13.407979965   0   0   0 # obsk
   1013      1   4 -0.950000    10.552319527     5.469222546    13.407979965   0   0   0 # ohk
   1014      1   1  1.575000     9.382587433     8.467034340    13.407979965   0   0   0 # feok
   1015      1   2  0.425000    10.987420082     1.001253366    13.407979965   0   0   0 # hoy
   1016      1   3 -1.050000    12.434700012     1.972766519    13.407979965   0   0   0 # obsk
   1017      1   4 -0.950000    10.057680130     0.512522757    13.407979965   0   0   0 # ohk
   1018      1   1  1.575000    11.672587395     6.403064728    11.901579857   0   0   0 # feok
   1019      1   2  0.425000    13.277420044     3.955446482    11.901579857   0   0   0 # hoy
   1020      1   3 -1.050000    10.144700050     2.983933210    11.901579857   0   0   0 # obsk
   1021      1   4 -0.950000    12.347680092     4.444177151    11.901579857   0   0   0 # ohk
   1022      1   1  1.575000    13.517412186    11.359765053    11.901579857   0   0   0 # feok
   1023      1   2  0.425000    11.912579536    18.825546265    11.901579857   0   0   0 # hoy
   1024      1   3 -1.050000    10.465299606    17.854032516    11.901579857   0   0   0 # obsk
   1025      1   4 -0.950000    12.842319489    19.314275742    11.901579857   0   0   0 # ohk
   1026      1   1  1.575000    11.227412224    13.423734665    13.407979965   0   0   0 # feok
   1027      1   2  0.425000     9.622579575    15.871353149    13.407979965   0   0   0 # hoy
   1028      1   3 -1.050000    12.755299568    16.842866898    13.407979965   0   0   0 # obsk
   1029      1   4 -0.950000    10.552319527    15.382622719    13.407979965   0   0   0 # ohk
   1030      1   1  1.575000     9.382587433    18.380434036    13.407979965   0   0   0 # feok
   1031      1   2  0.425000    10.987420082    10.914652824    13.407979965   0   0   0 # hoy
   1032      1   3 -1.050000    12.434700012    11.886166573    13.407979965   0   0   0 # obsk
   1033      1   4 -0.950000    10.057680130    10.425922394    13.407979965   0   0   0 # ohk
   1034      1   1  1.575000    11.672587395    16.316465378    11.901579857   0   0   0 # feok
   1035      1   2  0.425000    13.277420044    13.868845940    11.901579857   0   0   0 # hoy
   1036      1   3 -1.050000    10.144700050    12.897333145    11.901579857   0   0   0 # obsk
   1037      1   4 -0.950000    12.347680092    14.357576370    11.901579857   0   0   0 # ohk
   1038      1   1  1.575000    13.517412186    21.273164749    11.901579857   0   0   0 # feok
   1039      1   2  0.425000    11.912579536    28.738945007    11.901579857   0   0   0 # hoy
   1040      1   3 -1.050000    10.465299606    27.767433167    11.901579857   0   0   0 # obsk
   1041      1   4 -0.950000    12.842319489    29.227676392    11.901579857   0   0   0 # ohk
   1042      1   1  1.575000    11.227412224    23.337133408    13.407979965   0   0   0 # feok
   1043      1   2  0.425000     9.622579575    25.784751892    13.407979965   0   0   0 # hoy
   1044      1   3 -1.050000    12.755299568    26.756265640    13.407979965   0   0   0 # obsk
   1045      1   4 -0.950000    10.552319527    25.296022415    13.407979965   0   0   0 # ohk
   1046      1   1  1.575000     9.382587433    28.293834686    13.407979965   0   0   0 # feok
   1047      1   2  0.425000    10.987420082    20.828052521    13.407979965   0   0   0 # hoy
   1048      1   3 -1.050000    12.434700012    21.799566269    13.407979965   0   0   0 # obsk
   1049      1   4 -0.950000    10.057680130    20.339323044    13.407979965   0   0   0 # ohk
   1050      1   1  1.575000    11.672587395    26.229864120    11.901579857   0   0   0 # feok
   1051      1   2  0.425000    13.277420044    23.782245636    11.901579857   0   0   0 # hoy
   1052      1   3 -1.050000    10.144700050    22.810731888    11.901579857   0   0   0 # obsk
   1053      1   4 -0.950000    12.347680092    24.270977020    11.901579857   0   0   0 # ohk
   1054      1   1  1.575000    13.517412186     1.446364999    14.914379120   0   0   0 # feok
   1055      1   2  0.425000    11.912579536     8.912146568    14.914379120   0   0   0 # hoy
   1056      1   3 -1.050000    10.465299606     7.940633297    14.914379120   0   0   0 # obsk
   1057      1   4 -0.950000    12.842319489     9.400876999    14.914379120   0   0   0 # ohk
   1058      1   1  1.575000    11.227412224     3.510334969    16.420780182   0   0   0 # feok
   1059      1   2  0.425000     9.622579575     5.957953453    16.420780182   0   0   0 # hoy
   1060      1   3 -1.050000    12.755299568     6.929466248    16.420780182   0   0   0 # obsk
   1061      1   4 -0.950000    10.552319527     5.469222546    16.420780182   0   0   0 # ohk
   1062      1   1  1.575000     9.382587433     8.467034340    16.420780182   0   0   0 # feok
   1063      1   2  0.425000    10.987420082     1.001253366    16.420780182   0   0   0 # hoy
   1064      1   3 -1.050000    12.434700012     1.972766519    16.420780182   0   0   0 # obsk
   1065      1   4 -0.950000    10.057680130     0.512522757    16.420780182   0   0   0 # ohk
   1066      1   1  1.575000    11.672587395     6.403064728    14.914379120   0   0   0 # feok
   1067      1   2  0.425000    13.277420044     3.955446482    14.914379120   0   0   0 # hoy
   1068      1   3 -1.050000    10.144700050     2.983933210    14.914379120   0   0   0 # obsk
   1069      1   4 -0.950000    12.347680092     4.444177151    14.914379120   0   0   0 # ohk
   1070      1   1  1.575000    13.517412186    11.359765053    14.914379120   0   0   0 # feok
   1071      1   2  0.425000    11.912579536    18.825546265    14.914379120   0   0   0 # hoy
   1072      1   3 -1.050000    10.465299606    17.854032516    14.914379120   0   0   0 # obsk
   1073      1   4 -0.950000    12.842319489    19.314275742    14.914379120   0   0   0 # ohk
   1074      1   1  1.575000    11.227412224    13.423734665    16.420780182   0   0   0 # feok
   1075      1   2  0.425000     9.622579575    15.871353149    16.420780182   0   0   0 # hoy
   1076      1   3 -1.050000    12.755299568    16.842866898    16.420780182   0   0   0 # obsk
   1077      1   4 -0.950000    10.552319527    15.382622719    16.420780182   0   0   0 # ohk
   1078      1   1  1.575000     9.382587433    18.380434036    16.420780182   0   0   0 # feok
   1079      1   2  0.425000    10.987420082    10.914652824    16.420780182   0   0   0 # hoy
   1080      1   3 -1.050000    12.434700012    11.886166573    16.420780182   0   0   0 # obsk
   1081      1   4 -0.950000    10.057680130    10.425922394    16.420780182   0   0   0 # ohk
   1082      1   1  1.575000    11.672587395    16.316465378    14.914379120   0   0   0 # feok
   1083      1   2  0.425000    13.277420044    13.868845940    14.914379120   0   0   0 # hoy
   1084      1   3 -1.050000    10.144700050    12.897333145    14.914379120   0   0   0 # obsk
   1085      1   4 -0.950000    12.347680092    14.357576370    14.914379120   0   0   0 # ohk
   1086      1   1  1.575000    13.517412186    21.273164749    14.914379120   0   0   0 # feok
   1087      1   2  0.425000    11.912579536    28.738945007    14.914379120   0   0   0 # hoy
   1088      1   3 -1.050000    10.465299606    27.767433167    14.914379120   0   0   0 # obsk
   1089      1   4 -0.950000    12.842319489    29.227676392    14.914379120   0   0   0 # ohk
   1090      1   1  1.575000    11.227412224    23.337133408    16.420780182   0   0   0 # feok
   1091      1   2  0.425000     9.622579575    25.784751892    16.420780182   0   0   0 # hoy
   1092      1   3 -1.050000    12.755299568    26.756265640    16.420780182   0   0   0 # obsk
   1093      1   4 -0.950000    10.552319527    25.296022415    16.420780182   0   0   0 # ohk
   1094      1   1  1.575000     9.382587433    28.293834686    16.420780182   0   0   0 # feok
   1095      1   2  0.425000    10.987420082    20.828052521    16.420780182   0   0   0 # hoy
   1096      1   3 -1.050000    12.434700012    21.799566269    16.420780182   0   0   0 # obsk
   1097      1   4 -0.950000    10.057680130    20.339323044    16.420780182   0   0   0 # ohk
   1098      1   1  1.575000    11.672587395    26.229864120    14.914379120   0   0   0 # feok
   1099      1   2  0.425000    13.277420044    23.782245636    14.914379120   0   0   0 # hoy
   1100      1   3 -1.050000    10.144700050    22.810731888    14.914379120   0   0   0 # obsk
   1101      1   4 -0.950000    12.347680092    24.270977020    14.914379120   0   0   0 # ohk
   1102      1   1  1.575000    13.517412186     1.446364999    17.927179337   0   0   0 # feok
   1103      1   2  0.425000    11.912579536     8.912146568    17.927179337   0   0   0 # hoy
   1104      1   3 -1.050000    10.465299606     7.940633297    17.927179337   0   0   0 # obsk
   1105      1   4 -0.950000    12.842319489     9.400876999    17.927179337   0   0   0 # ohk
   1106      1   1  1.575000    11.227412224     3.510334969    19.433580399   0   0   0 # feok
   1107      1   2  0.425000     9.622579575     5.957953453    19.433580399   0   0   0 # hoy
   1108      1   3 -1.050000    12.755299568     6.929466248    19.433580399   0   0   0 # obsk
   1109      1   4 -0.950000    10.552319527     5.469222546    19.433580399   0   0   0 # ohk
   1110      1   1  1.575000     9.382587433     8.467034340    19.433580399   0   0   0 # feok
   1111      1   2  0.425000    10.987420082     1.001253366    19.433580399   0   0   0 # hoy
   1112      1   3 -1.050000    12.434700012     1.972766519    19.433580399   0   0   0 # obsk
   1113      1   4 -0.950000    10.057680130     0.512522757    19.433580399   0   0   0 # ohk
   1114      1   1  1.575000    11.672587395     6.403064728    17.927179337   0   0   0 # feok
   1115      1   2  0.425000    13.277420044     3.955446482    17.927179337   0   0   0 # hoy
   1116      1   3 -1.050000    10.144700050     2.983933210    17.927179337   0   0   0 # obsk
   1117      1   4 -0.950000    12.347680092     4.444177151    17.927179337   0   0   0 # ohk
   1118      1   1  1.575000    13.517412186    11.359765053    17.927179337   0   0   0 # feok
   1119      1   2  0.425000    11.912579536    18.825546265    17.927179337   0   0   0 # hoy
   1120      1   3 -1.050000    10.465299606    17.854032516    17.927179337   0   0   0 # obsk
   1121      1   4 -0.950000    12.842319489    19.314275742    17.927179337   0   0   0 # ohk
   1122      1   1  1.575000    11.227412224    13.423734665    19.433580399   0   0   0 # feok
   1123      1   2  0.425000     9.622579575    15.871353149    19.433580399   0   0   0 # hoy
   1124      1   3 -1.050000    12.755299568    16.842866898    19.433580399   0   0   0 # obsk
   1125      1   4 -0.950000    10.552319527    15.382622719    19.433580399   0   0   0 # ohk
   1126      1   1  1.575000     9.382587433    18.380434036    19.433580399   0   0   0 # feok
   1127      1   2  0.425000    10.987420082    10.914652824    19.433580399   0   0   0 # hoy
   1128      1   3 -1.050000    12.434700012    11.886166573    19.433580399   0   0   0 # obsk
   1129      1   4 -0.950000    10.057680130    10.425922394    19.433580399   0   0   0 # ohk
   1130      1   1  1.575000    11.672587395    16.316465378    17.927179337   0   0   0 # feok
   1131      1   2  0.425000    13.277420044    13.868845940    17.927179337   0   0   0 # hoy
   1132      1   3 -1.050000    10.144700050    12.897333145    17.927179337   0   0   0 # obsk
   1133      1   4 -0.950000    12.347680092    14.357576370    17.927179337   0   0   0 # ohk
   1134      1   1  1.575000    13.517412186    21.273164749    17.927179337   0   0   0 # feok
   1135      1   2  0.425000    11.912579536    28.738945007    17.927179337   0   0   0 # hoy
   1136      1   3 -1.050000    10.465299606    27.767433167    17.927179337   0   0   0 # obsk
   1137      1   4 -0.950000    12.842319489    29.227676392    17.927179337   0   0   0 # ohk
   1138      1   1  1.575000    11.227412224    23.337133408    19.433580399   0   0   0 # feok
   1139      1   2  0.425000     9.622579575    25.784751892    19.433580399   0   0   0 # hoy
   1140      1   3 -1.050000    12.755299568    26.756265640    19.433580399   0   0   0 # obsk
   1141      1   4 -0.950000    10.552319527    25.296022415    19.433580399   0   0   0 # ohk
   1142      1   1  1.575000     9.382587433    28.293834686    19.433580399   0   0   0 # feok
   1143      1   2  0.425000    10.987420082    20.828052521    19.433580399   0   0   0 # hoy
   1144      1   3 -1.050000    12.434700012    21.799566269    19.433580399   0   0   0 # obsk
   1145      1   4 -0.950000    10.057680130    20.339323044    19.433580399   0   0   0 # ohk
   1146      1   1  1.575000    11.672587395    26.229864120    17.927179337   0   0   0 # feok
   1147      1   2  0.425000    13.277420044    23.782245636    17.927179337   0   0   0 # hoy
   1148      1   3 -1.050000    10.144700050    22.810731888    17.927179337   0   0   0 # obsk
   1149      1   4 -0.950000    12.347680092    24.270977020    17.927179337   0   0   0 # ohk
   1150      1   1  1.575000    13.517412186     1.446364999    20.939979553   0   0   0 # feok
   1151      1   2  0.425000    11.912579536     8.912146568    20.939979553   0   0   0 # hoy
   1152      1   3 -1.050000    10.465299606     7.940633297    20.939979553   0   0   0 # obsk
   1153      1   4 -0.950000    12.842319489     9.400876999    20.939979553   0   0   0 # ohk
   1154      1   1  1.575000    11.227412224     3.510334969    22.446378708   0   0   0 # feok
   1155      1   2  0.425000     9.622579575     5.957953453    22.446378708   0   0   0 # hoy
   1156      1   3 -1.050000    12.755299568     6.929466248    22.446378708   0   0   0 # obsk
   1157      1   4 -0.950000    10.552319527     5.469222546    22.446378708   0   0   0 # ohk
   1158      1   1  1.575000     9.382587433     8.467034340    22.446378708   0   0   0 # feok
   1159      1   2  0.425000    10.987420082     1.001253366    22.446378708   0   0   0 # hoy
   1160      1   3 -1.050000    12.434700012     1.972766519    22.446378708   0   0   0 # obsk
   1161      1   4 -0.950000    10.057680130     0.512522757    22.446378708   0   0   0 # ohk
   1162      1   1  1.575000    11.672587395     6.403064728    20.939979553   0   0   0 # feok
   1163      1   2  0.425000    13.277420044     3.955446482    20.939979553   0   0   0 # hoy
   1164      1   3 -1.050000    10.144700050     2.983933210    20.939979553   0   0   0 # obsk
   1165      1   4 -0.950000    12.347680092     4.444177151    20.939979553   0   0   0 # ohk
   1166      1   1  1.575000    13.517412186    11.359765053    20.939979553   0   0   0 # feok
   1167      1   2  0.425000    11.912579536    18.825546265    20.939979553   0   0   0 # hoy
   1168      1   3 -1.050000    10.465299606    17.854032516    20.939979553   0   0   0 # obsk
   1169      1   4 -0.950000    12.842319489    19.314275742    20.939979553   0   0   0 # ohk
   1170      1   1  1.575000    11.227412224    13.423734665    22.446378708   0   0   0 # feok
   1171      1   2  0.425000     9.622579575    15.871353149    22.446378708   0   0   0 # hoy
   1172      1   3 -1.050000    12.755299568    16.842866898    22.446378708   0   0   0 # obsk
   1173      1   4 -0.950000    10.552319527    15.382622719    22.446378708   0   0   0 # ohk
   1174      1   1  1.575000     9.382587433    18.380434036    22.446378708   0   0   0 # feok
   1175      1   2  0.425000    10.987420082    10.914652824    22.446378708   0   0   0 # hoy
   1176      1   3 -1.050000    12.434700012    11.886166573    22.446378708   0   0   0 # obsk
   1177      1   4 -0.950000    10.057680130    10.425922394    22.446378708   0   0   0 # ohk
   1178      1   1  1.575000    11.672587395    16.316465378    20.939979553   0   0   0 # feok
   1179      1   2  0.425000    13.277420044    13.868845940    20.939979553   0   0   0 # hoy
   1180      1   3 -1.050000    10.144700050    12.897333145    20.939979553   0   0   0 # obsk
   1181      1   4 -0.950000    12.347680092    14.357576370    20.939979553   0   0   0 # ohk
   1182      1   1  1.575000    13.517412186    21.273164749    20.939979553   0   0   0 # feok
   1183      1   2  0.425000    11.912579536    28.738945007    20.939979553   0   0   0 # hoy
   1184      1   3 -1.050000    10.465299606    27.767433167    20.939979553   0   0   0 # obsk
   1185      1   4 -0.950000    12.842319489    29.227676392    20.939979553   0   0   0 # ohk
   1186      1   1  1.575000    11.227412224    23.337133408    22.446378708   0   0   0 # feok
   1187      1   2  0.425000     9.622579575    25.784751892    22.446378708   0   0   0 # hoy
   1188      1   3 -1.050000    12.755299568    26.756265640    22.446378708   0   0   0 # obsk
   1189      1   4 -0.950000    10.552319527    25.296022415    22.446378708   0   0   0 # ohk
   1190      1   1  1.575000     9.382587433    28.293834686    22.446378708   0   0   0 # feok
   1191      1   2  0.425000    10.987420082    20.828052521    22.446378708   0   0   0 # hoy
   1192      1   3 -1.050000    12.434700012    21.799566269    22.446378708   0   0   0 # obsk
   1193      1   4 -0.950000    10.057680130    20.339323044    22.446378708   0   0   0 # ohk
   1194      1   1  1.575000    11.672587395    26.229864120    20.939979553   0   0   0 # feok
   1195      1   2  0.425000    13.277420044    23.782245636    20.939979553   0   0   0 # hoy
   1196      1   3 -1.050000    10.144700050    22.810731888    20.939979553   0   0   0 # obsk
   1197      1   4 -0.950000    12.347680092    24.270977020    20.939979553   0   0   0 # ohk
   1198      1   1  1.575000    13.517412186     1.446364999    23.952779770   0   0   0 # feok
   1199      1   2  0.425000    11.912579536     8.912146568    23.952779770   0   0   0 # hoy
   1200      1   3 -1.050000    10.465299606     7.940633297    23.952779770   0   0   0 # obsk
   1201      1   4 -0.950000    12.842319489     9.400876999    23.952779770   0   0   0 # ohk
   1202      1   1  1.575000    11.227412224     3.510334969    25.459178925   0   0   0 # feok
   1203      1   2  0.425000     9.622579575     5.957953453    25.459178925   0   0   0 # hoy
   1204      1   3 -1.050000    12.755299568     6.929466248    25.459178925   0   0   0 # obsk
   1205      1   4 -0.950000    10.552319527     5.469222546    25.459178925   0   0   0 # ohk
   1206      1   1  1.575000     9.382587433     8.467034340    25.459178925   0   0   0 # feok
   1207      1   2  0.425000    10.987420082     1.001253366    25.459178925   0   0   0 # hoy
   1208      1   3 -1.050000    12.434700012     1.972766519    25.459178925   0   0   0 # obsk
   1209      1   4 -0.950000    10.057680130     0.512522757    25.459178925   0   0   0 # ohk
   1210      1   1  1.575000    11.672587395     6.403064728    23.952779770   0   0   0 # feok
   1211      1   2  0.425000    13.277420044     3.955446482    23.952779770   0   0   0 # hoy
   1212      1   3 -1.050000    10.144700050     2.983933210    23.952779770   0   0   0 # obsk
   1213      1   4 -0.950000    12.347680092     4.444177151    23.952779770   0   0   0 # ohk
   1214      1   1  1.575000    13.517412186    11.359765053    23.952779770   0   0   0 # feok
   1215      1   2  0.425000    11.912579536    18.825546265    23.952779770   0   0   0 # hoy
   1216      1   3 -1.050000    10.465299606    17.854032516    23.952779770   0   0   0 # obsk
   1217      1   4 -0.950000    12.842319489    19.314275742    23.952779770   0   0   0 # ohk
   1218      1   1  1.575000    11.227412224    13.423734665    25.459178925   0   0   0 # feok
   1219      1   2  0.425000     9.622579575    15.871353149    25.459178925   0   0   0 # hoy
   1220      1   3 -1.050000    12.755299568    16.842866898    25.459178925   0   0   0 # obsk
   1221      1   4 -0.950000    10.552319527    15.382622719    25.459178925   0   0   0 # ohk
   1222      1   1  1.575000     9.382587433    18.380434036    25.459178925   0   0   0 # feok
   1223      1   2  0.425000    10.987420082    10.914652824    25.459178925   0   0   0 # hoy
   1224      1   3 -1.050000    12.434700012    11.886166573    25.459178925   0   0   0 # obsk
   1225      1   4 -0.950000    10.057680130    10.425922394    25.459178925   0   0   0 # ohk
   1226      1   1  1.575000    11.672587395    16.316465378    23.952779770   0   0   0 # feok
   1227      1   2  0.425000    13.277420044    13.868845940    23.952779770   0   0   0 # hoy
   1228      1   3 -1.050000    10.144700050    12.897333145    23.952779770   0   0   0 # obsk
   1229      1   4 -0.950000    12.347680092    14.357576370    23.952779770   0   0   0 # ohk
   1230      1   1  1.575000    13.517412186    21.273164749    23.952779770   0   0   0 # feok
   1231      1   2  0.425000    11.912579536    28.738945007    23.952779770   0   0   0 # hoy
   1232      1   3 -1.050000    10.465299606    27.767433167    23.952779770   0   0   0 # obsk
   1233      1   4 -0.950000    12.842319489    29.227676392    23.952779770   0   0   0 # ohk
   1234      1   1  1.575000    11.227412224    23.337133408    25.459178925   0   0   0 # feok
   1235      1   2  0.425000     9.622579575    25.784751892    25.459178925   0   0   0 # hoy
   1236      1   3 -1.050000    12.755299568    26.756265640    25.459178925   0   0   0 # obsk
   1237      1   4 -0.950000    10.552319527    25.296022415    25.459178925   0   0   0 # ohk
   1238      1   1  1.575000     9.382587433    28.293834686    25.459178925   0   0   0 # feok
   1239      1   2  0.425000    10.987420082    20.828052521    25.459178925   0   0   0 # hoy
   1240      1   3 -1.050000    12.434700012    21.799566269    25.459178925   0   0   0 # obsk
   1241      1   4 -0.950000    10.057680130    20.339323044    25.459178925   0   0   0 # ohk
   1242      1   1  1.575000    11.672587395    26.229864120    23.952779770   0   0   0 # feok
   1243      1   2  0.425000    13.277420044    23.782245636    23.952779770   0   0   0 # hoy
   1244      1   3 -1.050000    10.144700050    22.810731888    23.952779770   0   0   0 # obsk
   1245      1   4 -0.950000    12.347680092    24.270977020    23.952779770   0   0   0 # ohk
   1246      1   1  1.575000    13.517412186     1.446364999    26.965579987   0   0   0 # feok
   1247      1   2  0.425000    11.912579536     8.912146568    26.965579987   0   0   0 # hoy
   1248      1   3 -1.050000    10.465299606     7.940633297    26.965579987   0   0   0 # obsk
   1249      1   4 -0.950000    12.842319489     9.400876999    26.965579987   0   0   0 # ohk
   1250      1   1  1.575000    11.227412224     3.510334969    28.471979141   0   0   0 # feok
   1251      1   2  0.425000     9.622579575     5.957953453    28.471979141   0   0   0 # hoy
   1252      1   3 -1.050000    12.755299568     6.929466248    28.471979141   0   0   0 # obsk
   1253      1   4 -0.950000    10.552319527     5.469222546    28.471979141   0   0   0 # ohk
   1254      1   1  1.575000     9.382587433     8.467034340    28.471979141   0   0   0 # feok
   1255      1   2  0.425000    10.987420082     1.001253366    28.471979141   0   0   0 # hoy
   1256      1   3 -1.050000    12.434700012     1.972766519    28.471979141   0   0   0 # obsk
   1257      1   4 -0.950000    10.057680130     0.512522757    28.471979141   0   0   0 # ohk
   1258      1   1  1.575000    11.672587395     6.403064728    26.965579987   0   0   0 # feok
   1259      1   2  0.425000    13.277420044     3.955446482    26.965579987   0   0   0 # hoy
   1260      1   3 -1.050000    10.144700050     2.983933210    26.965579987   0   0   0 # obsk
   1261      1   4 -0.950000    12.347680092     4.444177151    26.965579987   0   0   0 # ohk
   1262      1   1  1.575000    13.517412186    11.359765053    26.965579987   0   0   0 # feok
   1263      1   3 -1.050000    10.465299606    17.854032516    26.965579987   0   0   0 # obsk
   1264      1   1  1.575000    11.227412224    13.423734665    28.471979141   0   0   0 # feok
   1265      1   2  0.425000     9.622579575    15.871353149    28.471979141   0   0   0 # hoy
   1266      1   4 -0.950000    10.552319527    15.382622719    28.471979141   0   0   0 # ohk
   1267      1   1  1.575000     9.382587433    18.380434036    28.471979141   0   0   0 # feok
   1268      1   2  0.425000    10.987420082    10.914652824    28.471979141   0   0   0 # hoy
   1269      1   3 -1.050000    12.434700012    11.886166573    28.471979141   0   0   0 # obsk
   1270      1   4 -0.950000    10.057680130    10.425922394    28.471979141   0   0   0 # ohk
   1271      1   1  1.575000    11.672587395    16.316465378    26.965579987   0   0   0 # feok
   1272      1   2  0.425000    13.277420044    13.868845940    26.965579987   0   0   0 # hoy
   1273      1   3 -1.050000    10.144700050    12.897333145    26.965579987   0   0   0 # obsk
   1274      1   4 -0.950000    12.347680092    14.357576370    26.965579987   0   0   0 # ohk
   1275      1   1  1.575000    13.517412186    21.273164749    26.965579987   0   0   0 # feok
   1276      1   2  0.425000    11.912579536    28.738945007    26.965579987   0   0   0 # hoy
   1277      1   3 -1.050000    10.465299606    27.767433167    26.965579987   0   0   0 # obsk
   1278      1   4 -0.950000    12.842319489    29.227676392    26.965579987   0   0   0 # ohk
   1279      1   1  1.575000    11.227412224    23.337133408    28.471979141   0   0   0 # feok
   1280      1   2  0.425000     9.622579575    25.784751892    28.471979141   0   0   0 # hoy
   1281      1   3 -1.050000    12.755299568    26.756265640    28.471979141   0   0   0 # obsk
   1282      1   4 -0.950000    10.552319527    25.296022415    28.471979141   0   0   0 # ohk
   1283      1   1  1.575000     9.382587433    28.293834686    28.471979141   0   0   0 # feok
   1284      1   2  0.425000    10.987420082    20.828052521    28.471979141   0   0   0 # hoy
   1285      1   3 -1.050000    12.434700012    21.799566269    28.471979141   0   0   0 # obsk
   1286      1   4 -0.950000    10.057680130    20.339323044    28.471979141   0   0   0 # ohk
   1287      1   1  1.575000    11.672587395    26.229864120    26.965579987   0   0   0 # feok
   1288      1   2  0.425000    13.277420044    23.782245636    26.965579987   0   0   0 # hoy
   1289      1   3 -1.050000    10.144700050    22.810731888    26.965579987   0   0   0 # obsk
   1290      1   4 -0.950000    12.347680092    24.270977020    26.965579987   0   0   0 # ohk
   1291      1   1  1.575000    18.097412109     1.446364999     2.863179684   0   0   0 # feok
   1292      1   2  0.425000    16.492580414     8.912146568     2.863179684   0   0   0 # hoy
   1293      1   3 -1.050000    15.045299530     7.940633297     2.863179684   0   0   0 # obsk
   1294      1   4 -0.950000    17.422319412     9.400876999     2.863179684   0   0   0 # ohk
   1295      1   1  1.575000    15.807412148     3.510334969     4.369579792   0   0   0 # feok
   1296      1   2  0.425000    14.202579498     5.957953453     4.369579792   0   0   0 # hoy
   1297      1   3 -1.050000    17.335300446     6.929466248     4.369579792   0   0   0 # obsk
   1298      1   4 -0.950000    15.132319450     5.469222546     4.369579792   0   0   0 # ohk
   1299      1   1  1.575000    13.962587357     8.467034340     4.369579792   0   0   0 # feok
   1300      1   2  0.425000    15.567420006     1.001253366     4.369579792   0   0   0 # hoy
   1301      1   3 -1.050000    17.014699936     1.972766519     4.369579792   0   0   0 # obsk
   1302      1   4 -0.950000    14.637680054     0.512522757     4.369579792   0   0   0 # ohk
   1303      1   1  1.575000    16.252588272     6.403064728     2.863179684   0   0   0 # feok
   1304      1   2  0.425000    17.857419968     3.955446482     2.863179684   0   0   0 # hoy
   1305      1   3 -1.050000    14.724699974     2.983933210     2.863179684   0   0   0 # obsk
   1306      1   4 -0.950000    16.927679062     4.444177151     2.863179684   0   0   0 # ohk
   1307      1   1  1.575000    18.097412109    11.359765053     2.863179684   0   0   0 # feok
   1308      1   2  0.425000    16.492580414    18.825546265     2.863179684   0   0   0 # hoy
   1309      1   3 -1.050000    15.045299530    17.854032516     2.863179684   0   0   0 # obsk
   1310      1   4 -0.950000    17.422319412    19.314275742     2.863179684   0   0   0 # ohk
   1311      1   1  1.575000    15.807412148    13.423734665     4.369579792   0   0   0 # feok
   1312      1   2  0.425000    14.202579498    15.871353149     4.369579792   0   0   0 # hoy
   1313      1   3 -1.050000    17.335300446    16.842866898     4.369579792   0   0   0 # obsk
   1314      1   4 -0.950000    15.132319450    15.382622719     4.369579792   0   0   0 # ohk
   1315      1   1  1.575000    13.962587357    18.380434036     4.369579792   0   0   0 # feok
   1316      1   2  0.425000    15.567420006    10.914652824     4.369579792   0   0   0 # hoy
   1317      1   3 -1.050000    17.014699936    11.886166573     4.369579792   0   0   0 # obsk
   1318      1   4 -0.950000    14.637680054    10.425922394     4.369579792   0   0   0 # ohk
   1319      1   1  1.575000    16.252588272    16.316465378     2.863179684   0   0   0 # feok
   1320      1   2  0.425000    17.857419968    13.868845940     2.863179684   0   0   0 # hoy
   1321      1   3 -1.050000    14.724699974    12.897333145     2.863179684   0   0   0 # obsk
   1322      1   4 -0.950000    16.927679062    14.357576370     2.863179684   0   0   0 # ohk
   1323      1   1  1.575000    18.097412109    21.273164749     2.863179684   0   0   0 # feok
   1324      1   2  0.425000    16.492580414    28.738945007     2.863179684   0   0   0 # hoy
   1325      1   3 -1.050000    15.045299530    27.767433167     2.863179684   0   0   0 # obsk
   1326      1   4 -0.950000    17.422319412    29.227676392     2.863179684   0   0   0 # ohk
   1327      1   1  1.575000    15.807412148    23.337133408     4.369579792   0   0   0 # feok
   1328      1   2  0.425000    14.202579498    25.784751892     4.369579792   0   0   0 # hoy
   1329      1   3 -1.050000    17.335300446    26.756265640     4.369579792   0   0   0 # obsk
   1330      1   4 -0.950000    15.132319450    25.296022415     4.369579792   0   0   0 # ohk
   1331      1   1  1.575000    13.962587357    28.293834686     4.369579792   0   0   0 # feok
   1332      1   2  0.425000    15.567420006    20.828052521     4.369579792   0   0   0 # hoy
   1333      1   3 -1.050000    17.014699936    21.799566269     4.369579792   0   0   0 # obsk
   1334      1   4 -0.950000    14.637680054    20.339323044     4.369579792   0   0   0 # ohk
   1335      1   1  1.575000    16.252588272    26.229864120     2.863179684   0   0   0 # feok
   1336      1   2  0.425000    17.857419968    23.782245636     2.863179684   0   0   0 # hoy
   1337      1   3 -1.050000    14.724699974    22.810731888     2.863179684   0   0   0 # obsk
   1338      1   4 -0.950000    16.927679062    24.270977020     2.863179684   0   0   0 # ohk
   1339      1   1  1.575000    18.097412109     1.446364999     5.875979424   0   0   0 # feok
   1340      1   2  0.425000    16.492580414     8.912146568     5.875979424   0   0   0 # hoy
   1341      1   3 -1.050000    15.045299530     7.940633297     5.875979424   0   0   0 # obsk
   1342      1   4 -0.950000    17.422319412     9.400876999     5.875979424   0   0   0 # ohk
   1343      1   1  1.575000    15.807412148     3.510334969     7.382379532   0   0   0 # feok
   1344      1   2  0.425000    14.202579498     5.957953453     7.382379532   0   0   0 # hoy
   1345      1   3 -1.050000    17.335300446     6.929466248     7.382379532   0   0   0 # obsk
   1346      1   4 -0.950000    15.132319450     5.469222546     7.382379532   0   0   0 # ohk
   1347      1   1  1.575000    13.962587357     8.467034340     7.382379532   0   0   0 # feok
   1348      1   2  0.425000    15.567420006     1.001253366     7.382379532   0   0   0 # hoy
   1349      1   3 -1.050000    17.014699936     1.972766519     7.382379532   0   0   0 # obsk
   1350      1   4 -0.950000    14.637680054     0.512522757     7.382379532   0   0   0 # ohk
   1351      1   1  1.575000    16.252588272     6.403064728     5.875979424   0   0   0 # feok
   1352      1   2  0.425000    17.857419968     3.955446482     5.875979424   0   0   0 # hoy
   1353      1   3 -1.050000    14.724699974     2.983933210     5.875979424   0   0   0 # obsk
   1354      1   4 -0.950000    16.927679062     4.444177151     5.875979424   0   0   0 # ohk
   1355      1   1  1.575000    18.097412109    11.359765053     5.875979424   0   0   0 # feok
   1356      1   2  0.425000    16.492580414    18.825546265     5.875979424   0   0   0 # hoy
   1357      1   3 -1.050000    15.045299530    17.854032516     5.875979424   0   0   0 # obsk
   1358      1   4 -0.950000    17.422319412    19.314275742     5.875979424   0   0   0 # ohk
   1359      1   1  1.575000    15.807412148    13.423734665     7.382379532   0   0   0 # feok
   1360      1   2  0.425000    14.202579498    15.871353149     7.382379532   0   0   0 # hoy
   1361      1   3 -1.050000    17.335300446    16.842866898     7.382379532   0   0   0 # obsk
   1362      1   4 -0.950000    15.132319450    15.382622719     7.382379532   0   0   0 # ohk
   1363      1   1  1.575000    13.962587357    18.380434036     7.382379532   0   0   0 # feok
   1364      1   2  0.425000    15.567420006    10.914652824     7.382379532   0   0   0 # hoy
   1365      1   3 -1.050000    17.014699936    11.886166573     7.382379532   0   0   0 # obsk
   1366      1   4 -0.950000    14.637680054    10.425922394     7.382379532   0   0   0 # ohk
   1367      1   1  1.575000    16.252588272    16.316465378     5.875979424   0   0   0 # feok
   1368      1   2  0.425000    17.857419968    13.868845940     5.875979424   0   0   0 # hoy
   1369      1   3 -1.050000    14.724699974    12.897333145     5.875979424   0   0   0 # obsk
   1370      1   4 -0.950000    16.927679062    14.357576370     5.875979424   0   0   0 # ohk
   1371      1   1  1.575000    18.097412109    21.273164749     5.875979424   0   0   0 # feok
   1372      1   2  0.425000    16.492580414    28.738945007     5.875979424   0   0   0 # hoy
   1373      1   3 -1.050000    15.045299530    27.767433167     5.875979424   0   0   0 # obsk
   1374      1   4 -0.950000    17.422319412    29.227676392     5.875979424   0   0   0 # ohk
   1375      1   1  1.575000    15.807412148    23.337133408     7.382379532   0   0   0 # feok
   1376      1   2  0.425000    14.202579498    25.784751892     7.382379532   0   0   0 # hoy
   1377      1   3 -1.050000    17.335300446    26.756265640     7.382379532   0   0   0 # obsk
   1378      1   4 -0.950000    15.132319450    25.296022415     7.382379532   0   0   0 # ohk
   1379      1   1  1.575000    13.962587357    28.293834686     7.382379532   0   0   0 # feok
   1380      1   2  0.425000    15.567420006    20.828052521     7.382379532   0   0   0 # hoy
   1381      1   3 -1.050000    17.014699936    21.799566269     7.382379532   0   0   0 # obsk
   1382      1   4 -0.950000    14.637680054    20.339323044     7.382379532   0   0   0 # ohk
   1383      1   1  1.575000    16.252588272    26.229864120     5.875979424   0   0   0 # feok
   1384      1   2  0.425000    17.857419968    23.782245636     5.875979424   0   0   0 # hoy
   1385      1   3 -1.050000    14.724699974    22.810731888     5.875979424   0   0   0 # obsk
   1386      1   4 -0.950000    16.927679062    24.270977020     5.875979424   0   0   0 # ohk
   1387      1   1  1.575000    18.097412109     1.446364999     8.888779640   0   0   0 # feok
   1388      1   2  0.425000    16.492580414     8.912146568     8.888779640   0   0   0 # hoy
   1389      1   3 -1.050000    15.045299530     7.940633297     8.888779640   0   0   0 # obsk
   1390      1   4 -0.950000    17.422319412     9.400876999     8.888779640   0   0   0 # ohk
   1391      1   1  1.575000    15.807412148     3.510334969    10.395179749   0   0   0 # feok
   1392      1   2  0.425000    14.202579498     5.957953453    10.395179749   0   0   0 # hoy
   1393      1   3 -1.050000    17.335300446     6.929466248    10.395179749   0   0   0 # obsk
   1394      1   4 -0.950000    15.132319450     5.469222546    10.395179749   0   0   0 # ohk
   1395      1   1  1.575000    13.962587357     8.467034340    10.395179749   0   0   0 # feok
   1396      1   2  0.425000    15.567420006     1.001253366    10.395179749   0   0   0 # hoy
   1397      1   3 -1.050000    17.014699936     1.972766519    10.395179749   0   0   0 # obsk
   1398      1   4 -0.950000    14.637680054     0.512522757    10.395179749   0   0   0 # ohk
   1399      1   1  1.575000    16.252588272     6.403064728     8.888779640   0   0   0 # feok
   1400      1   2  0.425000    17.857419968     3.955446482     8.888779640   0   0   0 # hoy
   1401      1   3 -1.050000    14.724699974     2.983933210     8.888779640   0   0   0 # obsk
   1402      1   4 -0.950000    16.927679062     4.444177151     8.888779640   0   0   0 # ohk
   1403      1   1  1.575000    18.097412109    11.359765053     8.888779640   0   0   0 # feok
   1404      1   2  0.425000    16.492580414    18.825546265     8.888779640   0   0   0 # hoy
   1405      1   3 -1.050000    15.045299530    17.854032516     8.888779640   0   0   0 # obsk
   1406      1   4 -0.950000    17.422319412    19.314275742     8.888779640   0   0   0 # ohk
   1407      1   1  1.575000    15.807412148    13.423734665    10.395179749   0   0   0 # feok
   1408      1   2  0.425000    14.202579498    15.871353149    10.395179749   0   0   0 # hoy
   1409      1   3 -1.050000    17.335300446    16.842866898    10.395179749   0   0   0 # obsk
   1410      1   4 -0.950000    15.132319450    15.382622719    10.395179749   0   0   0 # ohk
   1411      1   1  1.575000    13.962587357    18.380434036    10.395179749   0   0   0 # feok
   1412      1   2  0.425000    15.567420006    10.914652824    10.395179749   0   0   0 # hoy
   1413      1   3 -1.050000    17.014699936    11.886166573    10.395179749   0   0   0 # obsk
   1414      1   4 -0.950000    14.637680054    10.425922394    10.395179749   0   0   0 # ohk
   1415      1   1  1.575000    16.252588272    16.316465378     8.888779640   0   0   0 # feok
   1416      1   2  0.425000    17.857419968    13.868845940     8.888779640   0   0   0 # hoy
   1417      1   3 -1.050000    14.724699974    12.897333145     8.888779640   0   0   0 # obsk
   1418      1   4 -0.950000    16.927679062    14.357576370     8.888779640   0   0   0 # ohk
   1419      1   1  1.575000    18.097412109    21.273164749     8.888779640   0   0   0 # feok
   1420      1   2  0.425000    16.492580414    28.738945007     8.888779640   0   0   0 # hoy
   1421      1   3 -1.050000    15.045299530    27.767433167     8.888779640   0   0   0 # obsk
   1422      1   4 -0.950000    17.422319412    29.227676392     8.888779640   0   0   0 # ohk
   1423      1   1  1.575000    15.807412148    23.337133408    10.395179749   0   0   0 # feok
   1424      1   2  0.425000    14.202579498    25.784751892    10.395179749   0   0   0 # hoy
   1425      1   3 -1.050000    17.335300446    26.756265640    10.395179749   0   0   0 # obsk
   1426      1   4 -0.950000    15.132319450    25.296022415    10.395179749   0   0   0 # ohk
   1427      1   1  1.575000    13.962587357    28.293834686    10.395179749   0   0   0 # feok
   1428      1   2  0.425000    15.567420006    20.828052521    10.395179749   0   0   0 # hoy
   1429      1   3 -1.050000    17.014699936    21.799566269    10.395179749   0   0   0 # obsk
   1430      1   4 -0.950000    14.637680054    20.339323044    10.395179749   0   0   0 # ohk
   1431      1   1  1.575000    16.252588272    26.229864120     8.888779640   0   0   0 # feok
   1432      1   2  0.425000    17.857419968    23.782245636     8.888779640   0   0   0 # hoy
   1433      1   3 -1.050000    14.724699974    22.810731888     8.888779640   0   0   0 # obsk
   1434      1   4 -0.950000    16.927679062    24.270977020     8.888779640   0   0   0 # ohk
   1435      1   1  1.575000    18.097412109     1.446364999    11.901579857   0   0   0 # feok
   1436      1   2  0.425000    16.492580414     8.912146568    11.901579857   0   0   0 # hoy
   1437      1   3 -1.050000    15.045299530     7.940633297    11.901579857   0   0   0 # obsk
   1438      1   4 -0.950000    17.422319412     9.400876999    11.901579857   0   0   0 # ohk
   1439      1   1  1.575000    15.807412148     3.510334969    13.407979965   0   0   0 # feok
   1440      1   2  0.425000    14.202579498     5.957953453    13.407979965   0   0   0 # hoy
   1441      1   3 -1.050000    17.335300446     6.929466248    13.407979965   0   0   0 # obsk
   1442      1   4 -0.950000    15.132319450     5.469222546    13.407979965   0   0   0 # ohk
   1443      1   1  1.575000    13.962587357     8.467034340    13.407979965   0   0   0 # feok
   1444      1   2  0.425000    15.567420006     1.001253366    13.407979965   0   0   0 # hoy
   1445      1   3 -1.050000    17.014699936     1.972766519    13.407979965   0   0   0 # obsk
   1446      1   4 -0.950000    14.637680054     0.512522757    13.407979965   0   0   0 # ohk
   1447      1   1  1.575000    16.252588272     6.403064728    11.901579857   0   0   0 # feok
   1448      1   2  0.425000    17.857419968     3.955446482    11.901579857   0   0   0 # hoy
   1449      1   3 -1.050000    14.724699974     2.983933210    11.901579857   0   0   0 # obsk
   1450      1   4 -0.950000    16.927679062     4.444177151    11.901579857   0   0   0 # ohk
   1451      1   1  1.575000    18.097412109    11.359765053    11.901579857   0   0   0 # feok
   1452      1   2  0.425000    16.492580414    18.825546265    11.901579857   0   0   0 # hoy
   1453      1   3 -1.050000    15.045299530    17.854032516    11.901579857   0   0   0 # obsk
   1454      1   4 -0.950000    17.422319412    19.314275742    11.901579857   0   0   0 # ohk
   1455      1   1  1.575000    15.807412148    13.423734665    13.407979965   0   0   0 # feok
   1456      1   2  0.425000    14.202579498    15.871353149    13.407979965   0   0   0 # hoy
   1457      1   3 -1.050000    17.335300446    16.842866898    13.407979965   0   0   0 # obsk
   1458      1   4 -0.950000    15.132319450    15.382622719    13.407979965   0   0   0 # ohk
   1459      1   1  1.575000    13.962587357    18.380434036    13.407979965   0   0   0 # feok
   1460      1   2  0.425000    15.567420006    10.914652824    13.407979965   0   0   0 # hoy
   1461      1   3 -1.050000    17.014699936    11.886166573    13.407979965   0   0   0 # obsk
   1462      1   4 -0.950000    14.637680054    10.425922394    13.407979965   0   0   0 # ohk
   1463      1   1  1.575000    16.252588272    16.316465378    11.901579857   0   0   0 # feok
   1464      1   2  0.425000    17.857419968    13.868845940    11.901579857   0   0   0 # hoy
   1465      1   3 -1.050000    14.724699974    12.897333145    11.901579857   0   0   0 # obsk
   1466      1   4 -0.950000    16.927679062    14.357576370    11.901579857   0   0   0 # ohk
   1467      1   1  1.575000    18.097412109    21.273164749    11.901579857   0   0   0 # feok
   1468      1   2  0.425000    16.492580414    28.738945007    11.901579857   0   0   0 # hoy
   1469      1   3 -1.050000    15.045299530    27.767433167    11.901579857   0   0   0 # obsk
   1470      1   4 -0.950000    17.422319412    29.227676392    11.901579857   0   0   0 # ohk
   1471      1   1  1.575000    15.807412148    23.337133408    13.407979965   0   0   0 # feok
   1472      1   2  0.425000    14.202579498    25.784751892    13.407979965   0   0   0 # hoy
   1473      1   3 -1.050000    17.335300446    26.756265640    13.407979965   0   0   0 # obsk
   1474      1   4 -0.950000    15.132319450    25.296022415    13.407979965   0   0   0 # ohk
   1475      1   1  1.575000    13.962587357    28.293834686    13.407979965   0   0   0 # feok
   1476      1   2  0.425000    15.567420006    20.828052521    13.407979965   0   0   0 # hoy
   1477      1   3 -1.050000    17.014699936    21.799566269    13.407979965   0   0   0 # obsk
   1478      1   4 -0.950000    14.637680054    20.339323044    13.407979965   0   0   0 # ohk
   1479      1   1  1.575000    16.252588272    26.229864120    11.901579857   0   0   0 # feok
   1480      1   2  0.425000    17.857419968    23.782245636    11.901579857   0   0   0 # hoy
   1481      1   3 -1.050000    14.724699974    22.810731888    11.901579857   0   0   0 # obsk
   1482      1   4 -0.950000    16.927679062    24.270977020    11.901579857   0   0   0 # ohk
   1483      1   1  1.575000    18.097412109     1.446364999    14.914379120   0   0   0 # feok
   1484      1   2  0.425000    16.492580414     8.912146568    14.914379120   0   0   0 # hoy
   1485      1   3 -1.050000    15.045299530     7.940633297    14.914379120   0   0   0 # obsk
   1486      1   4 -0.950000    17.422319412     9.400876999    14.914379120   0   0   0 # ohk
   1487      1   1  1.575000    15.807412148     3.510334969    16.420780182   0   0   0 # feok
   1488      1   2  0.425000    14.202579498     5.957953453    16.420780182   0   0   0 # hoy
   1489      1   3 -1.050000    17.335300446     6.929466248    16.420780182   0   0   0 # obsk
   1490      1   4 -0.950000    15.132319450     5.469222546    16.420780182   0   0   0 # ohk
   1491      1   1  1.575000    13.962587357     8.467034340    16.420780182   0   0   0 # feok
   1492      1   2  0.425000    15.567420006     1.001253366    16.420780182   0   0   0 # hoy
   1493      1   3 -1.050000    17.014699936     1.972766519    16.420780182   0   0   0 # obsk
   1494      1   4 -0.950000    14.637680054     0.512522757    16.420780182   0   0   0 # ohk
   1495      1   1  1.575000    16.252588272     6.403064728    14.914379120   0   0   0 # feok
   1496      1   2  0.425000    17.857419968     3.955446482    14.914379120   0   0   0 # hoy
   1497      1   3 -1.050000    14.724699974     2.983933210    14.914379120   0   0   0 # obsk
   1498      1   4 -0.950000    16.927679062     4.444177151    14.914379120   0   0   0 # ohk
   1499      1   1  1.575000    18.097412109    11.359765053    14.914379120   0   0   0 # feok
   1500      1   2  0.425000    16.492580414    18.825546265    14.914379120   0   0   0 # hoy
   1501      1   3 -1.050000    15.045299530    17.854032516    14.914379120   0   0   0 # obsk
   1502      1   4 -0.950000    17.422319412    19.314275742    14.914379120   0   0   0 # ohk
   1503      1   1  1.575000    15.807412148    13.423734665    16.420780182   0   0   0 # feok
   1504      1   2  0.425000    14.202579498    15.871353149    16.420780182   0   0   0 # hoy
   1505      1   3 -1.050000    17.335300446    16.842866898    16.420780182   0   0   0 # obsk
   1506      1   4 -0.950000    15.132319450    15.382622719    16.420780182   0   0   0 # ohk
   1507      1   1  1.575000    13.962587357    18.380434036    16.420780182   0   0   0 # feok
   1508      1   2  0.425000    15.567420006    10.914652824    16.420780182   0   0   0 # hoy
   1509      1   3 -1.050000    17.014699936    11.886166573    16.420780182   0   0   0 # obsk
   1510      1   4 -0.950000    14.637680054    10.425922394    16.420780182   0   0   0 # ohk
   1511      1   1  1.575000    16.252588272    16.316465378    14.914379120   0   0   0 # feok
   1512      1   2  0.425000    17.857419968    13.868845940    14.914379120   0   0   0 # hoy
   1513      1   3 -1.050000    14.724699974    12.897333145    14.914379120   0   0   0 # obsk
   1514      1   4 -0.950000    16.927679062    14.357576370    14.914379120   0   0   0 # ohk
   1515      1   1  1.575000    18.097412109    21.273164749    14.914379120   0   0   0 # feok
   1516      1   2  0.425000    16.492580414    28.738945007    14.914379120   0   0   0 # hoy
   1517      1   3 -1.050000    15.045299530    27.767433167    14.914379120   0   0   0 # obsk
   1518      1   4 -0.950000    17.422319412    29.227676392    14.914379120   0   0   0 # ohk
   1519      1   1  1.575000    15.807412148    23.337133408    16.420780182   0   0   0 # feok
   1520      1   2  0.425000    14.202579498    25.784751892    16.420780182   0   0   0 # hoy
   1521      1   3 -1.050000    17.335300446    26.756265640    16.420780182   0   0   0 # obsk
   1522      1   4 -0.950000    15.132319450    25.296022415    16.420780182   0   0   0 # ohk
   1523      1   1  1.575000    13.962587357    28.293834686    16.420780182   0   0   0 # feok
   1524      1   2  0.425000    15.567420006    20.828052521    16.420780182   0   0   0 # hoy
   1525      1   3 -1.050000    17.014699936    21.799566269    16.420780182   0   0   0 # obsk
   1526      1   4 -0.950000    14.637680054    20.339323044    16.420780182   0   0   0 # ohk
   1527      1   1  1.575000    16.252588272    26.229864120    14.914379120   0   0   0 # feok
   1528      1   2  0.425000    17.857419968    23.782245636    14.914379120   0   0   0 # hoy
   1529      1   3 -1.050000    14.724699974    22.810731888    14.914379120   0   0   0 # obsk
   1530      1   4 -0.950000    16.927679062    24.270977020    14.914379120   0   0   0 # ohk
   1531      1   1  1.575000    18.097412109     1.446364999    17.927179337   0   0   0 # feok
   1532      1   2  0.425000    16.492580414     8.912146568    17.927179337   0   0   0 # hoy
   1533      1   3 -1.050000    15.045299530     7.940633297    17.927179337   0   0   0 # obsk
   1534      1   4 -0.950000    17.422319412     9.400876999    17.927179337   0   0   0 # ohk
   1535      1   1  1.575000    15.807412148     3.510334969    19.433580399   0   0   0 # feok
   1536      1   2  0.425000    14.202579498     5.957953453    19.433580399   0   0   0 # hoy
   1537      1   3 -1.050000    17.335300446     6.929466248    19.433580399   0   0   0 # obsk
   1538      1   4 -0.950000    15.132319450     5.469222546    19.433580399   0   0   0 # ohk
   1539      1   1  1.575000    13.962587357     8.467034340    19.433580399   0   0   0 # feok
   1540      1   2  0.425000    15.567420006     1.001253366    19.433580399   0   0   0 # hoy
   1541      1   3 -1.050000    17.014699936     1.972766519    19.433580399   0   0   0 # obsk
   1542      1   4 -0.950000    14.637680054     0.512522757    19.433580399   0   0   0 # ohk
   1543      1   1  1.575000    16.252588272     6.403064728    17.927179337   0   0   0 # feok
   1544      1   2  0.425000    17.857419968     3.955446482    17.927179337   0   0   0 # hoy
   1545      1   3 -1.050000    14.724699974     2.983933210    17.927179337   0   0   0 # obsk
   1546      1   4 -0.950000    16.927679062     4.444177151    17.927179337   0   0   0 # ohk
   1547      1   1  1.575000    18.097412109    11.359765053    17.927179337   0   0   0 # feok
   1548      1   2  0.425000    16.492580414    18.825546265    17.927179337   0   0   0 # hoy
   1549      1   3 -1.050000    15.045299530    17.854032516    17.927179337   0   0   0 # obsk
   1550      1   4 -0.950000    17.422319412    19.314275742    17.927179337   0   0   0 # ohk
   1551      1   1  1.575000    15.807412148    13.423734665    19.433580399   0   0   0 # feok
   1552      1   2  0.425000    14.202579498    15.871353149    19.433580399   0   0   0 # hoy
   1553      1   3 -1.050000    17.335300446    16.842866898    19.433580399   0   0   0 # obsk
   1554      1   4 -0.950000    15.132319450    15.382622719    19.433580399   0   0   0 # ohk
   1555      1   1  1.575000    13.962587357    18.380434036    19.433580399   0   0   0 # feok
   1556      1   2  0.425000    15.567420006    10.914652824    19.433580399   0   0   0 # hoy
   1557      1   3 -1.050000    17.014699936    11.886166573    19.433580399   0   0   0 # obsk
   1558      1   4 -0.950000    14.637680054    10.425922394    19.433580399   0   0   0 # ohk
   1559      1   1  1.575000    16.252588272    16.316465378    17.927179337   0   0   0 # feok
   1560      1   2  0.425000    17.857419968    13.868845940    17.927179337   0   0   0 # hoy
   1561      1   3 -1.050000    14.724699974    12.897333145    17.927179337   0   0   0 # obsk
   1562      1   4 -0.950000    16.927679062    14.357576370    17.927179337   0   0   0 # ohk
   1563      1   1  1.575000    18.097412109    21.273164749    17.927179337   0   0   0 # feok
   1564      1   2  0.425000    16.492580414    28.738945007    17.927179337   0   0   0 # hoy
   1565      1   3 -1.050000    15.045299530    27.767433167    17.927179337   0   0   0 # obsk
   1566      1   4 -0.950000    17.422319412    29.227676392    17.927179337   0   0   0 # ohk
   1567      1   1  1.575000    15.807412148    23.337133408    19.433580399   0   0   0 # feok
   1568      1   2  0.425000    14.202579498    25.784751892    19.433580399   0   0   0 # hoy
   1569      1   3 -1.050000    17.335300446    26.756265640    19.433580399   0   0   0 # obsk
   1570      1   4 -0.950000    15.132319450    25.296022415    19.433580399   0   0   0 # ohk
   1571      1   1  1.575000    13.962587357    28.293834686    19.433580399   0   0   0 # feok
   1572      1   2  0.425000    15.567420006    20.828052521    19.433580399   0   0   0 # hoy
   1573      1   3 -1.050000    17.014699936    21.799566269    19.433580399   0   0   0 # obsk
   1574      1   4 -0.950000    14.637680054    20.339323044    19.433580399   0   0   0 # ohk
   1575      1   1  1.575000    16.252588272    26.229864120    17.927179337   0   0   0 # feok
   1576      1   2  0.425000    17.857419968    23.782245636    17.927179337   0   0   0 # hoy
   1577      1   3 -1.050000    14.724699974    22.810731888    17.927179337   0   0   0 # obsk
   1578      1   4 -0.950000    16.927679062    24.270977020    17.927179337   0   0   0 # ohk
   1579      1   1  1.575000    18.097412109     1.446364999    20.939979553   0   0   0 # feok
   1580      1   2  0.425000    16.492580414     8.912146568    20.939979553   0   0   0 # hoy
   1581      1   3 -1.050000    15.045299530     7.940633297    20.939979553   0   0   0 # obsk
   1582      1   4 -0.950000    17.422319412     9.400876999    20.939979553   0   0   0 # ohk
   1583      1   1  1.575000    15.807412148     3.510334969    22.446378708   0   0   0 # feok
   1584      1   2  0.425000    14.202579498     5.957953453    22.446378708   0   0   0 # hoy
   1585      1   3 -1.050000    17.335300446     6.929466248    22.446378708   0   0   0 # obsk
   1586      1   4 -0.950000    15.132319450     5.469222546    22.446378708   0   0   0 # ohk
   1587      1   1  1.575000    13.962587357     8.467034340    22.446378708   0   0   0 # feok
   1588      1   2  0.425000    15.567420006     1.001253366    22.446378708   0   0   0 # hoy
   1589      1   3 -1.050000    17.014699936     1.972766519    22.446378708   0   0   0 # obsk
   1590      1   4 -0.950000    14.637680054     0.512522757    22.446378708   0   0   0 # ohk
   1591      1   1  1.575000    16.252588272     6.403064728    20.939979553   0   0   0 # feok
   1592      1   2  0.425000    17.857419968     3.955446482    20.939979553   0   0   0 # hoy
   1593      1   3 -1.050000    14.724699974     2.983933210    20.939979553   0   0   0 # obsk
   1594      1   4 -0.950000    16.927679062     4.444177151    20.939979553   0   0   0 # ohk
   1595      1   1  1.575000    18.097412109    11.359765053    20.939979553   0   0   0 # feok
   1596      1   2  0.425000    16.492580414    18.825546265    20.939979553   0   0   0 # hoy
   1597      1   3 -1.050000    15.045299530    17.854032516    20.939979553   0   0   0 # obsk
   1598      1   4 -0.950000    17.422319412    19.314275742    20.939979553   0   0   0 # ohk
   1599      1   1  1.575000    15.807412148    13.423734665    22.446378708   0   0   0 # feok
   1600      1   2  0.425000    14.202579498    15.871353149    22.446378708   0   0   0 # hoy
   1601      1   3 -1.050000    17.335300446    16.842866898    22.446378708   0   0   0 # obsk
   1602      1   4 -0.950000    15.132319450    15.382622719    22.446378708   0   0   0 # ohk
   1603      1   1  1.575000    13.962587357    18.380434036    22.446378708   0   0   0 # feok
   1604      1   2  0.425000    15.567420006    10.914652824    22.446378708   0   0   0 # hoy
   1605      1   3 -1.050000    17.014699936    11.886166573    22.446378708   0   0   0 # obsk
   1606      1   4 -0.950000    14.637680054    10.425922394    22.446378708   0   0   0 # ohk
   1607      1   1  1.575000    16.252588272    16.316465378    20.939979553   0   0   0 # feok
   1608      1   2  0.425000    17.857419968    13.868845940    20.939979553   0   0   0 # hoy
   1609      1   3 -1.050000    14.724699974    12.897333145    20.939979553   0   0   0 # obsk
   1610      1   4 -0.950000    16.927679062    14.357576370    20.939979553   0   0   0 # ohk
   1611      1   1  1.575000    18.097412109    21.273164749    20.939979553   0   0   0 # feok
   1612      1   2  0.425000    16.492580414    28.738945007    20.939979553   0   0   0 # hoy
   1613      1   3 -1.050000    15.045299530    27.767433167    20.939979553   0   0   0 # obsk
   1614      1   4 -0.950000    17.422319412    29.227676392    20.939979553   0   0   0 # ohk
   1615      1   1  1.575000    15.807412148    23.337133408    22.446378708   0   0   0 # feok
   1616      1   2  0.425000    14.202579498    25.784751892    22.446378708   0   0   0 # hoy
   1617      1   3 -1.050000    17.335300446    26.756265640    22.446378708   0   0   0 # obsk
   1618      1   4 -0.950000    15.132319450    25.296022415    22.446378708   0   0   0 # ohk
   1619      1   1  1.575000    13.962587357    28.293834686    22.446378708   0   0   0 # feok
   1620      1   2  0.425000    15.567420006    20.828052521    22.446378708   0   0   0 # hoy
   1621      1   3 -1.050000    17.014699936    21.799566269    22.446378708   0   0   0 # obsk
   1622      1   4 -0.950000    14.637680054    20.339323044    22.446378708   0   0   0 # ohk
   1623      1   1  1.575000    16.252588272    26.229864120    20.939979553   0   0   0 # feok
   1624      1   2  0.425000    17.857419968    23.782245636    20.939979553   0   0   0 # hoy
   1625      1   3 -1.050000    14.724699974    22.810731888    20.939979553   0   0   0 # obsk
   1626      1   4 -0.950000    16.927679062    24.270977020    20.939979553   0   0   0 # ohk
   1627      1   1  1.575000    18.097412109     1.446364999    23.952779770   0   0   0 # feok
   1628      1   2  0.425000    16.492580414     8.912146568    23.952779770   0   0   0 # hoy
   1629      1   3 -1.050000    15.045299530     7.940633297    23.952779770   0   0   0 # obsk
   1630      1   4 -0.950000    17.422319412     9.400876999    23.952779770   0   0   0 # ohk
   1631      1   1  1.575000    15.807412148     3.510334969    25.459178925   0   0   0 # feok
   1632      1   2  0.425000    14.202579498     5.957953453    25.459178925   0   0   0 # hoy
   1633      1   3 -1.050000    17.335300446     6.929466248    25.459178925   0   0   0 # obsk
   1634      1   4 -0.950000    15.132319450     5.469222546    25.459178925   0   0   0 # ohk
   1635      1   1  1.575000    13.962587357     8.467034340    25.459178925   0   0   0 # feok
   1636      1   2  0.425000    15.567420006     1.001253366    25.459178925   0   0   0 # hoy
   1637      1   3 -1.050000    17.014699936     1.972766519    25.459178925   0   0   0 # obsk
   1638      1   4 -0.950000    14.637680054     0.512522757    25.459178925   0   0   0 # ohk
   1639      1   1  1.575000    16.252588272     6.403064728    23.952779770   0   0   0 # feok
   1640      1   2  0.425000    17.857419968     3.955446482    23.952779770   0   0   0 # hoy
   1641      1   3 -1.050000    14.724699974     2.983933210    23.952779770   0   0   0 # obsk
   1642      1   4 -0.950000    16.927679062     4.444177151    23.952779770   0   0   0 # ohk
   1643      1   1  1.575000    18.097412109    11.359765053    23.952779770   0   0   0 # feok
   1644      1   2  0.425000    16.492580414    18.825546265    23.952779770   0   0   0 # hoy
   1645      1   3 -1.050000    15.045299530    17.854032516    23.952779770   0   0   0 # obsk
   1646      1   4 -0.950000    17.422319412    19.314275742    23.952779770   0   0   0 # ohk
   1647      1   1  1.575000    15.807412148    13.423734665    25.459178925   0   0   0 # feok
   1648      1   2  0.425000    14.202579498    15.871353149    25.459178925   0   0   0 # hoy
   1649      1   3 -1.050000    17.335300446    16.842866898    25.459178925   0   0   0 # obsk
   1650      1   4 -0.950000    15.132319450    15.382622719    25.459178925   0   0   0 # ohk
   1651      1   1  1.575000    13.962587357    18.380434036    25.459178925   0   0   0 # feok
   1652      1   2  0.425000    15.567420006    10.914652824    25.459178925   0   0   0 # hoy
   1653      1   3 -1.050000    17.014699936    11.886166573    25.459178925   0   0   0 # obsk
   1654      1   4 -0.950000    14.637680054    10.425922394    25.459178925   0   0   0 # ohk
   1655      1   1  1.575000    16.252588272    16.316465378    23.952779770   0   0   0 # feok
   1656      1   2  0.425000    17.857419968    13.868845940    23.952779770   0   0   0 # hoy
   1657      1   3 -1.050000    14.724699974    12.897333145    23.952779770   0   0   0 # obsk
   1658      1   4 -0.950000    16.927679062    14.357576370    23.952779770   0   0   0 # ohk
   1659      1   1  1.575000    18.097412109    21.273164749    23.952779770   0   0   0 # feok
   1660      1   2  0.425000    16.492580414    28.738945007    23.952779770   0   0   0 # hoy
   1661      1   3 -1.050000    15.045299530    27.767433167    23.952779770   0   0   0 # obsk
   1662      1   4 -0.950000    17.422319412    29.227676392    23.952779770   0   0   0 # ohk
   1663      1   1  1.575000    15.807412148    23.337133408    25.459178925   0   0   0 # feok
   1664      1   2  0.425000    14.202579498    25.784751892    25.459178925   0   0   0 # hoy
   1665      1   3 -1.050000    17.335300446    26.756265640    25.459178925   0   0   0 # obsk
   1666      1   4 -0.950000    15.132319450    25.296022415    25.459178925   0   0   0 # ohk
   1667      1   1  1.575000    13.962587357    28.293834686    25.459178925   0   0   0 # feok
   1668      1   2  0.425000    15.567420006    20.828052521    25.459178925   0   0   0 # hoy
   1669      1   3 -1.050000    17.014699936    21.799566269    25.459178925   0   0   0 # obsk
   1670      1   4 -0.950000    14.637680054    20.339323044    25.459178925   0   0   0 # ohk
   1671      1   1  1.575000    16.252588272    26.229864120    23.952779770   0   0   0 # feok
   1672      1   2  0.425000    17.857419968    23.782245636    23.952779770   0   0   0 # hoy
   1673      1   3 -1.050000    14.724699974    22.810731888    23.952779770   0   0   0 # obsk
   1674      1   4 -0.950000    16.927679062    24.270977020    23.952779770   0   0   0 # ohk
   1675      1   1  1.575000    18.097412109     1.446364999    26.965579987   0   0   0 # feok
   1676      1   2  0.425000    16.492580414     8.912146568    26.965579987   0   0   0 # hoy
   1677      1   3 -1.050000    15.045299530     7.940633297    26.965579987   0   0   0 # obsk
   1678      1   4 -0.950000    17.422319412     9.400876999    26.965579987   0   0   0 # ohk
   1679      1   1  1.575000    15.807412148     3.510334969    28.471979141   0   0   0 # feok
   1680      1   2  0.425000    14.202579498     5.957953453    28.471979141   0   0   0 # hoy
   1681      1   3 -1.050000    17.335300446     6.929466248    28.471979141   0   0   0 # obsk
   1682      1   4 -0.950000    15.132319450     5.469222546    28.471979141   0   0   0 # ohk
   1683      1   2  0.425000    15.567420006     1.001253366    28.471979141   0   0   0 # hoy
   1684      1   3 -1.050000    17.014699936     1.972766519    28.471979141   0   0   0 # obsk
   1685      1   4 -0.950000    14.637680054     0.512522757    28.471979141   0   0   0 # ohk
   1686      1   1  1.575000    16.252588272     6.403064728    26.965579987   0   0   0 # feok
   1687      1   2  0.425000    17.857419968     3.955446482    26.965579987   0   0   0 # hoy
   1688      1   3 -1.050000    14.724699974     2.983933210    26.965579987   0   0   0 # obsk
   1689      1   4 -0.950000    16.927679062     4.444177151    26.965579987   0   0   0 # ohk
   1690      1   1  1.575000    18.097412109    11.359765053    26.965579987   0   0   0 # feok
   1691      1   2  0.425000    16.492580414    18.825546265    26.965579987   0   0   0 # hoy
   1692      1   4 -0.950000    17.422319412    19.314275742    26.965579987   0   0   0 # ohk
   1693      1   1  1.575000    15.807412148    13.423734665    28.471979141   0   0   0 # feok
   1694      1   2  0.425000    14.202579498    15.871353149    28.471979141   0   0   0 # hoy
   1695      1   3 -1.050000    17.335300446    16.842866898    28.471979141   0   0   0 # obsk
   1696      1   4 -0.950000    15.132319450    15.382622719    28.471979141   0   0   0 # ohk
   1697      1   2  0.425000    15.567420006    10.914652824    28.471979141   0   0   0 # hoy
   1698      1   3 -1.050000    17.014699936    11.886166573    28.471979141   0   0   0 # obsk
   1699      1   4 -0.950000    14.637680054    10.425922394    28.471979141   0   0   0 # ohk
   1700      1   1  1.575000    16.252588272    16.316465378    26.965579987   0   0   0 # feok
   1701      1   2  0.425000    17.857419968    13.868845940    26.965579987   0   0   0 # hoy
   1702      1   3 -1.050000    14.724699974    12.897333145    26.965579987   0   0   0 # obsk
   1703      1   4 -0.950000    16.927679062    14.357576370    26.965579987   0   0   0 # ohk
   1704      1   1  1.575000    18.097412109    21.273164749    26.965579987   0   0   0 # feok
   1705      1   2  0.425000    16.492580414    28.738945007    26.965579987   0   0   0 # hoy
   1706      1   3 -1.050000    15.045299530    27.767433167    26.965579987   0   0   0 # obsk
   1707      1   4 -0.950000    17.422319412    29.227676392    26.965579987   0   0   0 # ohk
   1708      1   1  1.575000    15.807412148    23.337133408    28.471979141   0   0   0 # feok
   1709      1   2  0.425000    14.202579498    25.784751892    28.471979141   0   0   0 # hoy
   1710      1   3 -1.050000    17.335300446    26.756265640    28.471979141   0   0   0 # obsk
   1711      1   4 -0.950000    15.132319450    25.296022415    28.471979141   0   0   0 # ohk
   1712      1   3 -1.050000    17.014699936    21.799566269    28.471979141   0   0   0 # obsk
   1713      1   1  1.575000    16.252588272    26.229864120    26.965579987   0   0   0 # feok
   1714      1   2  0.425000    17.857419968    23.782245636    26.965579987   0   0   0 # hoy
   1715      1   3 -1.050000    14.724699974    22.810731888    26.965579987   0   0   0 # obsk
   1716      1   4 -0.950000    16.927679062    24.270977020    26.965579987   0   0   0 # ohk
   1717      1   1  1.575000    22.677412033     1.446364999     2.863179684   0   0   0 # feok
   1718      1   2  0.425000    21.072580338     8.912146568     2.863179684   0   0   0 # hoy
   1719      1   3 -1.050000    19.625299454     7.940633297     2.863179684   0   0   0 # obsk
   1720      1   4 -0.950000    22.002319336     9.400876999     2.863179684   0   0   0 # ohk
   1721      1   1  1.575000    20.387411118     3.510334969     4.369579792   0   0   0 # feok
   1722      1   2  0.425000    18.782579422     5.957953453     4.369579792   0   0   0 # hoy
   1723      1   3 -1.050000    21.915300369     6.929466248     4.369579792   0   0   0 # obsk
   1724      1   4 -0.950000    19.712320328     5.469222546     4.369579792   0   0   0 # ohk
   1725      1   1  1.575000    18.542587280     8.467034340     4.369579792   0   0   0 # feok
   1726      1   2  0.425000    20.147418976     1.001253366     4.369579792   0   0   0 # hoy
   1727      1   3 -1.050000    21.594699860     1.972766519     4.369579792   0   0   0 # obsk
   1728      1   4 -0.950000    19.217679977     0.512522757     4.369579792   0   0   0 # ohk
   1729      1   1  1.575000    20.832588196     6.403064728     2.863179684   0   0   0 # feok
   1730      1   2  0.425000    22.437419891     3.955446482     2.863179684   0   0   0 # hoy
   1731      1   3 -1.050000    19.304698944     2.983933210     2.863179684   0   0   0 # obsk
   1732      1   4 -0.950000    21.507678986     4.444177151     2.863179684   0   0   0 # ohk
   1733      1   1  1.575000    22.677412033    11.359765053     2.863179684   0   0   0 # feok
   1734      1   2  0.425000    21.072580338    18.825546265     2.863179684   0   0   0 # hoy
   1735      1   3 -1.050000    19.625299454    17.854032516     2.863179684   0   0   0 # obsk
   1736      1   4 -0.950000    22.002319336    19.314275742     2.863179684   0   0   0 # ohk
   1737      1   1  1.575000    20.387411118    13.423734665     4.369579792   0   0   0 # feok
   1738      1   2  0.425000    18.782579422    15.871353149     4.369579792   0   0   0 # hoy
   1739      1   3 -1.050000    21.915300369    16.842866898     4.369579792   0   0   0 # obsk
   1740      1   4 -0.950000    19.712320328    15.382622719     4.369579792   0   0   0 # ohk
   1741      1   1  1.575000    18.542587280    18.380434036     4.369579792   0   0   0 # feok
   1742      1   2  0.425000    20.147418976    10.914652824     4.369579792   0   0   0 # hoy
   1743      1   3 -1.050000    21.594699860    11.886166573     4.369579792   0   0   0 # obsk
   1744      1   4 -0.950000    19.217679977    10.425922394     4.369579792   0   0   0 # ohk
   1745      1   1  1.575000    20.832588196    16.316465378     2.863179684   0   0   0 # feok
   1746      1   2  0.425000    22.437419891    13.868845940     2.863179684   0   0   0 # hoy
   1747      1   3 -1.050000    19.304698944    12.897333145     2.863179684   0   0   0 # obsk
   1748      1   4 -0.950000    21.507678986    14.357576370     2.863179684   0   0   0 # ohk
   1749      1   1  1.575000    22.677412033    21.273164749     2.863179684   0   0   0 # feok
   1750      1   2  0.425000    21.072580338    28.738945007     2.863179684   0   0   0 # hoy
   1751      1   3 -1.050000    19.625299454    27.767433167     2.863179684   0   0   0 # obsk
   1752      1   4 -0.950000    22.002319336    29.227676392     2.863179684   0   0   0 # ohk
   1753      1   1  1.575000    20.387411118    23.337133408     4.369579792   0   0   0 # feok
   1754      1   2  0.425000    18.782579422    25.784751892     4.369579792   0   0   0 # hoy
   1755      1   3 -1.050000    21.915300369    26.756265640     4.369579792   0   0   0 # obsk
   1756      1   4 -0.950000    19.712320328    25.296022415     4.369579792   0   0   0 # ohk
   1757      1   1  1.575000    18.542587280    28.293834686     4.369579792   0   0   0 # feok
   1758      1   2  0.425000    20.147418976    20.828052521     4.369579792   0   0   0 # hoy
   1759      1   3 -1.050000    21.594699860    21.799566269     4.369579792   0   0   0 # obsk
   1760      1   4 -0.950000    19.217679977    20.339323044     4.369579792   0   0   0 # ohk
   1761      1   1  1.575000    20.832588196    26.229864120     2.863179684   0   0   0 # feok
   1762      1   2  0.425000    22.437419891    23.782245636     2.863179684   0   0   0 # hoy
   1763      1   3 -1.050000    19.304698944    22.810731888     2.863179684   0   0   0 # obsk
   1764      1   4 -0.950000    21.507678986    24.270977020     2.863179684   0   0   0 # ohk
   1765      1   1  1.575000    22.677412033     1.446364999     5.875979424   0   0   0 # feok
   1766      1   2  0.425000    21.072580338     8.912146568     5.875979424   0   0   0 # hoy
   1767      1   3 -1.050000    19.625299454     7.940633297     5.875979424   0   0   0 # obsk
   1768      1   4 -0.950000    22.002319336     9.400876999     5.875979424   0   0   0 # ohk
   1769      1   1  1.575000    20.387411118     3.510334969     7.382379532   0   0   0 # feok
   1770      1   2  0.425000    18.782579422     5.957953453     7.382379532   0   0   0 # hoy
   1771      1   3 -1.050000    21.915300369     6.929466248     7.382379532   0   0   0 # obsk
   1772      1   4 -0.950000    19.712320328     5.469222546     7.382379532   0   0   0 # ohk
   1773      1   1  1.575000    18.542587280     8.467034340     7.382379532   0   0   0 # feok
   1774      1   2  0.425000    20.147418976     1.001253366     7.382379532   0   0   0 # hoy
   1775      1   3 -1.050000    21.594699860     1.972766519     7.382379532   0   0   0 # obsk
   1776      1   4 -0.950000    19.217679977     0.512522757     7.382379532   0   0   0 # ohk
   1777      1   1  1.575000    20.832588196     6.403064728     5.875979424   0   0   0 # feok
   1778      1   2  0.425000    22.437419891     3.955446482     5.875979424   0   0   0 # hoy
   1779      1   3 -1.050000    19.304698944     2.983933210     5.875979424   0   0   0 # obsk
   1780      1   4 -0.950000    21.507678986     4.444177151     5.875979424   0   0   0 # ohk
   1781      1   1  1.575000    22.677412033    11.359765053     5.875979424   0   0   0 # feok
   1782      1   2  0.425000    21.072580338    18.825546265     5.875979424   0   0   0 # hoy
   1783      1   3 -1.050000    19.625299454    17.854032516     5.875979424   0   0   0 # obsk
   1784      1   4 -0.950000    22.002319336    19.314275742     5.875979424   0   0   0 # ohk
   1785      1   1  1.575000    20.387411118    13.423734665     7.382379532   0   0   0 # feok
   1786      1   2  0.425000    18.782579422    15.871353149     7.382379532   0   0   0 # hoy
   1787      1   3 -1.050000    21.915300369    16.842866898     7.382379532   0   0   0 # obsk
   1788      1   4 -0.950000    19.712320328    15.382622719     7.382379532   0   0   0 # ohk
   1789      1   1  1.575000    18.542587280    18.380434036     7.382379532   0   0   0 # feok
   1790      1   2  0.425000    20.147418976    10.914652824     7.382379532   0   0   0 # hoy
   1791      1   3 -1.050000    21.594699860    11.886166573     7.382379532   0   0   0 # obsk
   1792      1   4 -0.950000    19.217679977    10.425922394     7.382379532   0   0   0 # ohk
   1793      1   1  1.575000    20.832588196    16.316465378     5.875979424   0   0   0 # feok
   1794      1   2  0.425000    22.437419891    13.868845940     5.875979424   0   0   0 # hoy
   1795      1   3 -1.050000    19.304698944    12.897333145     5.875979424   0   0   0 # obsk
   1796      1   4 -0.950000    21.507678986    14.357576370     5.875979424   0   0   0 # ohk
   1797      1   1  1.575000    22.677412033    21.273164749     5.875979424   0   0   0 # feok
   1798      1   2  0.425000    21.072580338    28.738945007     5.875979424   0   0   0 # hoy
   1799      1   3 -1.050000    19.625299454    27.767433167     5.875979424   0   0   0 # obsk
   1800      1   4 -0.950000    22.002319336    29.227676392     5.875979424   0   0   0 # ohk
   1801      1   1  1.575000    20.387411118    23.337133408     7.382379532   0   0   0 # feok
   1802      1   2  0.425000    18.782579422    25.784751892     7.382379532   0   0   0 # hoy
   1803      1   3 -1.050000    21.915300369    26.756265640     7.382379532   0   0   0 # obsk
   1804      1   4 -0.950000    19.712320328    25.296022415     7.382379532   0   0   0 # ohk
   1805      1   1  1.575000    18.542587280    28.293834686     7.382379532   0   0   0 # feok
   1806      1   2  0.425000    20.147418976    20.828052521     7.382379532   0   0   0 # hoy
   1807      1   3 -1.050000    21.594699860    21.799566269     7.382379532   0   0   0 # obsk
   1808      1   4 -0.950000    19.217679977    20.339323044     7.382379532   0   0   0 # ohk
   1809      1   1  1.575000    20.832588196    26.229864120     5.875979424   0   0   0 # feok
   1810      1   2  0.425000    22.437419891    23.782245636     5.875979424   0   0   0 # hoy
   1811      1   3 -1.050000    19.304698944    22.810731888     5.875979424   0   0   0 # obsk
   1812      1   4 -0.950000    21.507678986    24.270977020     5.875979424   0   0   0 # ohk
   1813      1   1  1.575000    22.677412033     1.446364999     8.888779640   0   0   0 # feok
   1814      1   2  0.425000    21.072580338     8.912146568     8.888779640   0   0   0 # hoy
   1815      1   3 -1.050000    19.625299454     7.940633297     8.888779640   0   0   0 # obsk
   1816      1   4 -0.950000    22.002319336     9.400876999     8.888779640   0   0   0 # ohk
   1817      1   1  1.575000    20.387411118     3.510334969    10.395179749   0   0   0 # feok
   1818      1   2  0.425000    18.782579422     5.957953453    10.395179749   0   0   0 # hoy
   1819      1   3 -1.050000    21.915300369     6.929466248    10.395179749   0   0   0 # obsk
   1820      1   4 -0.950000    19.712320328     5.469222546    10.395179749   0   0   0 # ohk
   1821      1   1  1.575000    18.542587280     8.467034340    10.395179749   0   0   0 # feok
   1822      1   2  0.425000    20.147418976     1.001253366    10.395179749   0   0   0 # hoy
   1823      1   3 -1.050000    21.594699860     1.972766519    10.395179749   0   0   0 # obsk
   1824      1   4 -0.950000    19.217679977     0.512522757    10.395179749   0   0   0 # ohk
   1825      1   1  1.575000    20.832588196     6.403064728     8.888779640   0   0   0 # feok
   1826      1   2  0.425000    22.437419891     3.955446482     8.888779640   0   0   0 # hoy
   1827      1   3 -1.050000    19.304698944     2.983933210     8.888779640   0   0   0 # obsk
   1828      1   4 -0.950000    21.507678986     4.444177151     8.888779640   0   0   0 # ohk
   1829      1   1  1.575000    22.677412033    11.359765053     8.888779640   0   0   0 # feok
   1830      1   2  0.425000    21.072580338    18.825546265     8.888779640   0   0   0 # hoy
   1831      1   3 -1.050000    19.625299454    17.854032516     8.888779640   0   0   0 # obsk
   1832      1   4 -0.950000    22.002319336    19.314275742     8.888779640   0   0   0 # ohk
   1833      1   1  1.575000    20.387411118    13.423734665    10.395179749   0   0   0 # feok
   1834      1   2  0.425000    18.782579422    15.871353149    10.395179749   0   0   0 # hoy
   1835      1   3 -1.050000    21.915300369    16.842866898    10.395179749   0   0   0 # obsk
   1836      1   4 -0.950000    19.712320328    15.382622719    10.395179749   0   0   0 # ohk
   1837      1   1  1.575000    18.542587280    18.380434036    10.395179749   0   0   0 # feok
   1838      1   2  0.425000    20.147418976    10.914652824    10.395179749   0   0   0 # hoy
   1839      1   3 -1.050000    21.594699860    11.886166573    10.395179749   0   0   0 # obsk
   1840      1   4 -0.950000    19.217679977    10.425922394    10.395179749   0   0   0 # ohk
   1841      1   1  1.575000    20.832588196    16.316465378     8.888779640   0   0   0 # feok
   1842      1   2  0.425000    22.437419891    13.868845940     8.888779640   0   0   0 # hoy
   1843      1   3 -1.050000    19.304698944    12.897333145     8.888779640   0   0   0 # obsk
   1844      1   4 -0.950000    21.507678986    14.357576370     8.888779640   0   0   0 # ohk
   1845      1   1  1.575000    22.677412033    21.273164749     8.888779640   0   0   0 # feok
   1846      1   2  0.425000    21.072580338    28.738945007     8.888779640   0   0   0 # hoy
   1847      1   3 -1.050000    19.625299454    27.767433167     8.888779640   0   0   0 # obsk
   1848      1   4 -0.950000    22.002319336    29.227676392     8.888779640   0   0   0 # ohk
   1849      1   1  1.575000    20.387411118    23.337133408    10.395179749   0   0   0 # feok
   1850      1   2  0.425000    18.782579422    25.784751892    10.395179749   0   0   0 # hoy
   1851      1   3 -1.050000    21.915300369    26.756265640    10.395179749   0   0   0 # obsk
   1852      1   4 -0.950000    19.712320328    25.296022415    10.395179749   0   0   0 # ohk
   1853      1   1  1.575000    18.542587280    28.293834686    10.395179749   0   0   0 # feok
   1854      1   2  0.425000    20.147418976    20.828052521    10.395179749   0   0   0 # hoy
   1855      1   3 -1.050000    21.594699860    21.799566269    10.395179749   0   0   0 # obsk
   1856      1   4 -0.950000    19.217679977    20.339323044    10.395179749   0   0   0 # ohk
   1857      1   1  1.575000    20.832588196    26.229864120     8.888779640   0   0   0 # feok
   1858      1   2  0.425000    22.437419891    23.782245636     8.888779640   0   0   0 # hoy
   1859      1   3 -1.050000    19.304698944    22.810731888     8.888779640   0   0   0 # obsk
   1860      1   4 -0.950000    21.507678986    24.270977020     8.888779640   0   0   0 # ohk
   1861      1   1  1.575000    22.677412033     1.446364999    11.901579857   0   0   0 # feok
   1862      1   2  0.425000    21.072580338     8.912146568    11.901579857   0   0   0 # hoy
   1863      1   3 -1.050000    19.625299454     7.940633297    11.901579857   0   0   0 # obsk
   1864      1   4 -0.950000    22.002319336     9.400876999    11.901579857   0   0   0 # ohk
   1865      1   1  1.575000    20.387411118     3.510334969    13.407979965   0   0   0 # feok
   1866      1   2  0.425000    18.782579422     5.957953453    13.407979965   0   0   0 # hoy
   1867      1   3 -1.050000    21.915300369     6.929466248    13.407979965   0   0   0 # obsk
   1868      1   4 -0.950000    19.712320328     5.469222546    13.407979965   0   0   0 # ohk
   1869      1   1  1.575000    18.542587280     8.467034340    13.407979965   0   0   0 # feok
   1870      1   2  0.425000    20.147418976     1.001253366    13.407979965   0   0   0 # hoy
   1871      1   3 -1.050000    21.594699860     1.972766519    13.407979965   0   0   0 # obsk
   1872      1   4 -0.950000    19.217679977     0.512522757    13.407979965   0   0   0 # ohk
   1873      1   1  1.575000    20.832588196     6.403064728    11.901579857   0   0   0 # feok
   1874      1   2  0.425000    22.437419891     3.955446482    11.901579857   0   0   0 # hoy
   1875      1   3 -1.050000    19.304698944     2.983933210    11.901579857   0   0   0 # obsk
   1876      1   4 -0.950000    21.507678986     4.444177151    11.901579857   0   0   0 # ohk
   1877      1   1  1.575000    22.677412033    11.359765053    11.901579857   0   0   0 # feok
   1878      1   2  0.425000    21.072580338    18.825546265    11.901579857   0   0   0 # hoy
   1879      1   3 -1.050000    19.625299454    17.854032516    11.901579857   0   0   0 # obsk
   1880      1   4 -0.950000    22.002319336    19.314275742    11.901579857   0   0   0 # ohk
   1881      1   1  1.575000    20.387411118    13.423734665    13.407979965   0   0   0 # feok
   1882      1   2  0.425000    18.782579422    15.871353149    13.407979965   0   0   0 # hoy
   1883      1   3 -1.050000    21.915300369    16.842866898    13.407979965   0   0   0 # obsk
   1884      1   4 -0.950000    19.712320328    15.382622719    13.407979965   0   0   0 # ohk
   1885      1   1  1.575000    18.542587280    18.380434036    13.407979965   0   0   0 # feok
   1886      1   2  0.425000    20.147418976    10.914652824    13.407979965   0   0   0 # hoy
   1887      1   3 -1.050000    21.594699860    11.886166573    13.407979965   0   0   0 # obsk
   1888      1   4 -0.950000    19.217679977    10.425922394    13.407979965   0   0   0 # ohk
   1889      1   1  1.575000    20.832588196    16.316465378    11.901579857   0   0   0 # feok
   1890      1   2  0.425000    22.437419891    13.868845940    11.901579857   0   0   0 # hoy
   1891      1   3 -1.050000    19.304698944    12.897333145    11.901579857   0   0   0 # obsk
   1892      1   4 -0.950000    21.507678986    14.357576370    11.901579857   0   0   0 # ohk
   1893      1   1  1.575000    22.677412033    21.273164749    11.901579857   0   0   0 # feok
   1894      1   2  0.425000    21.072580338    28.738945007    11.901579857   0   0   0 # hoy
   1895      1   3 -1.050000    19.625299454    27.767433167    11.901579857   0   0   0 # obsk
   1896      1   4 -0.950000    22.002319336    29.227676392    11.901579857   0   0   0 # ohk
   1897      1   1  1.575000    20.387411118    23.337133408    13.407979965   0   0   0 # feok
   1898      1   2  0.425000    18.782579422    25.784751892    13.407979965   0   0   0 # hoy
   1899      1   3 -1.050000    21.915300369    26.756265640    13.407979965   0   0   0 # obsk
   1900      1   4 -0.950000    19.712320328    25.296022415    13.407979965   0   0   0 # ohk
   1901      1   1  1.575000    18.542587280    28.293834686    13.407979965   0   0   0 # feok
   1902      1   2  0.425000    20.147418976    20.828052521    13.407979965   0   0   0 # hoy
   1903      1   3 -1.050000    21.594699860    21.799566269    13.407979965   0   0   0 # obsk
   1904      1   4 -0.950000    19.217679977    20.339323044    13.407979965   0   0   0 # ohk
   1905      1   1  1.575000    20.832588196    26.229864120    11.901579857   0   0   0 # feok
   1906      1   2  0.425000    22.437419891    23.782245636    11.901579857   0   0   0 # hoy
   1907      1   3 -1.050000    19.304698944    22.810731888    11.901579857   0   0   0 # obsk
   1908      1   4 -0.950000    21.507678986    24.270977020    11.901579857   0   0   0 # ohk
   1909      1   1  1.575000    22.677412033     1.446364999    14.914379120   0   0   0 # feok
   1910      1   2  0.425000    21.072580338     8.912146568    14.914379120   0   0   0 # hoy
   1911      1   3 -1.050000    19.625299454     7.940633297    14.914379120   0   0   0 # obsk
   1912      1   4 -0.950000    22.002319336     9.400876999    14.914379120   0   0   0 # ohk
   1913      1   1  1.575000    20.387411118     3.510334969    16.420780182   0   0   0 # feok
   1914      1   2  0.425000    18.782579422     5.957953453    16.420780182   0   0   0 # hoy
   1915      1   3 -1.050000    21.915300369     6.929466248    16.420780182   0   0   0 # obsk
   1916      1   4 -0.950000    19.712320328     5.469222546    16.420780182   0   0   0 # ohk
   1917      1   1  1.575000    18.542587280     8.467034340    16.420780182   0   0   0 # feok
   1918      1   2  0.425000    20.147418976     1.001253366    16.420780182   0   0   0 # hoy
   1919      1   3 -1.050000    21.594699860     1.972766519    16.420780182   0   0   0 # obsk
   1920      1   4 -0.950000    19.217679977     0.512522757    16.420780182   0   0   0 # ohk
   1921      1   1  1.575000    20.832588196     6.403064728    14.914379120   0   0   0 # feok
   1922      1   2  0.425000    22.437419891     3.955446482    14.914379120   0   0   0 # hoy
   1923      1   3 -1.050000    19.304698944     2.983933210    14.914379120   0   0   0 # obsk
   1924      1   4 -0.950000    21.507678986     4.444177151    14.914379120   0   0   0 # ohk
   1925      1   1  1.575000    22.677412033    11.359765053    14.914379120   0   0   0 # feok
   1926      1   2  0.425000    21.072580338    18.825546265    14.914379120   0   0   0 # hoy
   1927      1   3 -1.050000    19.625299454    17.854032516    14.914379120   0   0   0 # obsk
   1928      1   4 -0.950000    22.002319336    19.314275742    14.914379120   0   0   0 # ohk
   1929      1   1  1.575000    20.387411118    13.423734665    16.420780182   0   0   0 # feok
   1930      1   2  0.425000    18.782579422    15.871353149    16.420780182   0   0   0 # hoy
   1931      1   3 -1.050000    21.915300369    16.842866898    16.420780182   0   0   0 # obsk
   1932      1   4 -0.950000    19.712320328    15.382622719    16.420780182   0   0   0 # ohk
   1933      1   1  1.575000    18.542587280    18.380434036    16.420780182   0   0   0 # feok
   1934      1   2  0.425000    20.147418976    10.914652824    16.420780182   0   0   0 # hoy
   1935      1   3 -1.050000    21.594699860    11.886166573    16.420780182   0   0   0 # obsk
   1936      1   4 -0.950000    19.217679977    10.425922394    16.420780182   0   0   0 # ohk
   1937      1   1  1.575000    20.832588196    16.316465378    14.914379120   0   0   0 # feok
   1938      1   2  0.425000    22.437419891    13.868845940    14.914379120   0   0   0 # hoy
   1939      1   3 -1.050000    19.304698944    12.897333145    14.914379120   0   0   0 # obsk
   1940      1   4 -0.950000    21.507678986    14.357576370    14.914379120   0   0   0 # ohk
   1941      1   1  1.575000    22.677412033    21.273164749    14.914379120   0   0   0 # feok
   1942      1   2  0.425000    21.072580338    28.738945007    14.914379120   0   0   0 # hoy
   1943      1   3 -1.050000    19.625299454    27.767433167    14.914379120   0   0   0 # obsk
   1944      1   4 -0.950000    22.002319336    29.227676392    14.914379120   0   0   0 # ohk
   1945      1   1  1.575000    20.387411118    23.337133408    16.420780182   0   0   0 # feok
   1946      1   2  0.425000    18.782579422    25.784751892    16.420780182   0   0   0 # hoy
   1947      1   3 -1.050000    21.915300369    26.756265640    16.420780182   0   0   0 # obsk
   1948      1   4 -0.950000    19.712320328    25.296022415    16.420780182   0   0   0 # ohk
   1949      1   1  1.575000    18.542587280    28.293834686    16.420780182   0   0   0 # feok
   1950      1   2  0.425000    20.147418976    20.828052521    16.420780182   0   0   0 # hoy
   1951      1   3 -1.050000    21.594699860    21.799566269    16.420780182   0   0   0 # obsk
   1952      1   4 -0.950000    19.217679977    20.339323044    16.420780182   0   0   0 # ohk
   1953      1   1  1.575000    20.832588196    26.229864120    14.914379120   0   0   0 # feok
   1954      1   2  0.425000    22.437419891    23.782245636    14.914379120   0   0   0 # hoy
   1955      1   3 -1.050000    19.304698944    22.810731888    14.914379120   0   0   0 # obsk
   1956      1   4 -0.950000    21.507678986    24.270977020    14.914379120   0   0   0 # ohk
   1957      1   1  1.575000    22.677412033     1.446364999    17.927179337   0   0   0 # feok
   1958      1   2  0.425000    21.072580338     8.912146568    17.927179337   0   0   0 # hoy
   1959      1   3 -1.050000    19.625299454     7.940633297    17.927179337   0   0   0 # obsk
   1960      1   4 -0.950000    22.002319336     9.400876999    17.927179337   0   0   0 # ohk
   1961      1   1  1.575000    20.387411118     3.510334969    19.433580399   0   0   0 # feok
   1962      1   2  0.425000    18.782579422     5.957953453    19.433580399   0   0   0 # hoy
   1963      1   3 -1.050000    21.915300369     6.929466248    19.433580399   0   0   0 # obsk
   1964      1   4 -0.950000    19.712320328     5.469222546    19.433580399   0   0   0 # ohk
   1965      1   1  1.575000    18.542587280     8.467034340    19.433580399   0   0   0 # feok
   1966      1   2  0.425000    20.147418976     1.001253366    19.433580399   0   0   0 # hoy
   1967      1   3 -1.050000    21.594699860     1.972766519    19.433580399   0   0   0 # obsk
   1968      1   4 -0.950000    19.217679977     0.512522757    19.433580399   0   0   0 # ohk
   1969      1   1  1.575000    20.832588196     6.403064728    17.927179337   0   0   0 # feok
   1970      1   2  0.425000    22.437419891     3.955446482    17.927179337   0   0   0 # hoy
   1971      1   3 -1.050000    19.304698944     2.983933210    17.927179337   0   0   0 # obsk
   1972      1   4 -0.950000    21.507678986     4.444177151    17.927179337   0   0   0 # ohk
   1973      1   1  1.575000    22.677412033    11.359765053    17.927179337   0   0   0 # feok
   1974      1   2  0.425000    21.072580338    18.825546265    17.927179337   0   0   0 # hoy
   1975      1   3 -1.050000    19.625299454    17.854032516    17.927179337   0   0   0 # obsk
   1976      1   4 -0.950000    22.002319336    19.314275742    17.927179337   0   0   0 # ohk
   1977      1   1  1.575000    20.387411118    13.423734665    19.433580399   0   0   0 # feok
   1978      1   2  0.425000    18.782579422    15.871353149    19.433580399   0   0   0 # hoy
   1979      1   3 -1.050000    21.915300369    16.842866898    19.433580399   0   0   0 # obsk
   1980      1   4 -0.950000    19.712320328    15.382622719    19.433580399   0   0   0 # ohk
   1981      1   1  1.575000    18.542587280    18.380434036    19.433580399   0   0   0 # feok
   1982      1   2  0.425000    20.147418976    10.914652824    19.433580399   0   0   0 # hoy
   1983      1   3 -1.050000    21.594699860    11.886166573    19.433580399   0   0   0 # obsk
   1984      1   4 -0.950000    19.217679977    10.425922394    19.433580399   0   0   0 # ohk
   1985      1   1  1.575000    20.832588196    16.316465378    17.927179337   0   0   0 # feok
   1986      1   2  0.425000    22.437419891    13.868845940    17.927179337   0   0   0 # hoy
   1987      1   3 -1.050000    19.304698944    12.897333145    17.927179337   0   0   0 # obsk
   1988      1   4 -0.950000    21.507678986    14.357576370    17.927179337   0   0   0 # ohk
   1989      1   1  1.575000    22.677412033    21.273164749    17.927179337   0   0   0 # feok
   1990      1   2  0.425000    21.072580338    28.738945007    17.927179337   0   0   0 # hoy
   1991      1   3 -1.050000    19.625299454    27.767433167    17.927179337   0   0   0 # obsk
   1992      1   4 -0.950000    22.002319336    29.227676392    17.927179337   0   0   0 # ohk
   1993      1   1  1.575000    20.387411118    23.337133408    19.433580399   0   0   0 # feok
   1994      1   2  0.425000    18.782579422    25.784751892    19.433580399   0   0   0 # hoy
   1995      1   3 -1.050000    21.915300369    26.756265640    19.433580399   0   0   0 # obsk
   1996      1   4 -0.950000    19.712320328    25.296022415    19.433580399   0   0   0 # ohk
   1997      1   1  1.575000    18.542587280    28.293834686    19.433580399   0   0   0 # feok
   1998      1   2  0.425000    20.147418976    20.828052521    19.433580399   0   0   0 # hoy
   1999      1   3 -1.050000    21.594699860    21.799566269    19.433580399   0   0   0 # obsk
   2000      1   4 -0.950000    19.217679977    20.339323044    19.433580399   0   0   0 # ohk
   2001      1   1  1.575000    20.832588196    26.229864120    17.927179337   0   0   0 # feok
   2002      1   2  0.425000    22.437419891    23.782245636    17.927179337   0   0   0 # hoy
   2003      1   3 -1.050000    19.304698944    22.810731888    17.927179337   0   0   0 # obsk
   2004      1   4 -0.950000    21.507678986    24.270977020    17.927179337   0   0   0 # ohk
   2005      1   1  1.575000    22.677412033     1.446364999    20.939979553   0   0   0 # feok
   2006      1   2  0.425000    21.072580338     8.912146568    20.939979553   0   0   0 # hoy
   2007      1   3 -1.050000    19.625299454     7.940633297    20.939979553   0   0   0 # obsk
   2008      1   4 -0.950000    22.002319336     9.400876999    20.939979553   0   0   0 # ohk
   2009      1   1  1.575000    20.387411118     3.510334969    22.446378708   0   0   0 # feok
   2010      1   2  0.425000    18.782579422     5.957953453    22.446378708   0   0   0 # hoy
   2011      1   3 -1.050000    21.915300369     6.929466248    22.446378708   0   0   0 # obsk
   2012      1   4 -0.950000    19.712320328     5.469222546    22.446378708   0   0   0 # ohk
   2013      1   1  1.575000    18.542587280     8.467034340    22.446378708   0   0   0 # feok
   2014      1   2  0.425000    20.147418976     1.001253366    22.446378708   0   0   0 # hoy
   2015      1   3 -1.050000    21.594699860     1.972766519    22.446378708   0   0   0 # obsk
   2016      1   4 -0.950000    19.217679977     0.512522757    22.446378708   0   0   0 # ohk
   2017      1   1  1.575000    20.832588196     6.403064728    20.939979553   0   0   0 # feok
   2018      1   2  0.425000    22.437419891     3.955446482    20.939979553   0   0   0 # hoy
   2019      1   3 -1.050000    19.304698944     2.983933210    20.939979553   0   0   0 # obsk
   2020      1   4 -0.950000    21.507678986     4.444177151    20.939979553   0   0   0 # ohk
   2021      1   1  1.575000    22.677412033    11.359765053    20.939979553   0   0   0 # feok
   2022      1   2  0.425000    21.072580338    18.825546265    20.939979553   0   0   0 # hoy
   2023      1   3 -1.050000    19.625299454    17.854032516    20.939979553   0   0   0 # obsk
   2024      1   4 -0.950000    22.002319336    19.314275742    20.939979553   0   0   0 # ohk
   2025      1   1  1.575000    20.387411118    13.423734665    22.446378708   0   0   0 # feok
   2026      1   2  0.425000    18.782579422    15.871353149    22.446378708   0   0   0 # hoy
   2027      1   3 -1.050000    21.915300369    16.842866898    22.446378708   0   0   0 # obsk
   2028      1   4 -0.950000    19.712320328    15.382622719    22.446378708   0   0   0 # ohk
   2029      1   1  1.575000    18.542587280    18.380434036    22.446378708   0   0   0 # feok
   2030      1   2  0.425000    20.147418976    10.914652824    22.446378708   0   0   0 # hoy
   2031      1   3 -1.050000    21.594699860    11.886166573    22.446378708   0   0   0 # obsk
   2032      1   4 -0.950000    19.217679977    10.425922394    22.446378708   0   0   0 # ohk
   2033      1   1  1.575000    20.832588196    16.316465378    20.939979553   0   0   0 # feok
   2034      1   2  0.425000    22.437419891    13.868845940    20.939979553   0   0   0 # hoy
   2035      1   3 -1.050000    19.304698944    12.897333145    20.939979553   0   0   0 # obsk
   2036      1   4 -0.950000    21.507678986    14.357576370    20.939979553   0   0   0 # ohk
   2037      1   1  1.575000    22.677412033    21.273164749    20.939979553   0   0   0 # feok
   2038      1   2  0.425000    21.072580338    28.738945007    20.939979553   0   0   0 # hoy
   2039      1   3 -1.050000    19.625299454    27.767433167    20.939979553   0   0   0 # obsk
   2040      1   4 -0.950000    22.002319336    29.227676392    20.939979553   0   0   0 # ohk
   2041      1   1  1.575000    20.387411118    23.337133408    22.446378708   0   0   0 # feok
   2042      1   2  0.425000    18.782579422    25.784751892    22.446378708   0   0   0 # hoy
   2043      1   3 -1.050000    21.915300369    26.756265640    22.446378708   0   0   0 # obsk
   2044      1   4 -0.950000    19.712320328    25.296022415    22.446378708   0   0   0 # ohk
   2045      1   1  1.575000    18.542587280    28.293834686    22.446378708   0   0   0 # feok
   2046      1   2  0.425000    20.147418976    20.828052521    22.446378708   0   0   0 # hoy
   2047      1   3 -1.050000    21.594699860    21.799566269    22.446378708   0   0   0 # obsk
   2048      1   4 -0.950000    19.217679977    20.339323044    22.446378708   0   0   0 # ohk
   2049      1   1  1.575000    20.832588196    26.229864120    20.939979553   0   0   0 # feok
   2050      1   2  0.425000    22.437419891    23.782245636    20.939979553   0   0   0 # hoy
   2051      1   3 -1.050000    19.304698944    22.810731888    20.939979553   0   0   0 # obsk
   2052      1   4 -0.950000    21.507678986    24.270977020    20.939979553   0   0   0 # ohk
   2053      1   1  1.575000    22.677412033     1.446364999    23.952779770   0   0   0 # feok
   2054      1   2  0.425000    21.072580338     8.912146568    23.952779770   0   0   0 # hoy
   2055      1   3 -1.050000    19.625299454     7.940633297    23.952779770   0   0   0 # obsk
   2056      1   4 -0.950000    22.002319336     9.400876999    23.952779770   0   0   0 # ohk
   2057      1   1  1.575000    20.387411118     3.510334969    25.459178925   0   0   0 # feok
   2058      1   2  0.425000    18.782579422     5.957953453    25.459178925   0   0   0 # hoy
   2059      1   3 -1.050000    21.915300369     6.929466248    25.459178925   0   0   0 # obsk
   2060      1   4 -0.950000    19.712320328     5.469222546    25.459178925   0   0   0 # ohk
   2061      1   1  1.575000    18.542587280     8.467034340    25.459178925   0   0   0 # feok
   2062      1   2  0.425000    20.147418976     1.001253366    25.459178925   0   0   0 # hoy
   2063      1   3 -1.050000    21.594699860     1.972766519    25.459178925   0   0   0 # obsk
   2064      1   4 -0.950000    19.217679977     0.512522757    25.459178925   0   0   0 # ohk
   2065      1   1  1.575000    20.832588196     6.403064728    23.952779770   0   0   0 # feok
   2066      1   2  0.425000    22.437419891     3.955446482    23.952779770   0   0   0 # hoy
   2067      1   3 -1.050000    19.304698944     2.983933210    23.952779770   0   0   0 # obsk
   2068      1   4 -0.950000    21.507678986     4.444177151    23.952779770   0   0   0 # ohk
   2069      1   1  1.575000    22.677412033    11.359765053    23.952779770   0   0   0 # feok
   2070      1   2  0.425000    21.072580338    18.825546265    23.952779770   0   0   0 # hoy
   2071      1   3 -1.050000    19.625299454    17.854032516    23.952779770   0   0   0 # obsk
   2072      1   4 -0.950000    22.002319336    19.314275742    23.952779770   0   0   0 # ohk
   2073      1   1  1.575000    20.387411118    13.423734665    25.459178925   0   0   0 # feok
   2074      1   2  0.425000    18.782579422    15.871353149    25.459178925   0   0   0 # hoy
   2075      1   3 -1.050000    21.915300369    16.842866898    25.459178925   0   0   0 # obsk
   2076      1   4 -0.950000    19.712320328    15.382622719    25.459178925   0   0   0 # ohk
   2077      1   1  1.575000    18.542587280    18.380434036    25.459178925   0   0   0 # feok
   2078      1   2  0.425000    20.147418976    10.914652824    25.459178925   0   0   0 # hoy
   2079      1   3 -1.050000    21.594699860    11.886166573    25.459178925   0   0   0 # obsk
   2080      1   4 -0.950000    19.217679977    10.425922394    25.459178925   0   0   0 # ohk
   2081      1   1  1.575000    20.832588196    16.316465378    23.952779770   0   0   0 # feok
   2082      1   2  0.425000    22.437419891    13.868845940    23.952779770   0   0   0 # hoy
   2083      1   3 -1.050000    19.304698944    12.897333145    23.952779770   0   0   0 # obsk
   2084      1   4 -0.950000    21.507678986    14.357576370    23.952779770   0   0   0 # ohk
   2085      1   1  1.575000    22.677412033    21.273164749    23.952779770   0   0   0 # feok
   2086      1   2  0.425000    21.072580338    28.738945007    23.952779770   0   0   0 # hoy
   2087      1   3 -1.050000    19.625299454    27.767433167    23.952779770   0   0   0 # obsk
   2088      1   4 -0.950000    22.002319336    29.227676392    23.952779770   0   0   0 # ohk
   2089      1   1  1.575000    20.387411118    23.337133408    25.459178925   0   0   0 # feok
   2090      1   2  0.425000    18.782579422    25.784751892    25.459178925   0   0   0 # hoy
   2091      1   3 -1.050000    21.915300369    26.756265640    25.459178925   0   0   0 # obsk
   2092      1   4 -0.950000    19.712320328    25.296022415    25.459178925   0   0   0 # ohk
   2093      1   1  1.575000    18.542587280    28.293834686    25.459178925   0   0   0 # feok
   2094      1   2  0.425000    20.147418976    20.828052521    25.459178925   0   0   0 # hoy
   2095      1   3 -1.050000    21.594699860    21.799566269    25.459178925   0   0   0 # obsk
   2096      1   4 -0.950000    19.217679977    20.339323044    25.459178925   0   0   0 # ohk
   2097      1   1  1.575000    20.832588196    26.229864120    23.952779770   0   0   0 # feok
   2098      1   2  0.425000    22.437419891    23.782245636    23.952779770   0   0   0 # hoy
   2099      1   3 -1.050000    19.304698944    22.810731888    23.952779770   0   0   0 # obsk
   2100      1   4 -0.950000    21.507678986    24.270977020    23.952779770   0   0   0 # ohk
   2101      1   1  1.575000    22.677412033     1.446364999    26.965579987   0   0   0 # feok
   2102      1   2  0.425000    21.072580338     8.912146568    26.965579987   0   0   0 # hoy
   2103      1   3 -1.050000    19.625299454     7.940633297    26.965579987   0   0   0 # obsk
   2104      1   4 -0.950000    22.002319336     9.400876999    26.965579987   0   0   0 # ohk
   2105      1   2  0.425000    18.782579422     5.957953453    28.471979141   0   0   0 # hoy
   2106      1   3 -1.050000    21.915300369     6.929466248    28.471979141   0   0   0 # obsk
   2107      1   4 -0.950000    19.712320328     5.469222546    28.471979141   0   0   0 # ohk
   2108      1   1  1.575000    18.542587280     8.467034340    28.471979141   0   0   0 # feok
   2109      1   2  0.425000    20.147418976     1.001253366    28.471979141   0   0   0 # hoy
   2110      1   3 -1.050000    21.594699860     1.972766519    28.471979141   0   0   0 # obsk
   2111      1   4 -0.950000    19.217679977     0.512522757    28.471979141   0   0   0 # ohk
   2112      1   1  1.575000    20.832588196     6.403064728    26.965579987   0   0   0 # feok
   2113      1   2  0.425000    22.437419891     3.955446482    26.965579987   0   0   0 # hoy
   2114      1   3 -1.050000    19.304698944     2.983933210    26.965579987   0   0   0 # obsk
   2115      1   4 -0.950000    21.507678986     4.444177151    26.965579987   0   0   0 # ohk
   2116      1   1  1.575000    22.677412033    11.359765053    26.965579987   0   0   0 # feok
   2117      1   2  0.425000    21.072580338    18.825546265    26.965579987   0   0   0 # hoy
   2118      1   3 -1.050000    19.625299454    17.854032516    26.965579987   0   0   0 # obsk
   2119      1   4 -0.950000    22.002319336    19.314275742    26.965579987   0   0   0 # ohk
   2120      1   2  0.425000    18.782579422    15.871353149    28.471979141   0   0   0 # hoy
   2121      1   3 -1.050000    21.915300369    16.842866898    28.471979141   0   0   0 # obsk
   2122      1   4 -0.950000    19.712320328    15.382622719    28.471979141   0   0   0 # ohk
   2123      1   1  1.575000    18.542587280    18.380434036    28.471979141   0   0   0 # feok
   2124      1   2  0.425000    20.147418976    10.914652824    28.471979141   0   0   0 # hoy
   2125      1   3 -1.050000    21.594699860    11.886166573    28.471979141   0   0   0 # obsk
   2126      1   4 -0.950000    19.217679977    10.425922394    28.471979141   0   0   0 # ohk
   2127      1   1  1.575000    20.832588196    16.316465378    26.965579987   0   0   0 # feok
   2128      1   2  0.425000    22.437419891    13.868845940    26.965579987   0   0   0 # hoy
   2129      1   3 -1.050000    19.304698944    12.897333145    26.965579987   0   0   0 # obsk
   2130      1   4 -0.950000    21.507678986    14.357576370    26.965579987   0   0   0 # ohk
   2131      1   1  1.575000    22.677412033    21.273164749    26.965579987   0   0   0 # feok
   2132      1   2  0.425000    21.072580338    28.738945007    26.965579987   0   0   0 # hoy
   2133      1   3 -1.050000    19.625299454    27.767433167    26.965579987   0   0   0 # obsk
   2134      1   4 -0.950000    22.002319336    29.227676392    26.965579987   0   0   0 # ohk
   2135      1   2  0.425000    18.782579422    25.784751892    28.471979141   0   0   0 # hoy
   2136      1   3 -1.050000    21.915300369    26.756265640    28.471979141   0   0   0 # obsk
   2137      1   4 -0.950000    19.712320328    25.296022415    28.471979141   0   0   0 # ohk
   2138      1   1  1.575000    18.542587280    28.293834686    28.471979141   0   0   0 # feok
   2139      1   2  0.425000    20.147418976    20.828052521    28.471979141   0   0   0 # hoy
   2140      1   3 -1.050000    21.594699860    21.799566269    28.471979141   0   0   0 # obsk
   2141      1   4 -0.950000    19.217679977    20.339323044    28.471979141   0   0   0 # ohk
   2142      1   1  1.575000    20.832588196    26.229864120    26.965579987   0   0   0 # feok
   2143      1   2  0.425000    22.437419891    23.782245636    26.965579987   0   0   0 # hoy
   2144      1   3 -1.050000    19.304698944    22.810731888    26.965579987   0   0   0 # obsk
   2145      1   4 -0.950000    21.507678986    24.270977020    26.965579987   0   0   0 # ohk
   2146      1   1  1.575000    27.257411957     1.446364999     2.863179684   0   0   0 # feok
   2147      1   2  0.425000    25.652580261     8.912146568     2.863179684   0   0   0 # hoy
   2148      1   3 -1.050000    24.205299377     7.940633297     2.863179684   0   0   0 # obsk
   2149      1   4 -0.950000    26.582319260     9.400876999     2.863179684   0   0   0 # ohk
   2150      1   1  1.575000    24.967411041     3.510334969     4.369579792   0   0   0 # feok
   2151      1   2  0.425000    23.362579346     5.957953453     4.369579792   0   0   0 # hoy
   2152      1   3 -1.050000    26.495300293     6.929466248     4.369579792   0   0   0 # obsk
   2153      1   4 -0.950000    24.292320251     5.469222546     4.369579792   0   0   0 # ohk
   2154      1   1  1.575000    23.122587204     8.467034340     4.369579792   0   0   0 # feok
   2155      1   2  0.425000    24.727418900     1.001253366     4.369579792   0   0   0 # hoy
   2156      1   3 -1.050000    26.174699783     1.972766519     4.369579792   0   0   0 # obsk
   2157      1   4 -0.950000    23.797679901     0.512522757     4.369579792   0   0   0 # ohk
   2158      1   1  1.575000    25.412588120     6.403064728     2.863179684   0   0   0 # feok
   2159      1   2  0.425000    27.017419815     3.955446482     2.863179684   0   0   0 # hoy
   2160      1   3 -1.050000    23.884698868     2.983933210     2.863179684   0   0   0 # obsk
   2161      1   4 -0.950000    26.087678909     4.444177151     2.863179684   0   0   0 # ohk
   2162      1   1  1.575000    27.257411957    11.359765053     2.863179684   0   0   0 # feok
   2163      1   2  0.425000    25.652580261    18.825546265     2.863179684   0   0   0 # hoy
   2164      1   3 -1.050000    24.205299377    17.854032516     2.863179684   0   0   0 # obsk
   2165      1   4 -0.950000    26.582319260    19.314275742     2.863179684   0   0   0 # ohk
   2166      1   1  1.575000    24.967411041    13.423734665     4.369579792   0   0   0 # feok
   2167      1   2  0.425000    23.362579346    15.871353149     4.369579792   0   0   0 # hoy
   2168      1   3 -1.050000    26.495300293    16.842866898     4.369579792   0   0   0 # obsk
   2169      1   4 -0.950000    24.292320251    15.382622719     4.369579792   0   0   0 # ohk
   2170      1   1  1.575000    23.122587204    18.380434036     4.369579792   0   0   0 # feok
   2171      1   2  0.425000    24.727418900    10.914652824     4.369579792   0   0   0 # hoy
   2172      1   3 -1.050000    26.174699783    11.886166573     4.369579792   0   0   0 # obsk
   2173      1   4 -0.950000    23.797679901    10.425922394     4.369579792   0   0   0 # ohk
   2174      1   1  1.575000    25.412588120    16.316465378     2.863179684   0   0   0 # feok
   2175      1   2  0.425000    27.017419815    13.868845940     2.863179684   0   0   0 # hoy
   2176      1   3 -1.050000    23.884698868    12.897333145     2.863179684   0   0   0 # obsk
   2177      1   4 -0.950000    26.087678909    14.357576370     2.863179684   0   0   0 # ohk
   2178      1   1  1.575000    27.257411957    21.273164749     2.863179684   0   0   0 # feok
   2179      1   2  0.425000    25.652580261    28.738945007     2.863179684   0   0   0 # hoy
   2180      1   3 -1.050000    24.205299377    27.767433167     2.863179684   0   0   0 # obsk
   2181      1   4 -0.950000    26.582319260    29.227676392     2.863179684   0   0   0 # ohk
   2182      1   1  1.575000    24.967411041    23.337133408     4.369579792   0   0   0 # feok
   2183      1   2  0.425000    23.362579346    25.784751892     4.369579792   0   0   0 # hoy
   2184      1   3 -1.050000    26.495300293    26.756265640     4.369579792   0   0   0 # obsk
   2185      1   4 -0.950000    24.292320251    25.296022415     4.369579792   0   0   0 # ohk
   2186      1   1  1.575000    23.122587204    28.293834686     4.369579792   0   0   0 # feok
   2187      1   2  0.425000    24.727418900    20.828052521     4.369579792   0   0   0 # hoy
   2188      1   3 -1.050000    26.174699783    21.799566269     4.369579792   0   0   0 # obsk
   2189      1   4 -0.950000    23.797679901    20.339323044     4.369579792   0   0   0 # ohk
   2190      1   1  1.575000    25.412588120    26.229864120     2.863179684   0   0   0 # feok
   2191      1   2  0.425000    27.017419815    23.782245636     2.863179684   0   0   0 # hoy
   2192      1   3 -1.050000    23.884698868    22.810731888     2.863179684   0   0   0 # obsk
   2193      1   4 -0.950000    26.087678909    24.270977020     2.863179684   0   0   0 # ohk
   2194      1   1  1.575000    27.257411957     1.446364999     5.875979424   0   0   0 # feok
   2195      1   2  0.425000    25.652580261     8.912146568     5.875979424   0   0   0 # hoy
   2196      1   3 -1.050000    24.205299377     7.940633297     5.875979424   0   0   0 # obsk
   2197      1   4 -0.950000    26.582319260     9.400876999     5.875979424   0   0   0 # ohk
   2198      1   1  1.575000    24.967411041     3.510334969     7.382379532   0   0   0 # feok
   2199      1   2  0.425000    23.362579346     5.957953453     7.382379532   0   0   0 # hoy
   2200      1   3 -1.050000    26.495300293     6.929466248     7.382379532   0   0   0 # obsk
   2201      1   4 -0.950000    24.292320251     5.469222546     7.382379532   0   0   0 # ohk
   2202      1   1  1.575000    23.122587204     8.467034340     7.382379532   0   0   0 # feok
   2203      1   2  0.425000    24.727418900     1.001253366     7.382379532   0   0   0 # hoy
   2204      1   3 -1.050000    26.174699783     1.972766519     7.382379532   0   0   0 # obsk
   2205      1   4 -0.950000    23.797679901     0.512522757     7.382379532   0   0   0 # ohk
   2206      1   1  1.575000    25.412588120     6.403064728     5.875979424   0   0   0 # feok
   2207      1   2  0.425000    27.017419815     3.955446482     5.875979424   0   0   0 # hoy
   2208      1   3 -1.050000    23.884698868     2.983933210     5.875979424   0   0   0 # obsk
   2209      1   4 -0.950000    26.087678909     4.444177151     5.875979424   0   0   0 # ohk
   2210      1   1  1.575000    27.257411957    11.359765053     5.875979424   0   0   0 # feok
   2211      1   2  0.425000    25.652580261    18.825546265     5.875979424   0   0   0 # hoy
   2212      1   3 -1.050000    24.205299377    17.854032516     5.875979424   0   0   0 # obsk
   2213      1   4 -0.950000    26.582319260    19.314275742     5.875979424   0   0   0 # ohk
   2214      1   1  1.575000    24.967411041    13.423734665     7.382379532   0   0   0 # feok
   2215      1   2  0.425000    23.362579346    15.871353149     7.382379532   0   0   0 # hoy
   2216      1   3 -1.050000    26.495300293    16.842866898     7.382379532   0   0   0 # obsk
   2217      1   4 -0.950000    24.292320251    15.382622719     7.382379532   0   0   0 # ohk
   2218      1   1  1.575000    23.122587204    18.380434036     7.382379532   0   0   0 # feok
   2219      1   2  0.425000    24.727418900    10.914652824     7.382379532   0   0   0 # hoy
   2220      1   3 -1.050000    26.174699783    11.886166573     7.382379532   0   0   0 # obsk
   2221      1   4 -0.950000    23.797679901    10.425922394     7.382379532   0   0   0 # ohk
   2222      1   1  1.575000    25.412588120    16.316465378     5.875979424   0   0   0 # feok
   2223      1   2  0.425000    27.017419815    13.868845940     5.875979424   0   0   0 # hoy
   2224      1   3 -1.050000    23.884698868    12.897333145     5.875979424   0   0   0 # obsk
   2225      1   4 -0.950000    26.087678909    14.357576370     5.875979424   0   0   0 # ohk
   2226      1   1  1.575000    27.257411957    21.273164749     5.875979424   0   0   0 # feok
   2227      1   2  0.425000    25.652580261    28.738945007     5.875979424   0   0   0 # hoy
   2228      1   3 -1.050000    24.205299377    27.767433167     5.875979424   0   0   0 # obsk
   2229      1   4 -0.950000    26.582319260    29.227676392     5.875979424   0   0   0 # ohk
   2230      1   1  1.575000    24.967411041    23.337133408     7.382379532   0   0   0 # feok
   2231      1   2  0.425000    23.362579346    25.784751892     7.382379532   0   0   0 # hoy
   2232      1   3 -1.050000    26.495300293    26.756265640     7.382379532   0   0   0 # obsk
   2233      1   4 -0.950000    24.292320251    25.296022415     7.382379532   0   0   0 # ohk
   2234      1   1  1.575000    23.122587204    28.293834686     7.382379532   0   0   0 # feok
   2235      1   2  0.425000    24.727418900    20.828052521     7.382379532   0   0   0 # hoy
   2236      1   3 -1.050000    26.174699783    21.799566269     7.382379532   0   0   0 # obsk
   2237      1   4 -0.950000    23.797679901    20.339323044     7.382379532   0   0   0 # ohk
   2238      1   1  1.575000    25.412588120    26.229864120     5.875979424   0   0   0 # feok
   2239      1   2  0.425000    27.017419815    23.782245636     5.875979424   0   0   0 # hoy
   2240      1   3 -1.050000    23.884698868    22.810731888     5.875979424   0   0   0 # obsk
   2241      1   4 -0.950000    26.087678909    24.270977020     5.875979424   0   0   0 # ohk
   2242      1   1  1.575000    27.257411957     1.446364999     8.888779640   0   0   0 # feok
   2243      1   2  0.425000    25.652580261     8.912146568     8.888779640   0   0   0 # hoy
   2244      1   3 -1.050000    24.205299377     7.940633297     8.888779640   0   0   0 # obsk
   2245      1   4 -0.950000    26.582319260     9.400876999     8.888779640   0   0   0 # ohk
   2246      1   1  1.575000    24.967411041     3.510334969    10.395179749   0   0   0 # feok
   2247      1   2  0.425000    23.362579346     5.957953453    10.395179749   0   0   0 # hoy
   2248      1   3 -1.050000    26.495300293     6.929466248    10.395179749   0   0   0 # obsk
   2249      1   4 -0.950000    24.292320251     5.469222546    10.395179749   0   0   0 # ohk
   2250      1   1  1.575000    23.122587204     8.467034340    10.395179749   0   0   0 # feok
   2251      1   2  0.425000    24.727418900     1.001253366    10.395179749   0   0   0 # hoy
   2252      1   3 -1.050000    26.174699783     1.972766519    10.395179749   0   0   0 # obsk
   2253      1   4 -0.950000    23.797679901     0.512522757    10.395179749   0   0   0 # ohk
   2254      1   1  1.575000    25.412588120     6.403064728     8.888779640   0   0   0 # feok
   2255      1   2  0.425000    27.017419815     3.955446482     8.888779640   0   0   0 # hoy
   2256      1   3 -1.050000    23.884698868     2.983933210     8.888779640   0   0   0 # obsk
   2257      1   4 -0.950000    26.087678909     4.444177151     8.888779640   0   0   0 # ohk
   2258      1   1  1.575000    27.257411957    11.359765053     8.888779640   0   0   0 # feok
   2259      1   2  0.425000    25.652580261    18.825546265     8.888779640   0   0   0 # hoy
   2260      1   3 -1.050000    24.205299377    17.854032516     8.888779640   0   0   0 # obsk
   2261      1   4 -0.950000    26.582319260    19.314275742     8.888779640   0   0   0 # ohk
   2262      1   1  1.575000    24.967411041    13.423734665    10.395179749   0   0   0 # feok
   2263      1   2  0.425000    23.362579346    15.871353149    10.395179749   0   0   0 # hoy
   2264      1   3 -1.050000    26.495300293    16.842866898    10.395179749   0   0   0 # obsk
   2265      1   4 -0.950000    24.292320251    15.382622719    10.395179749   0   0   0 # ohk
   2266      1   1  1.575000    23.122587204    18.380434036    10.395179749   0   0   0 # feok
   2267      1   2  0.425000    24.727418900    10.914652824    10.395179749   0   0   0 # hoy
   2268      1   3 -1.050000    26.174699783    11.886166573    10.395179749   0   0   0 # obsk
   2269      1   4 -0.950000    23.797679901    10.425922394    10.395179749   0   0   0 # ohk
   2270      1   1  1.575000    25.412588120    16.316465378     8.888779640   0   0   0 # feok
   2271      1   2  0.425000    27.017419815    13.868845940     8.888779640   0   0   0 # hoy
   2272      1   3 -1.050000    23.884698868    12.897333145     8.888779640   0   0   0 # obsk
   2273      1   4 -0.950000    26.087678909    14.357576370     8.888779640   0   0   0 # ohk
   2274      1   1  1.575000    27.257411957    21.273164749     8.888779640   0   0   0 # feok
   2275      1   2  0.425000    25.652580261    28.738945007     8.888779640   0   0   0 # hoy
   2276      1   3 -1.050000    24.205299377    27.767433167     8.888779640   0   0   0 # obsk
   2277      1   4 -0.950000    26.582319260    29.227676392     8.888779640   0   0   0 # ohk
   2278      1   1  1.575000    24.967411041    23.337133408    10.395179749   0   0   0 # feok
   2279      1   2  0.425000    23.362579346    25.784751892    10.395179749   0   0   0 # hoy
   2280      1   3 -1.050000    26.495300293    26.756265640    10.395179749   0   0   0 # obsk
   2281      1   4 -0.950000    24.292320251    25.296022415    10.395179749   0   0   0 # ohk
   2282      1   1  1.575000    23.122587204    28.293834686    10.395179749   0   0   0 # feok
   2283      1   2  0.425000    24.727418900    20.828052521    10.395179749   0   0   0 # hoy
   2284      1   3 -1.050000    26.174699783    21.799566269    10.395179749   0   0   0 # obsk
   2285      1   4 -0.950000    23.797679901    20.339323044    10.395179749   0   0   0 # ohk
   2286      1   1  1.575000    25.412588120    26.229864120     8.888779640   0   0   0 # feok
   2287      1   2  0.425000    27.017419815    23.782245636     8.888779640   0   0   0 # hoy
   2288      1   3 -1.050000    23.884698868    22.810731888     8.888779640   0   0   0 # obsk
   2289      1   4 -0.950000    26.087678909    24.270977020     8.888779640   0   0   0 # ohk
   2290      1   1  1.575000    27.257411957     1.446364999    11.901579857   0   0   0 # feok
   2291      1   2  0.425000    25.652580261     8.912146568    11.901579857   0   0   0 # hoy
   2292      1   3 -1.050000    24.205299377     7.940633297    11.901579857   0   0   0 # obsk
   2293      1   4 -0.950000    26.582319260     9.400876999    11.901579857   0   0   0 # ohk
   2294      1   1  1.575000    24.967411041     3.510334969    13.407979965   0   0   0 # feok
   2295      1   2  0.425000    23.362579346     5.957953453    13.407979965   0   0   0 # hoy
   2296      1   3 -1.050000    26.495300293     6.929466248    13.407979965   0   0   0 # obsk
   2297      1   4 -0.950000    24.292320251     5.469222546    13.407979965   0   0   0 # ohk
   2298      1   1  1.575000    23.122587204     8.467034340    13.407979965   0   0   0 # feok
   2299      1   2  0.425000    24.727418900     1.001253366    13.407979965   0   0   0 # hoy
   2300      1   3 -1.050000    26.174699783     1.972766519    13.407979965   0   0   0 # obsk
   2301      1   4 -0.950000    23.797679901     0.512522757    13.407979965   0   0   0 # ohk
   2302      1   1  1.575000    25.412588120     6.403064728    11.901579857   0   0   0 # feok
   2303      1   2  0.425000    27.017419815     3.955446482    11.901579857   0   0   0 # hoy
   2304      1   3 -1.050000    23.884698868     2.983933210    11.901579857   0   0   0 # obsk
   2305      1   4 -0.950000    26.087678909     4.444177151    11.901579857   0   0   0 # ohk
   2306      1   1  1.575000    27.257411957    11.359765053    11.901579857   0   0   0 # feok
   2307      1   2  0.425000    25.652580261    18.825546265    11.901579857   0   0   0 # hoy
   2308      1   3 -1.050000    24.205299377    17.854032516    11.901579857   0   0   0 # obsk
   2309      1   4 -0.950000    26.582319260    19.314275742    11.901579857   0   0   0 # ohk
   2310      1   1  1.575000    24.967411041    13.423734665    13.407979965   0   0   0 # feok
   2311      1   2  0.425000    23.362579346    15.871353149    13.407979965   0   0   0 # hoy
   2312      1   3 -1.050000    26.495300293    16.842866898    13.407979965   0   0   0 # obsk
   2313      1   4 -0.950000    24.292320251    15.382622719    13.407979965   0   0   0 # ohk
   2314      1   1  1.575000    23.122587204    18.380434036    13.407979965   0   0   0 # feok
   2315      1   2  0.425000    24.727418900    10.914652824    13.407979965   0   0   0 # hoy
   2316      1   3 -1.050000    26.174699783    11.886166573    13.407979965   0   0   0 # obsk
   2317      1   4 -0.950000    23.797679901    10.425922394    13.407979965   0   0   0 # ohk
   2318      1   1  1.575000    25.412588120    16.316465378    11.901579857   0   0   0 # feok
   2319      1   2  0.425000    27.017419815    13.868845940    11.901579857   0   0   0 # hoy
   2320      1   3 -1.050000    23.884698868    12.897333145    11.901579857   0   0   0 # obsk
   2321      1   4 -0.950000    26.087678909    14.357576370    11.901579857   0   0   0 # ohk
   2322      1   1  1.575000    27.257411957    21.273164749    11.901579857   0   0   0 # feok
   2323      1   2  0.425000    25.652580261    28.738945007    11.901579857   0   0   0 # hoy
   2324      1   3 -1.050000    24.205299377    27.767433167    11.901579857   0   0   0 # obsk
   2325      1   4 -0.950000    26.582319260    29.227676392    11.901579857   0   0   0 # ohk
   2326      1   1  1.575000    24.967411041    23.337133408    13.407979965   0   0   0 # feok
   2327      1   2  0.425000    23.362579346    25.784751892    13.407979965   0   0   0 # hoy
   2328      1   3 -1.050000    26.495300293    26.756265640    13.407979965   0   0   0 # obsk
   2329      1   4 -0.950000    24.292320251    25.296022415    13.407979965   0   0   0 # ohk
   2330      1   1  1.575000    23.122587204    28.293834686    13.407979965   0   0   0 # feok
   2331      1   2  0.425000    24.727418900    20.828052521    13.407979965   0   0   0 # hoy
   2332      1   3 -1.050000    26.174699783    21.799566269    13.407979965   0   0   0 # obsk
   2333      1   4 -0.950000    23.797679901    20.339323044    13.407979965   0   0   0 # ohk
   2334      1   1  1.575000    25.412588120    26.229864120    11.901579857   0   0   0 # feok
   2335      1   2  0.425000    27.017419815    23.782245636    11.901579857   0   0   0 # hoy
   2336      1   3 -1.050000    23.884698868    22.810731888    11.901579857   0   0   0 # obsk
   2337      1   4 -0.950000    26.087678909    24.270977020    11.901579857   0   0   0 # ohk
   2338      1   1  1.575000    27.257411957     1.446364999    14.914379120   0   0   0 # feok
   2339      1   2  0.425000    25.652580261     8.912146568    14.914379120   0   0   0 # hoy
   2340      1   3 -1.050000    24.205299377     7.940633297    14.914379120   0   0   0 # obsk
   2341      1   4 -0.950000    26.582319260     9.400876999    14.914379120   0   0   0 # ohk
   2342      1   1  1.575000    24.967411041     3.510334969    16.420780182   0   0   0 # feok
   2343      1   2  0.425000    23.362579346     5.957953453    16.420780182   0   0   0 # hoy
   2344      1   3 -1.050000    26.495300293     6.929466248    16.420780182   0   0   0 # obsk
   2345      1   4 -0.950000    24.292320251     5.469222546    16.420780182   0   0   0 # ohk
   2346      1   1  1.575000    23.122587204     8.467034340    16.420780182   0   0   0 # feok
   2347      1   2  0.425000    24.727418900     1.001253366    16.420780182   0   0   0 # hoy
   2348      1   3 -1.050000    26.174699783     1.972766519    16.420780182   0   0   0 # obsk
   2349      1   4 -0.950000    23.797679901     0.512522757    16.420780182   0   0   0 # ohk
   2350      1   1  1.575000    25.412588120     6.403064728    14.914379120   0   0   0 # feok
   2351      1   2  0.425000    27.017419815     3.955446482    14.914379120   0   0   0 # hoy
   2352      1   3 -1.050000    23.884698868     2.983933210    14.914379120   0   0   0 # obsk
   2353      1   4 -0.950000    26.087678909     4.444177151    14.914379120   0   0   0 # ohk
   2354      1   1  1.575000    27.257411957    11.359765053    14.914379120   0   0   0 # feok
   2355      1   2  0.425000    25.652580261    18.825546265    14.914379120   0   0   0 # hoy
   2356      1   3 -1.050000    24.205299377    17.854032516    14.914379120   0   0   0 # obsk
   2357      1   4 -0.950000    26.582319260    19.314275742    14.914379120   0   0   0 # ohk
   2358      1   1  1.575000    24.967411041    13.423734665    16.420780182   0   0   0 # feok
   2359      1   2  0.425000    23.362579346    15.871353149    16.420780182   0   0   0 # hoy
   2360      1   3 -1.050000    26.495300293    16.842866898    16.420780182   0   0   0 # obsk
   2361      1   4 -0.950000    24.292320251    15.382622719    16.420780182   0   0   0 # ohk
   2362      1   1  1.575000    23.122587204    18.380434036    16.420780182   0   0   0 # feok
   2363      1   2  0.425000    24.727418900    10.914652824    16.420780182   0   0   0 # hoy
   2364      1   3 -1.050000    26.174699783    11.886166573    16.420780182   0   0   0 # obsk
   2365      1   4 -0.950000    23.797679901    10.425922394    16.420780182   0   0   0 # ohk
   2366      1   1  1.575000    25.412588120    16.316465378    14.914379120   0   0   0 # feok
   2367      1   2  0.425000    27.017419815    13.868845940    14.914379120   0   0   0 # hoy
   2368      1   3 -1.050000    23.884698868    12.897333145    14.914379120   0   0   0 # obsk
   2369      1   4 -0.950000    26.087678909    14.357576370    14.914379120   0   0   0 # ohk
   2370      1   1  1.575000    27.257411957    21.273164749    14.914379120   0   0   0 # feok
   2371      1   2  0.425000    25.652580261    28.738945007    14.914379120   0   0   0 # hoy
   2372      1   3 -1.050000    24.205299377    27.767433167    14.914379120   0   0   0 # obsk
   2373      1   4 -0.950000    26.582319260    29.227676392    14.914379120   0   0   0 # ohk
   2374      1   1  1.575000    24.967411041    23.337133408    16.420780182   0   0   0 # feok
   2375      1   2  0.425000    23.362579346    25.784751892    16.420780182   0   0   0 # hoy
   2376      1   3 -1.050000    26.495300293    26.756265640    16.420780182   0   0   0 # obsk
   2377      1   4 -0.950000    24.292320251    25.296022415    16.420780182   0   0   0 # ohk
   2378      1   1  1.575000    23.122587204    28.293834686    16.420780182   0   0   0 # feok
   2379      1   2  0.425000    24.727418900    20.828052521    16.420780182   0   0   0 # hoy
   2380      1   3 -1.050000    26.174699783    21.799566269    16.420780182   0   0   0 # obsk
   2381      1   4 -0.950000    23.797679901    20.339323044    16.420780182   0   0   0 # ohk
   2382      1   1  1.575000    25.412588120    26.229864120    14.914379120   0   0   0 # feok
   2383      1   2  0.425000    27.017419815    23.782245636    14.914379120   0   0   0 # hoy
   2384      1   3 -1.050000    23.884698868    22.810731888    14.914379120   0   0   0 # obsk
   2385      1   4 -0.950000    26.087678909    24.270977020    14.914379120   0   0   0 # ohk
   2386      1   1  1.575000    27.257411957     1.446364999    17.927179337   0   0   0 # feok
   2387      1   2  0.425000    25.652580261     8.912146568    17.927179337   0   0   0 # hoy
   2388      1   3 -1.050000    24.205299377     7.940633297    17.927179337   0   0   0 # obsk
   2389      1   4 -0.950000    26.582319260     9.400876999    17.927179337   0   0   0 # ohk
   2390      1   1  1.575000    24.967411041     3.510334969    19.433580399   0   0   0 # feok
   2391      1   2  0.425000    23.362579346     5.957953453    19.433580399   0   0   0 # hoy
   2392      1   3 -1.050000    26.495300293     6.929466248    19.433580399   0   0   0 # obsk
   2393      1   4 -0.950000    24.292320251     5.469222546    19.433580399   0   0   0 # ohk
   2394      1   1  1.575000    23.122587204     8.467034340    19.433580399   0   0   0 # feok
   2395      1   2  0.425000    24.727418900     1.001253366    19.433580399   0   0   0 # hoy
   2396      1   3 -1.050000    26.174699783     1.972766519    19.433580399   0   0   0 # obsk
   2397      1   4 -0.950000    23.797679901     0.512522757    19.433580399   0   0   0 # ohk
   2398      1   1  1.575000    25.412588120     6.403064728    17.927179337   0   0   0 # feok
   2399      1   2  0.425000    27.017419815     3.955446482    17.927179337   0   0   0 # hoy
   2400      1   3 -1.050000    23.884698868     2.983933210    17.927179337   0   0   0 # obsk
   2401      1   4 -0.950000    26.087678909     4.444177151    17.927179337   0   0   0 # ohk
   2402      1   1  1.575000    27.257411957    11.359765053    17.927179337   0   0   0 # feok
   2403      1   2  0.425000    25.652580261    18.825546265    17.927179337   0   0   0 # hoy
   2404      1   3 -1.050000    24.205299377    17.854032516    17.927179337   0   0   0 # obsk
   2405      1   4 -0.950000    26.582319260    19.314275742    17.927179337   0   0   0 # ohk
   2406      1   1  1.575000    24.967411041    13.423734665    19.433580399   0   0   0 # feok
   2407      1   2  0.425000    23.362579346    15.871353149    19.433580399   0   0   0 # hoy
   2408      1   3 -1.050000    26.495300293    16.842866898    19.433580399   0   0   0 # obsk
   2409      1   4 -0.950000    24.292320251    15.382622719    19.433580399   0   0   0 # ohk
   2410      1   1  1.575000    23.122587204    18.380434036    19.433580399   0   0   0 # feok
   2411      1   2  0.425000    24.727418900    10.914652824    19.433580399   0   0   0 # hoy
   2412      1   3 -1.050000    26.174699783    11.886166573    19.433580399   0   0   0 # obsk
   2413      1   4 -0.950000    23.797679901    10.425922394    19.433580399   0   0   0 # ohk
   2414      1   1  1.575000    25.412588120    16.316465378    17.927179337   0   0   0 # feok
   2415      1   2  0.425000    27.017419815    13.868845940    17.927179337   0   0   0 # hoy
   2416      1   3 -1.050000    23.884698868    12.897333145    17.927179337   0   0   0 # obsk
   2417      1   4 -0.950000    26.087678909    14.357576370    17.927179337   0   0   0 # ohk
   2418      1   1  1.575000    27.257411957    21.273164749    17.927179337   0   0   0 # feok
   2419      1   2  0.425000    25.652580261    28.738945007    17.927179337   0   0   0 # hoy
   2420      1   3 -1.050000    24.205299377    27.767433167    17.927179337   0   0   0 # obsk
   2421      1   4 -0.950000    26.582319260    29.227676392    17.927179337   0   0   0 # ohk
   2422      1   1  1.575000    24.967411041    23.337133408    19.433580399   0   0   0 # feok
   2423      1   2  0.425000    23.362579346    25.784751892    19.433580399   0   0   0 # hoy
   2424      1   3 -1.050000    26.495300293    26.756265640    19.433580399   0   0   0 # obsk
   2425      1   4 -0.950000    24.292320251    25.296022415    19.433580399   0   0   0 # ohk
   2426      1   1  1.575000    23.122587204    28.293834686    19.433580399   0   0   0 # feok
   2427      1   2  0.425000    24.727418900    20.828052521    19.433580399   0   0   0 # hoy
   2428      1   3 -1.050000    26.174699783    21.799566269    19.433580399   0   0   0 # obsk
   2429      1   4 -0.950000    23.797679901    20.339323044    19.433580399   0   0   0 # ohk
   2430      1   1  1.575000    25.412588120    26.229864120    17.927179337   0   0   0 # feok
   2431      1   2  0.425000    27.017419815    23.782245636    17.927179337   0   0   0 # hoy
   2432      1   3 -1.050000    23.884698868    22.810731888    17.927179337   0   0   0 # obsk
   2433      1   4 -0.950000    26.087678909    24.270977020    17.927179337   0   0   0 # ohk
   2434      1   1  1.575000    27.257411957     1.446364999    20.939979553   0   0   0 # feok
   2435      1   2  0.425000    25.652580261     8.912146568    20.939979553   0   0   0 # hoy
   2436      1   3 -1.050000    24.205299377     7.940633297    20.939979553   0   0   0 # obsk
   2437      1   4 -0.950000    26.582319260     9.400876999    20.939979553   0   0   0 # ohk
   2438      1   1  1.575000    24.967411041     3.510334969    22.446378708   0   0   0 # feok
   2439      1   2  0.425000    23.362579346     5.957953453    22.446378708   0   0   0 # hoy
   2440      1   3 -1.050000    26.495300293     6.929466248    22.446378708   0   0   0 # obsk
   2441      1   4 -0.950000    24.292320251     5.469222546    22.446378708   0   0   0 # ohk
   2442      1   1  1.575000    23.122587204     8.467034340    22.446378708   0   0   0 # feok
   2443      1   2  0.425000    24.727418900     1.001253366    22.446378708   0   0   0 # hoy
   2444      1   3 -1.050000    26.174699783     1.972766519    22.446378708   0   0   0 # obsk
   2445      1   4 -0.950000    23.797679901     0.512522757    22.446378708   0   0   0 # ohk
   2446      1   1  1.575000    25.412588120     6.403064728    20.939979553   0   0   0 # feok
   2447      1   2  0.425000    27.017419815     3.955446482    20.939979553   0   0   0 # hoy
   2448      1   3 -1.050000    23.884698868     2.983933210    20.939979553   0   0   0 # obsk
   2449      1   4 -0.950000    26.087678909     4.444177151    20.939979553   0   0   0 # ohk
   2450      1   1  1.575000    27.257411957    11.359765053    20.939979553   0   0   0 # feok
   2451      1   2  0.425000    25.652580261    18.825546265    20.939979553   0   0   0 # hoy
   2452      1   3 -1.050000    24.205299377    17.854032516    20.939979553   0   0   0 # obsk
   2453      1   4 -0.950000    26.582319260    19.314275742    20.939979553   0   0   0 # ohk
   2454      1   1  1.575000    24.967411041    13.423734665    22.446378708   0   0   0 # feok
   2455      1   2  0.425000    23.362579346    15.871353149    22.446378708   0   0   0 # hoy
   2456      1   3 -1.050000    26.495300293    16.842866898    22.446378708   0   0   0 # obsk
   2457      1   4 -0.950000    24.292320251    15.382622719    22.446378708   0   0   0 # ohk
   2458      1   1  1.575000    23.122587204    18.380434036    22.446378708   0   0   0 # feok
   2459      1   2  0.425000    24.727418900    10.914652824    22.446378708   0   0   0 # hoy
   2460      1   3 -1.050000    26.174699783    11.886166573    22.446378708   0   0   0 # obsk
   2461      1   4 -0.950000    23.797679901    10.425922394    22.446378708   0   0   0 # ohk
   2462      1   1  1.575000    25.412588120    16.316465378    20.939979553   0   0   0 # feok
   2463      1   2  0.425000    27.017419815    13.868845940    20.939979553   0   0   0 # hoy
   2464      1   3 -1.050000    23.884698868    12.897333145    20.939979553   0   0   0 # obsk
   2465      1   4 -0.950000    26.087678909    14.357576370    20.939979553   0   0   0 # ohk
   2466      1   1  1.575000    27.257411957    21.273164749    20.939979553   0   0   0 # feok
   2467      1   2  0.425000    25.652580261    28.738945007    20.939979553   0   0   0 # hoy
   2468      1   3 -1.050000    24.205299377    27.767433167    20.939979553   0   0   0 # obsk
   2469      1   4 -0.950000    26.582319260    29.227676392    20.939979553   0   0   0 # ohk
   2470      1   1  1.575000    24.967411041    23.337133408    22.446378708   0   0   0 # feok
   2471      1   2  0.425000    23.362579346    25.784751892    22.446378708   0   0   0 # hoy
   2472      1   3 -1.050000    26.495300293    26.756265640    22.446378708   0   0   0 # obsk
   2473      1   4 -0.950000    24.292320251    25.296022415    22.446378708   0   0   0 # ohk
   2474      1   1  1.575000    23.122587204    28.293834686    22.446378708   0   0   0 # feok
   2475      1   2  0.425000    24.727418900    20.828052521    22.446378708   0   0   0 # hoy
   2476      1   3 -1.050000    26.174699783    21.799566269    22.446378708   0   0   0 # obsk
   2477      1   4 -0.950000    23.797679901    20.339323044    22.446378708   0   0   0 # ohk
   2478      1   1  1.575000    25.412588120    26.229864120    20.939979553   0   0   0 # feok
   2479      1   2  0.425000    27.017419815    23.782245636    20.939979553   0   0   0 # hoy
   2480      1   3 -1.050000    23.884698868    22.810731888    20.939979553   0   0   0 # obsk
   2481      1   4 -0.950000    26.087678909    24.270977020    20.939979553   0   0   0 # ohk
   2482      1   1  1.575000    27.257411957     1.446364999    23.952779770   0   0   0 # feok
   2483      1   2  0.425000    25.652580261     8.912146568    23.952779770   0   0   0 # hoy
   2484      1   3 -1.050000    24.205299377     7.940633297    23.952779770   0   0   0 # obsk
   2485      1   4 -0.950000    26.582319260     9.400876999    23.952779770   0   0   0 # ohk
   2486      1   1  1.575000    24.967411041     3.510334969    25.459178925   0   0   0 # feok
   2487      1   2  0.425000    23.362579346     5.957953453    25.459178925   0   0   0 # hoy
   2488      1   3 -1.050000    26.495300293     6.929466248    25.459178925   0   0   0 # obsk
   2489      1   4 -0.950000    24.292320251     5.469222546    25.459178925   0   0   0 # ohk
   2490      1   1  1.575000    23.122587204     8.467034340    25.459178925   0   0   0 # feok
   2491      1   2  0.425000    24.727418900     1.001253366    25.459178925   0   0   0 # hoy
   2492      1   3 -1.050000    26.174699783     1.972766519    25.459178925   0   0   0 # obsk
   2493      1   4 -0.950000    23.797679901     0.512522757    25.459178925   0   0   0 # ohk
   2494      1   1  1.575000    25.412588120     6.403064728    23.952779770   0   0   0 # feok
   2495      1   2  0.425000    27.017419815     3.955446482    23.952779770   0   0   0 # hoy
   2496      1   3 -1.050000    23.884698868     2.983933210    23.952779770   0   0   0 # obsk
   2497      1   4 -0.950000    26.087678909     4.444177151    23.952779770   0   0   0 # ohk
   2498      1   1  1.575000    27.257411957    11.359765053    23.952779770   0   0   0 # feok
   2499      1   2  0.425000    25.652580261    18.825546265    23.952779770   0   0   0 # hoy
   2500      1   3 -1.050000    24.205299377    17.854032516    23.952779770   0   0   0 # obsk
   2501      1   4 -0.950000    26.582319260    19.314275742    23.952779770   0   0   0 # ohk
   2502      1   1  1.575000    24.967411041    13.423734665    25.459178925   0   0   0 # feok
   2503      1   2  0.425000    23.362579346    15.871353149    25.459178925   0   0   0 # hoy
   2504      1   3 -1.050000    26.495300293    16.842866898    25.459178925   0   0   0 # obsk
   2505      1   4 -0.950000    24.292320251    15.382622719    25.459178925   0   0   0 # ohk
   2506      1   1  1.575000    23.122587204    18.380434036    25.459178925   0   0   0 # feok
   2507      1   2  0.425000    24.727418900    10.914652824    25.459178925   0   0   0 # hoy
   2508      1   3 -1.050000    26.174699783    11.886166573    25.459178925   0   0   0 # obsk
   2509      1   4 -0.950000    23.797679901    10.425922394    25.459178925   0   0   0 # ohk
   2510      1   1  1.575000    25.412588120    16.316465378    23.952779770   0   0   0 # feok
   2511      1   2  0.425000    27.017419815    13.868845940    23.952779770   0   0   0 # hoy
   2512      1   3 -1.050000    23.884698868    12.897333145    23.952779770   0   0   0 # obsk
   2513      1   4 -0.950000    26.087678909    14.357576370    23.952779770   0   0   0 # ohk
   2514      1   1  1.575000    27.257411957    21.273164749    23.952779770   0   0   0 # feok
   2515      1   2  0.425000    25.652580261    28.738945007    23.952779770   0   0   0 # hoy
   2516      1   3 -1.050000    24.205299377    27.767433167    23.952779770   0   0   0 # obsk
   2517      1   4 -0.950000    26.582319260    29.227676392    23.952779770   0   0   0 # ohk
   2518      1   1  1.575000    24.967411041    23.337133408    25.459178925   0   0   0 # feok
   2519      1   2  0.425000    23.362579346    25.784751892    25.459178925   0   0   0 # hoy
   2520      1   3 -1.050000    26.495300293    26.756265640    25.459178925   0   0   0 # obsk
   2521      1   4 -0.950000    24.292320251    25.296022415    25.459178925   0   0   0 # ohk
   2522      1   1  1.575000    23.122587204    28.293834686    25.459178925   0   0   0 # feok
   2523      1   2  0.425000    24.727418900    20.828052521    25.459178925   0   0   0 # hoy
   2524      1   3 -1.050000    26.174699783    21.799566269    25.459178925   0   0   0 # obsk
   2525      1   4 -0.950000    23.797679901    20.339323044    25.459178925   0   0   0 # ohk
   2526      1   1  1.575000    25.412588120    26.229864120    23.952779770   0   0   0 # feok
   2527      1   2  0.425000    27.017419815    23.782245636    23.952779770   0   0   0 # hoy
   2528      1   3 -1.050000    23.884698868    22.810731888    23.952779770   0   0   0 # obsk
   2529      1   4 -0.950000    26.087678909    24.270977020    23.952779770   0   0   0 # ohk
   2530      1   1  1.575000    27.257411957     1.446364999    26.965579987   0   0   0 # feok
   2531      1   2  0.425000    25.652580261     8.912146568    26.965579987   0   0   0 # hoy
   2532      1   3 -1.050000    24.205299377     7.940633297    26.965579987   0   0   0 # obsk
   2533      1   4 -0.950000    26.582319260     9.400876999    26.965579987   0   0   0 # ohk
   2534      1   1  1.575000    24.967411041     3.510334969    28.471979141   0   0   0 # feok
   2535      1   2  0.425000    23.362579346     5.957953453    28.471979141   0   0   0 # hoy
   2536      1   3 -1.050000    26.495300293     6.929466248    28.471979141   0   0   0 # obsk
   2537      1   4 -0.950000    24.292320251     5.469222546    28.471979141   0   0   0 # ohk
   2538      1   1  1.575000    23.122587204     8.467034340    28.471979141   0   0   0 # feok
   2539      1   2  0.425000    24.727418900     1.001253366    28.471979141   0   0   0 # hoy
   2540      1   3 -1.050000    26.174699783     1.972766519    28.471979141   0   0   0 # obsk
   2541      1   4 -0.950000    23.797679901     0.512522757    28.471979141   0   0   0 # ohk
   2542      1   1  1.575000    25.412588120     6.403064728    26.965579987   0   0   0 # feok
   2543      1   2  0.425000    27.017419815     3.955446482    26.965579987   0   0   0 # hoy
   2544      1   3 -1.050000    23.884698868     2.983933210    26.965579987   0   0   0 # obsk
   2545      1   4 -0.950000    26.087678909     4.444177151    26.965579987   0   0   0 # ohk
   2546      1   1  1.575000    27.257411957    11.359765053    26.965579987   0   0   0 # feok
   2547      1   2  0.425000    25.652580261    18.825546265    26.965579987   0   0   0 # hoy
   2548      1   3 -1.050000    24.205299377    17.854032516    26.965579987   0   0   0 # obsk
   2549      1   4 -0.950000    26.582319260    19.314275742    26.965579987   0   0   0 # ohk
   2550      1   1  1.575000    24.967411041    13.423734665    28.471979141   0   0   0 # feok
   2551      1   2  0.425000    23.362579346    15.871353149    28.471979141   0   0   0 # hoy
   2552      1   3 -1.050000    26.495300293    16.842866898    28.471979141   0   0   0 # obsk
   2553      1   4 -0.950000    24.292320251    15.382622719    28.471979141   0   0   0 # ohk
   2554      1   1  1.575000    23.122587204    18.380434036    28.471979141   0   0   0 # feok
   2555      1   2  0.425000    24.727418900    10.914652824    28.471979141   0   0   0 # hoy
   2556      1   3 -1.050000    26.174699783    11.886166573    28.471979141   0   0   0 # obsk
   2557      1   4 -0.950000    23.797679901    10.425922394    28.471979141   0   0   0 # ohk
   2558      1   1  1.575000    25.412588120    16.316465378    26.965579987   0   0   0 # feok
   2559      1   2  0.425000    27.017419815    13.868845940    26.965579987   0   0   0 # hoy
   2560      1   3 -1.050000    23.884698868    12.897333145    26.965579987   0   0   0 # obsk
   2561      1   4 -0.950000    26.087678909    14.357576370    26.965579987   0   0   0 # ohk
   2562      1   1  1.575000    27.257411957    21.273164749    26.965579987   0   0   0 # feok
   2563      1   2  0.425000    25.652580261    28.738945007    26.965579987   0   0   0 # hoy
   2564      1   3 -1.050000    24.205299377    27.767433167    26.965579987   0   0   0 # obsk
   2565      1   4 -0.950000    26.582319260    29.227676392    26.965579987   0   0   0 # ohk
   2566      1   1  1.575000    24.967411041    23.337133408    28.471979141   0   0   0 # feok
   2567      1   2  0.425000    23.362579346    25.784751892    28.471979141   0   0   0 # hoy
   2568      1   3 -1.050000    26.495300293    26.756265640    28.471979141   0   0   0 # obsk
   2569      1   4 -0.950000    24.292320251    25.296022415    28.471979141   0   0   0 # ohk
   2570      1   1  1.575000    23.122587204    28.293834686    28.471979141   0   0   0 # feok
   2571      1   2  0.425000    24.727418900    20.828052521    28.471979141   0   0   0 # hoy
   2572      1   3 -1.050000    26.174699783    21.799566269    28.471979141   0   0   0 # obsk
   2573      1   4 -0.950000    23.797679901    20.339323044    28.471979141   0   0   0 # ohk
   2574      1   1  1.575000    25.412588120    26.229864120    26.965579987   0   0   0 # feok
   2575      1   2  0.425000    27.017419815    23.782245636    26.965579987   0   0   0 # hoy
   2576      1   3 -1.050000    23.884698868    22.810731888    26.965579987   0   0   0 # obsk
   2577      1   4 -0.950000    26.087678909    24.270977020    26.965579987   0   0   0 # ohk
   2578      1   1  1.575000     6.647411823     3.510334969    28.471979141   0   0   0 # feok
   2579      1   1  1.575000     6.647411823    13.423734665    28.471979141   0   0   0 # feok
   2580      1   1  1.575000     6.647411823    23.337133408    28.471979141   0   0   0 # feok
   2581      1   1  1.575000    13.962587357     8.467034340    28.471979141   0   0   0 # feok
   2582      1   1  1.575000    13.962587357    28.293834686    28.471979141   0   0   0 # feok
   2583      1   1  1.575000    20.387411118     3.510334969    28.471979141   0   0   0 # feok
   2584      1   1  1.575000    20.387411118    13.423734665    28.471979141   0   0   0 # feok
   2585      1   1  1.575000    20.387411118    23.337133408    28.471979141   0   0   0 # feok
   2586      1   2  0.372200    11.912579536    18.825546265    26.965579987   0   0   0 # hoy
   2587      1   4 -1.002800    12.842319489    19.314275742    26.965579987   0   0   0 # ohk
   2588      1   3 -1.102800    12.755299568    16.842866898    28.471979141   0   0   0 # obsk
   2589      1   3 -1.102800    15.045299530    17.854032516    26.965579987   0   0   0 # obsk
   2590      1   2  0.372200    15.567420006    20.828052521    28.471979141   0   0   0 # hoy
   2591      1   4 -1.002800    14.637680054    20.339323044    28.471979141   0   0   0 # ohk
   2592      1   4 -1.002800    15.227309227    17.917942047    29.924901962   0   0   0 # ohk
   2593      1   2  0.372200    15.877784729    17.203823090    29.577756882   0   0   0 # hoy
   2594      1   1  1.522200    13.962587357    18.380434036    28.471979141   0   0   0 # feok

Bonds

     1   1      2      4
     2   1      6      8
     3   1     10     12
     4   1     14     16
     5   1     18     20
     6   1     22     24
     7   1     26     28
     8   1     30     32
     9   1     34     36
    10   1     38     40
    11   1     42     44
    12   1     46     48
    13   1     50     52
    14   1     54     56
    15   1     58     60
    16   1     62     64
    17   1     66     68
    18   1     70     72
    19   1     74     76
    20   1     78     80
    21   1     82     84
    22   1     86     88
    23   1     90     92
    24   1     94     96
    25   1     98    100
    26   1    102    104
    27   1    106    108
    28   1    110    112
    29   1    114    116
    30   1    118    120
    31   1    122    124
    32   1    126    128
    33   1    130    132
    34   1    134    136
    35   1    138    140
    36   1    142    144
    37   1    146    148
    38   1    150    152
    39   1    154    156
    40   1    158    160
    41   1    162    164
    42   1    166    168
    43   1    170    172
    44   1    174    176
    45   1    178    180
    46   1    182    184
    47   1    186    188
    48   1    190    192
    49   1    194    196
    50   1    198    200
    51   1    202    204
    52   1    206    208
    53   1    210    212
    54   1    214    216
    55   1    218    220
    56   1    222    224
    57   1    226    228
    58   1    230    232
    59   1    234    236
    60   1    238    240
    61   1    242    244
    62   1    246    248
    63   1    250    252
    64   1    254    256
    65   1    258    260
    66   1    262    264
    67   1    266    268
    68   1    270    272
    69   1    274    276
    70   1    278    280
    71   1    282    284
    72   1    286    288
    73   1    290    292
    74   1    294    296
    75   1    298    300
    76   1    302    304
    77   1    306    308
    78   1    310    312
    79   1    314    316
    80   1    318    320
    81   1    322    324
    82   1    326    328
    83   1    330    332
    84   1    334    336
    85   1    338    340
    86   1    342    344
    87   1    346    348
    88   1    350    352
    89   1    354    356
    90   1    358    360
    91   1    362    364
    92   1    366    368
    93   1    370    372
    94   1    374    376
    95   1    378    380
    96   1    382    384
    97   1    386    388
    98   1    390    392
    99   1    394    396
   100   1    398    400
   101   1    402    404
   102   1    406    408
   103   1    410    412
   104   1    414    416
   105   1    418    420
   106   1    422    424
   107   1    426    428
   108   1    430    432
   109   1    434    436
   110   1    438    440
   111   1    442    444
   112   1    446    448
   113   1    450    452
   114   1    454    456
   115   1    458    460
   116   1    462    464
   117   1    466    468
   118   1    470    472
   119   1    474    476
   120   1    478    480
   121   1    482    484
   122   1    486    488
   123   1    490    492
   124   1    494    496
   125   1    498    500
   126   1    502    504
   127   1    506    508
   128   1    510    512
   129   1    514    516
   130   1    518    520
   131   1    522    524
   132   1    526    528
   133   1    530    532
   134   1    534    536
   135   1    538    540
   136   1    542    544
   137   1    546    548
   138   1    550    552
   139   1    554    556
   140   1    558    560
   141   1    562    564
   142   1    566    568
   143   1    570    572
   144   1    574    576
   145   1    578    580
   146   1    582    584
   147   1    586    588
   148   1    590    592
   149   1    594    596
   150   1    598    600
   151   1    602    604
   152   1    606    608
   153   1    610    612
   154   1    614    616
   155   1    618    620
   156   1    622    624
   157   1    626    628
   158   1    630    632
   159   1    634    636
   160   1    638    640
   161   1    642    644
   162   1    646    648
   163   1    650    652
   164   1    654    656
   165   1    658    660
   166   1    662    664
   167   1    666    668
   168   1    670    672
   169   1    674    676
   170   1    678    680
   171   1    682    684
   172   1    686    688
   173   1    690    692
   174   1    694    696
   175   1    698    700
   176   1    702    704
   177   1    706    708
   178   1    710    712
   179   1    714    716
   180   1    718    720
   181   1    722    724
   182   1    726    728
   183   1    730    732
   184   1    734    736
   185   1    738    740
   186   1    742    744
   187   1    746    748
   188   1    750    752
   189   1    754    756
   190   1    758    760
   191   1    762    764
   192   1    766    768
   193   1    770    772
   194   1    774    776
   195   1    778    780
   196   1    782    784
   197   1    786    788
   198   1    790    792
   199   1    794    796
   200   1    798    800
   201   1    802    804
   202   1    806    808
   203   1    810    812
   204   1    814    816
   205   1    818    820
   206   1    821    823
   207   1    825    827
   208   1    829    831
   209   1    833    835
   210   1    836    838
   211   1    840    842
   212   1    844    846
   213   1    848    850
   214   1    851    853
   215   1    855    857
   216   1    859    861
   217   1    863    865
   218   1    867    869
   219   1    871    873
   220   1    875    877
   221   1    879    881
   222   1    883    885
   223   1    887    889
   224   1    891    893
   225   1    895    897
   226   1    899    901
   227   1    903    905
   228   1    907    909
   229   1    911    913
   230   1    915    917
   231   1    919    921
   232   1    923    925
   233   1    927    929
   234   1    931    933
   235   1    935    937
   236   1    939    941
   237   1    943    945
   238   1    947    949
   239   1    951    953
   240   1    955    957
   241   1    959    961
   242   1    963    965
   243   1    967    969
   244   1    971    973
   245   1    975    977
   246   1    979    981
   247   1    983    985
   248   1    987    989
   249   1    991    993
   250   1    995    997
   251   1    999   1001
   252   1   1003   1005
   253   1   1007   1009
   254   1   1011   1013
   255   1   1015   1017
   256   1   1019   1021
   257   1   1023   1025
   258   1   1027   1029
   259   1   1031   1033
   260   1   1035   1037
   261   1   1039   1041
   262   1   1043   1045
   263   1   1047   1049
   264   1   1051   1053
   265   1   1055   1057
   266   1   1059   1061
   267   1   1063   1065
   268   1   1067   1069
   269   1   1071   1073
   270   1   1075   1077
   271   1   1079   1081
   272   1   1083   1085
   273   1   1087   1089
   274   1   1091   1093
   275   1   1095   1097
   276   1   1099   1101
   277   1   1103   1105
   278   1   1107   1109
   279   1   1111   1113
   280   1   1115   1117
   281   1   1119   1121
   282   1   1123   1125
   283   1   1127   1129
   284   1   1131   1133
   285   1   1135   1137
   286   1   1139   1141
   287   1   1143   1145
   288   1   1147   1149
   289   1   1151   1153
   290   1   1155   1157
   291   1   1159   1161
   292   1   1163   1165
   293   1   1167   1169
   294   1   1171   1173
   295   1   1175   1177
   296   1   1179   1181
   297   1   1183   1185
   298   1   1187   1189
   299   1   1191   1193
   300   1   1195   1197
   301   1   1199   1201
   302   1   1203   1205
   303   1   1207   1209
   304   1   1211   1213
   305   1   1215   1217
   306   1   1219   1221
   307   1   1223   1225
   308   1   1227   1229
   309   1   1231   1233
   310   1   1235   1237
   311   1   1239   1241
   312   1   1243   1245
   313   1   1247   1249
   314   1   1251   1253
   315   1   1255   1257
   316   1   1259   1261
   317   1   1265   1266
   318   1   1268   1270
   319   1   1272   1274
   320   1   1276   1278
   321   1   1280   1282
   322   1   1284   1286
   323   1   1288   1290
   324   1   1292   1294
   325   1   1296   1298
   326   1   1300   1302
   327   1   1304   1306
   328   1   1308   1310
   329   1   1312   1314
   330   1   1316   1318
   331   1   1320   1322
   332   1   1324   1326
   333   1   1328   1330
   334   1   1332   1334
   335   1   1336   1338
   336   1   1340   1342
   337   1   1344   1346
   338   1   1348   1350
   339   1   1352   1354
   340   1   1356   1358
   341   1   1360   1362
   342   1   1364   1366
   343   1   1368   1370
   344   1   1372   1374
   345   1   1376   1378
   346   1   1380   1382
   347   1   1384   1386
   348   1   1388   1390
   349   1   1392   1394
   350   1   1396   1398
   351   1   1400   1402
   352   1   1404   1406
   353   1   1408   1410
   354   1   1412   1414
   355   1   1416   1418
   356   1   1420   1422
   357   1   1424   1426
   358   1   1428   1430
   359   1   1432   1434
   360   1   1436   1438
   361   1   1440   1442
   362   1   1444   1446
   363   1   1448   1450
   364   1   1452   1454
   365   1   1456   1458
   366   1   1460   1462
   367   1   1464   1466
   368   1   1468   1470
   369   1   1472   1474
   370   1   1476   1478
   371   1   1480   1482
   372   1   1484   1486
   373   1   1488   1490
   374   1   1492   1494
   375   1   1496   1498
   376   1   1500   1502
   377   1   1504   1506
   378   1   1508   1510
   379   1   1512   1514
   380   1   1516   1518
   381   1   1520   1522
   382   1   1524   1526
   383   1   1528   1530
   384   1   1532   1534
   385   1   1536   1538
   386   1   1540   1542
   387   1   1544   1546
   388   1   1548   1550
   389   1   1552   1554
   390   1   1556   1558
   391   1   1560   1562
   392   1   1564   1566
   393   1   1568   1570
   394   1   1572   1574
   395   1   1576   1578
   396   1   1580   1582
   397   1   1584   1586
   398   1   1588   1590
   399   1   1592   1594
   400   1   1596   1598
   401   1   1600   1602
   402   1   1604   1606
   403   1   1608   1610
   404   1   1612   1614
   405   1   1616   1618
   406   1   1620   1622
   407   1   1624   1626
   408   1   1628   1630
   409   1   1632   1634
   410   1   1636   1638
   411   1   1640   1642
   412   1   1644   1646
   413   1   1648   1650
   414   1   1652   1654
   415   1   1656   1658
   416   1   1660   1662
   417   1   1664   1666
   418   1   1668   1670
   419   1   1672   1674
   420   1   1676   1678
   421   1   1680   1682
   422   1   1683   1685
   423   1   1687   1689
   424   1   1691   1692
   425   1   1694   1696
   426   1   1697   1699
   427   1   1701   1703
   428   1   1705   1707
   429   1   1709   1711
   430   1   1714   1716
   431   1   1718   1720
   432   1   1722   1724
   433   1   1726   1728
   434   1   1730   1732
   435   1   1734   1736
   436   1   1738   1740
   437   1   1742   1744
   438   1   1746   1748
   439   1   1750   1752
   440   1   1754   1756
   441   1   1758   1760
   442   1   1762   1764
   443   1   1766   1768
   444   1   1770   1772
   445   1   1774   1776
   446   1   1778   1780
   447   1   1782   1784
   448   1   1786   1788
   449   1   1790   1792
   450   1   1794   1796
   451   1   1798   1800
   452   1   1802   1804
   453   1   1806   1808
   454   1   1810   1812
   455   1   1814   1816
   456   1   1818   1820
   457   1   1822   1824
   458   1   1826   1828
   459   1   1830   1832
   460   1   1834   1836
   461   1   1838   1840
   462   1   1842   1844
   463   1   1846   1848
   464   1   1850   1852
   465   1   1854   1856
   466   1   1858   1860
   467   1   1862   1864
   468   1   1866   1868
   469   1   1870   1872
   470   1   1874   1876
   471   1   1878   1880
   472   1   1882   1884
   473   1   1886   1888
   474   1   1890   1892
   475   1   1894   1896
   476   1   1898   1900
   477   1   1902   1904
   478   1   1906   1908
   479   1   1910   1912
   480   1   1914   1916
   481   1   1918   1920
   482   1   1922   1924
   483   1   1926   1928
   484   1   1930   1932
   485   1   1934   1936
   486   1   1938   1940
   487   1   1942   1944
   488   1   1946   1948
   489   1   1950   1952
   490   1   1954   1956
   491   1   1958   1960
   492   1   1962   1964
   493   1   1966   1968
   494   1   1970   1972
   495   1   1974   1976
   496   1   1978   1980
   497   1   1982   1984
   498   1   1986   1988
   499   1   1990   1992
   500   1   1994   1996
   501   1   1998   2000
   502   1   2002   2004
   503   1   2006   2008
   504   1   2010   2012
   505   1   2014   2016
   506   1   2018   2020
   507   1   2022   2024
   508   1   2026   2028
   509   1   2030   2032
   510   1   2034   2036
   511   1   2038   2040
   512   1   2042   2044
   513   1   2046   2048
   514   1   2050   2052
   515   1   2054   2056
   516   1   2058   2060
   517   1   2062   2064
   518   1   2066   2068
   519   1   2070   2072
   520   1   2074   2076
   521   1   2078   2080
   522   1   2082   2084
   523   1   2086   2088
   524   1   2090   2092
   525   1   2094   2096
   526   1   2098   2100
   527   1   2102   2104
   528   1   2105   2107
   529   1   2109   2111
   530   1   2113   2115
   531   1   2117   2119
   532   1   2120   2122
   533   1   2124   2126
   534   1   2128   2130
   535   1   2132   2134
   536   1   2135   2137
   537   1   2139   2141
   538   1   2143   2145
   539   1   2147   2149
   540   1   2151   2153
   541   1   2155   2157
   542   1   2159   2161
   543   1   2163   2165
   544   1   2167   2169
   545   1   2171   2173
   546   1   2175   2177
   547   1   2179   2181
   548   1   2183   2185
   549   1   2187   2189
   550   1   2191   2193
   551   1   2195   2197
   552   1   2199   2201
   553   1   2203   2205
   554   1   2207   2209
   555   1   2211   2213
   556   1   2215   2217
   557   1   2219   2221
   558   1   2223   2225
   559   1   2227   2229
   560   1   2231   2233
   561   1   2235   2237
   562   1   2239   2241
   563   1   2243   2245
   564   1   2247   2249
   565   1   2251   2253
   566   1   2255   2257
   567   1   2259   2261
   568   1   2263   2265
   569   1   2267   2269
   570   1   2271   2273
   571   1   2275   2277
   572   1   2279   2281
   573   1   2283   2285
   574   1   2287   2289
   575   1   2291   2293
   576   1   2295   2297
   577   1   2299   2301
   578   1   2303   2305
   579   1   2307   2309
   580   1   2311   2313
   581   1   2315   2317
   582   1   2319   2321
   583   1   2323   2325
   584   1   2327   2329
   585   1   2331   2333
   586   1   2335   2337
   587   1   2339   2341
   588   1   2343   2345
   589   1   2347   2349
   590   1   2351   2353
   591   1   2355   2357
   592   1   2359   2361
   593   1   2363   2365
   594   1   2367   2369
   595   1   2371   2373
   596   1   2375   2377
   597   1   2379   2381
   598   1   2383   2385
   599   1   2387   2389
   600   1   2391   2393
   601   1   2395   2397
   602   1   2399   2401
   603   1   2403   2405
   604   1   2407   2409
   605   1   2411   2413
   606   1   2415   2417
   607   1   2419   2421
   608   1   2423   2425
   609   1   2427   2429
   610   1   2431   2433
   611   1   2435   2437
   612   1   2439   2441
   613   1   2443   2445
   614   1   2447   2449
   615   1   2451   2453
   616   1   2455   2457
   617   1   2459   2461
   618   1   2463   2465
   619   1   2467   2469
   620   1   2471   2473
   621   1   2475   2477
   622   1   2479   2481
   623   1   2483   2485
   624   1   2487   2489
   625   1   2491   2493
   626   1   2495   2497
   627   1   2499   2501
   628   1   2503   2505
   629   1   2507   2509
   630   1   2511   2513
   631   1   2515   2517
   632   1   2519   2521
   633   1   2523   2525
   634   1   2527   2529
   635   1   2531   2533
   636   1   2535   2537
   637   1   2539   2541
   638   1   2543   2545
   639   1   2547   2549
   640   1   2551   2553
   641   1   2555   2557
   642   1   2559   2561
   643   1   2563   2565
   644   1   2567   2569
   645   1   2571   2573
   646   1   2575   2577
   647   1   2586   2587
   648   1   2590   2591
   649   1   2593   2592

Angles

     1   1   2594   2592   2593

