LAMMPS data file for hem-d2-4

   1808 atoms
   4 bonds
   4 angles
      0 dihedrals
      0 impropers

   4 atom types
   1 bond types
   1 angle types

    -0.068750754    26.093149246 xlo xhi
    -0.035243110    25.139756890 ylo yhi
  -143.308808383   176.260691617 zlo zhi

Masses

   1  15.999400 # obsk
   2  55.847000 # feok
   3  15.999400 # ohk
   4   1.007940 # hoy

Pair Coeffs # lj/cut/coul/long

   1   0.1554000000   3.1655413253 # obsk
   2   0.0000090298   4.0722178483 # feok
   3   0.1554000000   3.1655413253 # ohk
   4   0.0000000000   0.0000000000 # hoy

Bond Coeffs # harmonic

   1   554.1348     1.0000 # ohk-hoy

Angle Coeffs # harmonic

   1    30.0000   109.4700 # feok-ohk-hoy

Atoms # full

      1      1   1 -1.050000    22.324191001    20.610473769     6.120490766   0   0   0 # obsk
      2      1   1 -1.050000    25.231149606    20.610473769    10.693824099   0   0   0 # obsk
      3      1   1 -1.050000    23.777670304    23.127973769    15.267157432   0   0   0 # obsk
      4      1   1 -1.050000    21.016059628    22.876223769     6.120490766   0   0   0 # obsk
      5      1   1 -1.050000    23.923018234    22.876223769    10.693824099   0   0   0 # obsk
      6      1   1 -1.050000    22.469538931     0.218723769    15.267157432   0   0   0 # obsk
      7      1   1 -1.050000    24.068366164    23.127973769     6.120490766   0   0   0 # obsk
      8      1   1 -1.050000    22.614886861    20.610473769    10.693824099   0   0   0 # obsk
      9      1   1 -1.050000    21.161407559    23.127973769    15.267157432   0   0   0 # obsk
     10      1   1 -1.050000    24.068366164    19.603473769    12.980490766   0   0   0 # obsk
     11      1   1 -1.050000    22.614886861    22.120973769     3.833824099   0   0   0 # obsk
     12      1   1 -1.050000    21.161407559    24.638473769     8.407157432   0   0   0 # obsk
     13      1   1 -1.050000    21.016059628    24.890223769    12.980490766   0   0   0 # obsk
     14      1   1 -1.050000    23.923018234    19.855223769     3.833824099   0   0   0 # obsk
     15      1   1 -1.050000    22.469538931    22.372723769     8.407157432   0   0   0 # obsk
     16      1   1 -1.050000    22.324191001    22.120973769    12.980490766   0   0   0 # obsk
     17      1   1 -1.050000    25.231149606    22.120973769     3.833824099   0   0   0 # obsk
     18      1   1 -1.050000    23.777670304    24.638473769     8.407157432   0   0   0 # obsk
     19      1   2  1.575000    21.016059628    21.365723769     7.561090766   0   0   0 # feok
     20      1   2  1.575000    23.923018234    21.365723769    12.134424099   0   0   0 # feok
     21      1   2  1.575000    22.469538931    23.883223769     2.987757432   0   0   0 # feok
     22      1   2  1.575000    21.016059628    21.365723769     4.679890766   0   0   0 # feok
     23      1   2  1.575000    23.923018234    21.365723769     9.253224099   0   0   0 # feok
     24      1   2  1.575000    22.469538931    23.883223769    13.826557432   0   0   0 # feok
     25      1   2  1.575000    21.016059628    21.365723769    11.539890766   0   0   0 # feok
     26      1   2  1.575000    23.923018234    21.365723769    16.113224099   0   0   0 # feok
     27      1   2  1.575000    22.469538931    23.883223769     6.966557432   0   0   0 # feok
     28      1   2  1.575000    21.016059628    21.365723769    14.421090766   0   0   0 # feok
     29      1   2  1.575000    23.923018234    21.365723769     5.274424099   0   0   0 # feok
     30      1   2  1.575000    22.469538931    23.883223769     9.847757432   0   0   0 # feok
     31      1   1 -1.050000    22.324191001    20.610473769    19.840490766   0   0   0 # obsk
     32      1   1 -1.050000    25.231149606    20.610473769    24.413824099   0   0   0 # obsk
     33      1   1 -1.050000    23.777670304    23.127973769    28.987157432   0   0   0 # obsk
     34      1   1 -1.050000    21.016059628    22.876223769    19.840490766   0   0   0 # obsk
     35      1   1 -1.050000    23.923018234    22.876223769    24.413824099   0   0   0 # obsk
     36      1   1 -1.050000    22.469538931     0.218723769    28.987157432   0   0   0 # obsk
     37      1   1 -1.050000    24.068366164    23.127973769    19.840490766   0   0   0 # obsk
     38      1   1 -1.050000    22.614886861    20.610473769    24.413824099   0   0   0 # obsk
     39      1   1 -1.050000    21.161407559    23.127973769    28.987157432   0   0   0 # obsk
     40      1   1 -1.050000    24.068366164    19.603473769    26.700490766   0   0   0 # obsk
     41      1   1 -1.050000    22.614886861    22.120973769    17.553824099   0   0   0 # obsk
     42      1   1 -1.050000    21.161407559    24.638473769    22.127157432   0   0   0 # obsk
     43      1   1 -1.050000    21.016059628    24.890223769    26.700490766   0   0   0 # obsk
     44      1   1 -1.050000    23.923018234    19.855223769    17.553824099   0   0   0 # obsk
     45      1   1 -1.050000    22.469538931    22.372723769    22.127157432   0   0   0 # obsk
     46      1   1 -1.050000    22.324191001    22.120973769    26.700490766   0   0   0 # obsk
     47      1   1 -1.050000    25.231149606    22.120973769    17.553824099   0   0   0 # obsk
     48      1   1 -1.050000    23.777670304    24.638473769    22.127157432   0   0   0 # obsk
     49      1   2  1.575000    21.016059628    21.365723769    21.281090766   0   0   0 # feok
     50      1   2  1.575000    23.923018234    21.365723769    25.854424099   0   0   0 # feok
     51      1   2  1.575000    22.469538931    23.883223769    16.707757432   0   0   0 # feok
     52      1   2  1.575000    21.016059628    21.365723769    18.399890766   0   0   0 # feok
     53      1   2  1.575000    23.923018234    21.365723769    22.973224099   0   0   0 # feok
     54      1   2  1.575000    22.469538931    23.883223769    27.546557432   0   0   0 # feok
     55      1   2  1.575000    21.016059628    21.365723769    25.259890766   0   0   0 # feok
     56      1   2  1.575000    23.923018234    21.365723769    29.833224099   0   0   0 # feok
     57      1   2  1.575000    22.469538931    23.883223769    20.686557432   0   0   0 # feok
     58      1   2  1.575000    21.016059628    21.365723769    28.141090766   0   0   0 # feok
     59      1   2  1.575000    23.923018234    21.365723769    18.994424099   0   0   0 # feok
     60      1   2  1.575000    22.469538931    23.883223769    23.567757432   0   0   0 # feok
     61      1   1 -1.050000     0.522768909    18.092973769     6.120490766   0   0   0 # obsk
     62      1   1 -1.050000     3.429727514    18.092973769    10.693824099   0   0   0 # obsk
     63      1   1 -1.050000     1.976248212    20.610473769    15.267157432   0   0   0 # obsk
     64      1   1 -1.050000    25.376497536    20.358723769     6.120490766   0   0   0 # obsk
     65      1   1 -1.050000     2.121596142    20.358723769    10.693824099   0   0   0 # obsk
     66      1   1 -1.050000     0.668116839    22.876223769    15.267157432   0   0   0 # obsk
     67      1   1 -1.050000     2.266944072    20.610473769     6.120490766   0   0   0 # obsk
     68      1   1 -1.050000     0.813464769    18.092973769    10.693824099   0   0   0 # obsk
     69      1   1 -1.050000    25.521845467    20.610473769    15.267157432   0   0   0 # obsk
     70      1   1 -1.050000     2.266944072    17.085973769    12.980490766   0   0   0 # obsk
     71      1   1 -1.050000     0.813464769    19.603473769     3.833824099   0   0   0 # obsk
     72      1   1 -1.050000    25.521845467    22.120973769     8.407157432   0   0   0 # obsk
     73      1   1 -1.050000    25.376497536    22.372723769    12.980490766   0   0   0 # obsk
     74      1   1 -1.050000     2.121596142    17.337723769     3.833824099   0   0   0 # obsk
     75      1   1 -1.050000     0.668116839    19.855223769     8.407157432   0   0   0 # obsk
     76      1   1 -1.050000     0.522768909    19.603473769    12.980490766   0   0   0 # obsk
     77      1   1 -1.050000     3.429727514    19.603473769     3.833824099   0   0   0 # obsk
     78      1   1 -1.050000     1.976248212    22.120973769     8.407157432   0   0   0 # obsk
     79      1   2  1.575000    25.376497536    18.848223769     7.561090766   0   0   0 # feok
     80      1   2  1.575000     2.121596142    18.848223769    12.134424099   0   0   0 # feok
     81      1   2  1.575000     0.668116839    21.365723769     2.987757432   0   0   0 # feok
     82      1   2  1.575000    25.376497536    18.848223769     4.679890766   0   0   0 # feok
     83      1   2  1.575000     2.121596142    18.848223769     9.253224099   0   0   0 # feok
     84      1   2  1.575000     0.668116839    21.365723769    13.826557432   0   0   0 # feok
     85      1   2  1.575000    25.376497536    18.848223769    11.539890766   0   0   0 # feok
     86      1   2  1.575000     2.121596142    18.848223769    16.113224099   0   0   0 # feok
     87      1   2  1.575000     0.668116839    21.365723769     6.966557432   0   0   0 # feok
     88      1   2  1.575000    25.376497536    18.848223769    14.421090766   0   0   0 # feok
     89      1   2  1.575000     2.121596142    18.848223769     5.274424099   0   0   0 # feok
     90      1   2  1.575000     0.668116839    21.365723769     9.847757432   0   0   0 # feok
     91      1   1 -1.050000     0.522768909    18.092973769    19.840490766   0   0   0 # obsk
     92      1   1 -1.050000     3.429727514    18.092973769    24.413824099   0   0   0 # obsk
     93      1   1 -1.129000     1.976248212    20.610473769    28.987157432   0   0   0 # obsk
     94      1   1 -1.050000    25.376497536    20.358723769    19.840490766   0   0   0 # obsk
     95      1   1 -1.050000     2.121596142    20.358723769    24.413824099   0   0   0 # obsk
     96      1   1 -1.050000     0.668116839    22.876223769    28.987157432   0   0   0 # obsk
     97      1   1 -1.050000     2.266944072    20.610473769    19.840490766   0   0   0 # obsk
     98      1   1 -1.050000     0.813464769    18.092973769    24.413824099   0   0   0 # obsk
     99      1   1 -1.050000    25.521845467    20.610473769    28.987157432   0   0   0 # obsk
    100      1   1 -1.050000     2.266944072    17.085973769    26.700490766   0   0   0 # obsk
    101      1   1 -1.050000     0.813464769    19.603473769    17.553824099   0   0   0 # obsk
    102      1   1 -1.050000    25.521845467    22.120973769    22.127157432   0   0   0 # obsk
    103      1   1 -1.050000    25.376497536    22.372723769    26.700490766   0   0   0 # obsk
    104      1   1 -1.050000     2.121596142    17.337723769    17.553824099   0   0   0 # obsk
    105      1   1 -1.050000     0.668116839    19.855223769    22.127157432   0   0   0 # obsk
    106      1   1 -1.050000     0.522768909    19.603473769    26.700490766   0   0   0 # obsk
    107      1   1 -1.050000     3.429727514    19.603473769    17.553824099   0   0   0 # obsk
    108      1   1 -1.050000     1.976248212    22.120973769    22.127157432   0   0   0 # obsk
    109      1   2  1.575000    25.376497536    18.848223769    21.281090766   0   0   0 # feok
    110      1   2  1.575000     2.121596142    18.848223769    25.854424099   0   0   0 # feok
    111      1   2  1.575000     0.668116839    21.365723769    16.707757432   0   0   0 # feok
    112      1   2  1.575000    25.376497536    18.848223769    18.399890766   0   0   0 # feok
    113      1   2  1.575000     2.121596142    18.848223769    22.973224099   0   0   0 # feok
    114      1   2  1.575000     0.668116839    21.365723769    27.546557432   0   0   0 # feok
    115      1   2  1.575000    25.376497536    18.848223769    25.259890766   0   0   0 # feok
    116      1   2  1.496000     2.121596142    18.848223769    29.833224099   0   0   0 # feok
    117      1   2  1.575000     0.668116839    21.365723769    20.686557432   0   0   0 # feok
    118      1   2  1.575000    25.376497536    18.848223769    28.141090766   0   0   0 # feok
    119      1   2  1.575000     2.121596142    18.848223769    18.994424099   0   0   0 # feok
    120      1   2  1.575000     0.668116839    21.365723769    23.567757432   0   0   0 # feok
    121      1   1 -1.050000     4.883206817    15.575473769     6.120490766   0   0   0 # obsk
    122      1   1 -1.050000     7.790165422    15.575473769    10.693824099   0   0   0 # obsk
    123      1   1 -1.050000     6.336686120    18.092973769    15.267157432   0   0   0 # obsk
    124      1   1 -1.050000     3.575075445    17.841223769     6.120490766   0   0   0 # obsk
    125      1   1 -1.050000     6.482034050    17.841223769    10.693824099   0   0   0 # obsk
    126      1   1 -1.050000     5.028554747    20.358723769    15.267157432   0   0   0 # obsk
    127      1   1 -1.050000     6.627381980    18.092973769     6.120490766   0   0   0 # obsk
    128      1   1 -1.050000     5.173902677    15.575473769    10.693824099   0   0   0 # obsk
    129      1   1 -1.050000     3.720423375    18.092973769    15.267157432   0   0   0 # obsk
    130      1   1 -1.050000     6.627381980    14.568473769    12.980490766   0   0   0 # obsk
    131      1   1 -1.050000     5.173902677    17.085973769     3.833824099   0   0   0 # obsk
    132      1   1 -1.050000     3.720423375    19.603473769     8.407157432   0   0   0 # obsk
    133      1   1 -1.050000     3.575075445    19.855223769    12.980490766   0   0   0 # obsk
    134      1   1 -1.050000     6.482034050    14.820223769     3.833824099   0   0   0 # obsk
    135      1   1 -1.050000     5.028554747    17.337723769     8.407157432   0   0   0 # obsk
    136      1   1 -1.050000     4.883206817    17.085973769    12.980490766   0   0   0 # obsk
    137      1   1 -1.050000     7.790165422    17.085973769     3.833824099   0   0   0 # obsk
    138      1   1 -1.050000     6.336686120    19.603473769     8.407157432   0   0   0 # obsk
    139      1   2  1.575000     3.575075445    16.330723769     7.561090766   0   0   0 # feok
    140      1   2  1.575000     6.482034050    16.330723769    12.134424099   0   0   0 # feok
    141      1   2  1.575000     5.028554747    18.848223769     2.987757432   0   0   0 # feok
    142      1   2  1.575000     3.575075445    16.330723769     4.679890766   0   0   0 # feok
    143      1   2  1.575000     6.482034050    16.330723769     9.253224099   0   0   0 # feok
    144      1   2  1.575000     5.028554747    18.848223769    13.826557432   0   0   0 # feok
    145      1   2  1.575000     3.575075445    16.330723769    11.539890766   0   0   0 # feok
    146      1   2  1.575000     6.482034050    16.330723769    16.113224099   0   0   0 # feok
    147      1   2  1.575000     5.028554747    18.848223769     6.966557432   0   0   0 # feok
    148      1   2  1.575000     3.575075445    16.330723769    14.421090766   0   0   0 # feok
    149      1   2  1.575000     6.482034050    16.330723769     5.274424099   0   0   0 # feok
    150      1   2  1.575000     5.028554747    18.848223769     9.847757432   0   0   0 # feok
    151      1   1 -1.050000     4.883206817    15.575473769    19.840490766   0   0   0 # obsk
    152      1   1 -1.050000     7.790165422    15.575473769    24.413824099   0   0   0 # obsk
    153      1   1 -1.050000     6.336686120    18.092973769    28.987157432   0   0   0 # obsk
    154      1   1 -1.050000     3.575075445    17.841223769    19.840490766   0   0   0 # obsk
    155      1   1 -1.050000     6.482034050    17.841223769    24.413824099   0   0   0 # obsk
    156      1   1 -1.050000     5.028554747    20.358723769    28.987157432   0   0   0 # obsk
    157      1   1 -1.050000     6.627381980    18.092973769    19.840490766   0   0   0 # obsk
    158      1   1 -1.050000     5.173902677    15.575473769    24.413824099   0   0   0 # obsk
    159      1   1 -1.129000     3.720423375    18.092973769    28.987157432   0   0   0 # obsk
    160      1   1 -1.050000     6.627381980    14.568473769    26.700490766   0   0   0 # obsk
    161      1   1 -1.050000     5.173902677    17.085973769    17.553824099   0   0   0 # obsk
    162      1   1 -1.050000     3.720423375    19.603473769    22.127157432   0   0   0 # obsk
    163      1   1 -1.050000     3.575075445    19.855223769    26.700490766   0   0   0 # obsk
    164      1   1 -1.050000     6.482034050    14.820223769    17.553824099   0   0   0 # obsk
    165      1   1 -1.050000     5.028554747    17.337723769    22.127157432   0   0   0 # obsk
    166      1   1 -1.050000     4.883206817    17.085973769    26.700490766   0   0   0 # obsk
    167      1   1 -1.050000     7.790165422    17.085973769    17.553824099   0   0   0 # obsk
    168      1   1 -1.050000     6.336686120    19.603473769    22.127157432   0   0   0 # obsk
    169      1   2  1.575000     3.575075445    16.330723769    21.281090766   0   0   0 # feok
    170      1   2  1.575000     6.482034050    16.330723769    25.854424099   0   0   0 # feok
    171      1   2  1.575000     5.028554747    18.848223769    16.707757432   0   0   0 # feok
    172      1   2  1.575000     3.575075445    16.330723769    18.399890766   0   0   0 # feok
    173      1   2  1.575000     6.482034050    16.330723769    22.973224099   0   0   0 # feok
    174      1   2  1.575000     5.028554747    18.848223769    27.546557432   0   0   0 # feok
    175      1   2  1.575000     3.575075445    16.330723769    25.259890766   0   0   0 # feok
    176      1   2  1.575000     6.482034050    16.330723769    29.833224099   0   0   0 # feok
    177      1   2  1.575000     5.028554747    18.848223769    20.686557432   0   0   0 # feok
    178      1   2  1.575000     3.575075445    16.330723769    28.141090766   0   0   0 # feok
    179      1   2  1.575000     6.482034050    16.330723769    18.994424099   0   0   0 # feok
    180      1   2  1.575000     5.028554747    18.848223769    23.567757432   0   0   0 # feok
    181      1   1 -1.050000     9.243644725    13.057973769     6.120490766   0   0   0 # obsk
    182      1   1 -1.050000    12.150603330    13.057973769    10.693824099   0   0   0 # obsk
    183      1   1 -1.050000    10.697124028    15.575473769    15.267157432   0   0   0 # obsk
    184      1   1 -1.050000     7.935513353    15.323723769     6.120490766   0   0   0 # obsk
    185      1   1 -1.050000    10.842471958    15.323723769    10.693824099   0   0   0 # obsk
    186      1   1 -1.050000     9.388992655    17.841223769    15.267157432   0   0   0 # obsk
    187      1   1 -1.050000    10.987819888    15.575473769     6.120490766   0   0   0 # obsk
    188      1   1 -1.050000     9.534340586    13.057973769    10.693824099   0   0   0 # obsk
    189      1   1 -1.050000     8.080861283    15.575473769    15.267157432   0   0   0 # obsk
    190      1   1 -1.050000    10.987819888    12.050973769    12.980490766   0   0   0 # obsk
    191      1   1 -1.050000     9.534340586    14.568473769     3.833824099   0   0   0 # obsk
    192      1   1 -1.050000     8.080861283    17.085973769     8.407157432   0   0   0 # obsk
    193      1   1 -1.050000     7.935513353    17.337723769    12.980490766   0   0   0 # obsk
    194      1   1 -1.050000    10.842471958    12.302723769     3.833824099   0   0   0 # obsk
    195      1   1 -1.050000     9.388992655    14.820223769     8.407157432   0   0   0 # obsk
    196      1   1 -1.050000     9.243644725    14.568473769    12.980490766   0   0   0 # obsk
    197      1   1 -1.050000    12.150603330    14.568473769     3.833824099   0   0   0 # obsk
    198      1   1 -1.050000    10.697124028    17.085973769     8.407157432   0   0   0 # obsk
    199      1   2  1.575000     7.935513353    13.813223769     7.561090766   0   0   0 # feok
    200      1   2  1.575000    10.842471958    13.813223769    12.134424099   0   0   0 # feok
    201      1   2  1.575000     9.388992655    16.330723769     2.987757432   0   0   0 # feok
    202      1   2  1.575000     7.935513353    13.813223769     4.679890766   0   0   0 # feok
    203      1   2  1.575000    10.842471958    13.813223769     9.253224099   0   0   0 # feok
    204      1   2  1.575000     9.388992655    16.330723769    13.826557432   0   0   0 # feok
    205      1   2  1.575000     7.935513353    13.813223769    11.539890766   0   0   0 # feok
    206      1   2  1.575000    10.842471958    13.813223769    16.113224099   0   0   0 # feok
    207      1   2  1.575000     9.388992655    16.330723769     6.966557432   0   0   0 # feok
    208      1   2  1.575000     7.935513353    13.813223769    14.421090766   0   0   0 # feok
    209      1   2  1.575000    10.842471958    13.813223769     5.274424099   0   0   0 # feok
    210      1   2  1.575000     9.388992655    16.330723769     9.847757432   0   0   0 # feok
    211      1   1 -1.050000     9.243644725    13.057973769    19.840490766   0   0   0 # obsk
    212      1   1 -1.050000    12.150603330    13.057973769    24.413824099   0   0   0 # obsk
    213      1   1 -1.050000    10.697124028    15.575473769    28.987157432   0   0   0 # obsk
    214      1   1 -1.050000     7.935513353    15.323723769    19.840490766   0   0   0 # obsk
    215      1   1 -1.050000    10.842471958    15.323723769    24.413824099   0   0   0 # obsk
    216      1   1 -1.050000     9.388992655    17.841223769    28.987157432   0   0   0 # obsk
    217      1   1 -1.050000    10.987819888    15.575473769    19.840490766   0   0   0 # obsk
    218      1   1 -1.050000     9.534340586    13.057973769    24.413824099   0   0   0 # obsk
    219      1   1 -1.050000     8.080861283    15.575473769    28.987157432   0   0   0 # obsk
    220      1   1 -1.050000    10.987819888    12.050973769    26.700490766   0   0   0 # obsk
    221      1   1 -1.050000     9.534340586    14.568473769    17.553824099   0   0   0 # obsk
    222      1   1 -1.050000     8.080861283    17.085973769    22.127157432   0   0   0 # obsk
    223      1   1 -1.050000     7.935513353    17.337723769    26.700490766   0   0   0 # obsk
    224      1   1 -1.050000    10.842471958    12.302723769    17.553824099   0   0   0 # obsk
    225      1   1 -1.050000     9.388992655    14.820223769    22.127157432   0   0   0 # obsk
    226      1   1 -1.050000     9.243644725    14.568473769    26.700490766   0   0   0 # obsk
    227      1   1 -1.050000    12.150603330    14.568473769    17.553824099   0   0   0 # obsk
    228      1   1 -1.050000    10.697124028    17.085973769    22.127157432   0   0   0 # obsk
    229      1   2  1.575000     7.935513353    13.813223769    21.281090766   0   0   0 # feok
    230      1   2  1.575000    10.842471958    13.813223769    25.854424099   0   0   0 # feok
    231      1   2  1.575000     9.388992655    16.330723769    16.707757432   0   0   0 # feok
    232      1   2  1.575000     7.935513353    13.813223769    18.399890766   0   0   0 # feok
    233      1   2  1.575000    10.842471958    13.813223769    22.973224099   0   0   0 # feok
    234      1   2  1.575000     9.388992655    16.330723769    27.546557432   0   0   0 # feok
    235      1   2  1.575000     7.935513353    13.813223769    25.259890766   0   0   0 # feok
    236      1   2  1.575000    10.842471958    13.813223769    29.833224099   0   0   0 # feok
    237      1   2  1.575000     9.388992655    16.330723769    20.686557432   0   0   0 # feok
    238      1   2  1.575000     7.935513353    13.813223769    28.141090766   0   0   0 # feok
    239      1   2  1.575000    10.842471958    13.813223769    18.994424099   0   0   0 # feok
    240      1   2  1.575000     9.388992655    16.330723769    23.567757432   0   0   0 # feok
    241      1   1 -1.050000    13.604082633    10.540473769     6.120490766   0   0   0 # obsk
    242      1   1 -1.050000    16.511041238    10.540473769    10.693824099   0   0   0 # obsk
    243      1   1 -1.050000    15.057561936    13.057973769    15.267157432   0   0   0 # obsk
    244      1   1 -1.050000    12.295951261    12.806223769     6.120490766   0   0   0 # obsk
    245      1   1 -1.050000    15.202909866    12.806223769    10.693824099   0   0   0 # obsk
    246      1   1 -1.050000    13.749430563    15.323723769    15.267157432   0   0   0 # obsk
    247      1   1 -1.050000    15.348257796    13.057973769     6.120490766   0   0   0 # obsk
    248      1   1 -1.050000    13.894778494    10.540473769    10.693824099   0   0   0 # obsk
    249      1   1 -1.050000    12.441299191    13.057973769    15.267157432   0   0   0 # obsk
    250      1   1 -1.050000    15.348257796     9.533473769    12.980490766   0   0   0 # obsk
    251      1   1 -1.050000    13.894778494    12.050973769     3.833824099   0   0   0 # obsk
    252      1   1 -1.050000    12.441299191    14.568473769     8.407157432   0   0   0 # obsk
    253      1   1 -1.050000    12.295951261    14.820223769    12.980490766   0   0   0 # obsk
    254      1   1 -1.050000    15.202909866     9.785223769     3.833824099   0   0   0 # obsk
    255      1   1 -1.050000    13.749430563    12.302723769     8.407157432   0   0   0 # obsk
    256      1   1 -1.050000    13.604082633    12.050973769    12.980490766   0   0   0 # obsk
    257      1   1 -1.050000    16.511041238    12.050973769     3.833824099   0   0   0 # obsk
    258      1   1 -1.050000    15.057561936    14.568473769     8.407157432   0   0   0 # obsk
    259      1   2  1.575000    12.295951261    11.295723769     7.561090766   0   0   0 # feok
    260      1   2  1.575000    15.202909866    11.295723769    12.134424099   0   0   0 # feok
    261      1   2  1.575000    13.749430563    13.813223769     2.987757432   0   0   0 # feok
    262      1   2  1.575000    12.295951261    11.295723769     4.679890766   0   0   0 # feok
    263      1   2  1.575000    15.202909866    11.295723769     9.253224099   0   0   0 # feok
    264      1   2  1.575000    13.749430563    13.813223769    13.826557432   0   0   0 # feok
    265      1   2  1.575000    12.295951261    11.295723769    11.539890766   0   0   0 # feok
    266      1   2  1.575000    15.202909866    11.295723769    16.113224099   0   0   0 # feok
    267      1   2  1.575000    13.749430563    13.813223769     6.966557432   0   0   0 # feok
    268      1   2  1.575000    12.295951261    11.295723769    14.421090766   0   0   0 # feok
    269      1   2  1.575000    15.202909866    11.295723769     5.274424099   0   0   0 # feok
    270      1   2  1.575000    13.749430563    13.813223769     9.847757432   0   0   0 # feok
    271      1   1 -1.050000    13.604082633    10.540473769    19.840490766   0   0   0 # obsk
    272      1   1 -1.050000    16.511041238    10.540473769    24.413824099   0   0   0 # obsk
    273      1   1 -1.050000    15.057561936    13.057973769    28.987157432   0   0   0 # obsk
    274      1   1 -1.050000    12.295951261    12.806223769    19.840490766   0   0   0 # obsk
    275      1   1 -1.050000    15.202909866    12.806223769    24.413824099   0   0   0 # obsk
    276      1   1 -1.129000    13.749430563    15.323723769    28.987157432   0   0   0 # obsk
    277      1   1 -1.050000    15.348257796    13.057973769    19.840490766   0   0   0 # obsk
    278      1   1 -1.050000    13.894778494    10.540473769    24.413824099   0   0   0 # obsk
    279      1   1 -1.050000    12.441299191    13.057973769    28.987157432   0   0   0 # obsk
    280      1   1 -1.050000    15.348257796     9.533473769    26.700490766   0   0   0 # obsk
    281      1   1 -1.050000    13.894778494    12.050973769    17.553824099   0   0   0 # obsk
    282      1   1 -1.050000    12.441299191    14.568473769    22.127157432   0   0   0 # obsk
    283      1   1 -1.050000    12.295951261    14.820223769    26.700490766   0   0   0 # obsk
    284      1   1 -1.050000    15.202909866     9.785223769    17.553824099   0   0   0 # obsk
    285      1   1 -1.050000    13.749430563    12.302723769    22.127157432   0   0   0 # obsk
    286      1   1 -1.050000    13.604082633    12.050973769    26.700490766   0   0   0 # obsk
    287      1   1 -1.050000    16.511041238    12.050973769    17.553824099   0   0   0 # obsk
    288      1   1 -1.050000    15.057561936    14.568473769    22.127157432   0   0   0 # obsk
    289      1   2  1.575000    12.295951261    11.295723769    21.281090766   0   0   0 # feok
    290      1   2  1.575000    15.202909866    11.295723769    25.854424099   0   0   0 # feok
    291      1   2  1.575000    13.749430563    13.813223769    16.707757432   0   0   0 # feok
    292      1   2  1.575000    12.295951261    11.295723769    18.399890766   0   0   0 # feok
    293      1   2  1.575000    15.202909866    11.295723769    22.973224099   0   0   0 # feok
    294      1   2  1.575000    13.749430563    13.813223769    27.546557432   0   0   0 # feok
    295      1   2  1.575000    12.295951261    11.295723769    25.259890766   0   0   0 # feok
    296      1   2  1.575000    15.202909866    11.295723769    29.833224099   0   0   0 # feok
    297      1   2  1.575000    13.749430563    13.813223769    20.686557432   0   0   0 # feok
    298      1   2  1.575000    12.295951261    11.295723769    28.141090766   0   0   0 # feok
    299      1   2  1.575000    15.202909866    11.295723769    18.994424099   0   0   0 # feok
    300      1   2  1.575000    13.749430563    13.813223769    23.567757432   0   0   0 # feok
    301      1   1 -1.050000    17.964520541     8.022973769     6.120490766   0   0   0 # obsk
    302      1   1 -1.050000    20.871479146     8.022973769    10.693824099   0   0   0 # obsk
    303      1   1 -1.050000    19.417999844    10.540473769    15.267157432   0   0   0 # obsk
    304      1   1 -1.050000    16.656389169    10.288723769     6.120490766   0   0   0 # obsk
    305      1   1 -1.050000    19.563347774    10.288723769    10.693824099   0   0   0 # obsk
    306      1   1 -1.050000    18.109868471    12.806223769    15.267157432   0   0   0 # obsk
    307      1   1 -1.050000    19.708695704    10.540473769     6.120490766   0   0   0 # obsk
    308      1   1 -1.050000    18.255216402     8.022973769    10.693824099   0   0   0 # obsk
    309      1   1 -1.050000    16.801737099    10.540473769    15.267157432   0   0   0 # obsk
    310      1   1 -1.050000    19.708695704     7.015973769    12.980490766   0   0   0 # obsk
    311      1   1 -1.050000    18.255216402     9.533473769     3.833824099   0   0   0 # obsk
    312      1   1 -1.050000    16.801737099    12.050973769     8.407157432   0   0   0 # obsk
    313      1   1 -1.050000    16.656389169    12.302723769    12.980490766   0   0   0 # obsk
    314      1   1 -1.050000    19.563347774     7.267723769     3.833824099   0   0   0 # obsk
    315      1   1 -1.050000    18.109868471     9.785223769     8.407157432   0   0   0 # obsk
    316      1   1 -1.050000    17.964520541     9.533473769    12.980490766   0   0   0 # obsk
    317      1   1 -1.050000    20.871479146     9.533473769     3.833824099   0   0   0 # obsk
    318      1   1 -1.050000    19.417999844    12.050973769     8.407157432   0   0   0 # obsk
    319      1   2  1.575000    16.656389169     8.778223769     7.561090766   0   0   0 # feok
    320      1   2  1.575000    19.563347774     8.778223769    12.134424099   0   0   0 # feok
    321      1   2  1.575000    18.109868471    11.295723769     2.987757432   0   0   0 # feok
    322      1   2  1.575000    16.656389169     8.778223769     4.679890766   0   0   0 # feok
    323      1   2  1.575000    19.563347774     8.778223769     9.253224099   0   0   0 # feok
    324      1   2  1.575000    18.109868471    11.295723769    13.826557432   0   0   0 # feok
    325      1   2  1.575000    16.656389169     8.778223769    11.539890766   0   0   0 # feok
    326      1   2  1.575000    19.563347774     8.778223769    16.113224099   0   0   0 # feok
    327      1   2  1.575000    18.109868471    11.295723769     6.966557432   0   0   0 # feok
    328      1   2  1.575000    16.656389169     8.778223769    14.421090766   0   0   0 # feok
    329      1   2  1.575000    19.563347774     8.778223769     5.274424099   0   0   0 # feok
    330      1   2  1.575000    18.109868471    11.295723769     9.847757432   0   0   0 # feok
    331      1   1 -1.050000    17.964520541     8.022973769    19.840490766   0   0   0 # obsk
    332      1   1 -1.050000    20.871479146     8.022973769    24.413824099   0   0   0 # obsk
    333      1   1 -1.050000    19.417999844    10.540473769    28.987157432   0   0   0 # obsk
    334      1   1 -1.050000    16.656389169    10.288723769    19.840490766   0   0   0 # obsk
    335      1   1 -1.050000    19.563347774    10.288723769    24.413824099   0   0   0 # obsk
    336      1   1 -1.050000    18.109868471    12.806223769    28.987157432   0   0   0 # obsk
    337      1   1 -1.050000    19.708695704    10.540473769    19.840490766   0   0   0 # obsk
    338      1   1 -1.050000    18.255216402     8.022973769    24.413824099   0   0   0 # obsk
    339      1   1 -1.050000    16.801737099    10.540473769    28.987157432   0   0   0 # obsk
    340      1   1 -1.050000    19.708695704     7.015973769    26.700490766   0   0   0 # obsk
    341      1   1 -1.050000    18.255216402     9.533473769    17.553824099   0   0   0 # obsk
    342      1   1 -1.050000    16.801737099    12.050973769    22.127157432   0   0   0 # obsk
    343      1   1 -1.050000    16.656389169    12.302723769    26.700490766   0   0   0 # obsk
    344      1   1 -1.050000    19.563347774     7.267723769    17.553824099   0   0   0 # obsk
    345      1   1 -1.050000    18.109868471     9.785223769    22.127157432   0   0   0 # obsk
    346      1   1 -1.050000    17.964520541     9.533473769    26.700490766   0   0   0 # obsk
    347      1   1 -1.050000    20.871479146     9.533473769    17.553824099   0   0   0 # obsk
    348      1   1 -1.050000    19.417999844    12.050973769    22.127157432   0   0   0 # obsk
    349      1   2  1.575000    16.656389169     8.778223769    21.281090766   0   0   0 # feok
    350      1   2  1.575000    19.563347774     8.778223769    25.854424099   0   0   0 # feok
    351      1   2  1.575000    18.109868471    11.295723769    16.707757432   0   0   0 # feok
    352      1   2  1.575000    16.656389169     8.778223769    18.399890766   0   0   0 # feok
    353      1   2  1.575000    19.563347774     8.778223769    22.973224099   0   0   0 # feok
    354      1   2  1.575000    18.109868471    11.295723769    27.546557432   0   0   0 # feok
    355      1   2  1.575000    16.656389169     8.778223769    25.259890766   0   0   0 # feok
    356      1   2  1.575000    19.563347774     8.778223769    29.833224099   0   0   0 # feok
    357      1   2  1.575000    18.109868471    11.295723769    20.686557432   0   0   0 # feok
    358      1   2  1.575000    16.656389169     8.778223769    28.141090766   0   0   0 # feok
    359      1   2  1.575000    19.563347774     8.778223769    18.994424099   0   0   0 # feok
    360      1   2  1.575000    18.109868471    11.295723769    23.567757432   0   0   0 # feok
    361      1   1 -1.050000    22.324191001     0.470473769     6.120490766   0   0   0 # obsk
    362      1   1 -1.050000    25.231149606     0.470473769    10.693824099   0   0   0 # obsk
    363      1   1 -1.050000    23.777670304     2.987973769    15.267157432   0   0   0 # obsk
    364      1   1 -1.050000    21.016059628     2.736223769     6.120490766   0   0   0 # obsk
    365      1   1 -1.050000    23.923018234     2.736223769    10.693824099   0   0   0 # obsk
    366      1   1 -1.050000    22.469538931     5.253723769    15.267157432   0   0   0 # obsk
    367      1   1 -1.050000    24.068366164     2.987973769     6.120490766   0   0   0 # obsk
    368      1   1 -1.050000    22.614886861     0.470473769    10.693824099   0   0   0 # obsk
    369      1   1 -1.050000    21.161407559     2.987973769    15.267157432   0   0   0 # obsk
    370      1   1 -1.050000    24.068366164    24.638473769    12.980490766   0   0   0 # obsk
    371      1   1 -1.050000    22.614886861     1.980973769     3.833824099   0   0   0 # obsk
    372      1   1 -1.050000    21.161407559     4.498473769     8.407157432   0   0   0 # obsk
    373      1   1 -1.050000    21.016059628     4.750223769    12.980490766   0   0   0 # obsk
    374      1   1 -1.050000    23.923018234    24.890223769     3.833824099   0   0   0 # obsk
    375      1   1 -1.050000    22.469538931     2.232723769     8.407157432   0   0   0 # obsk
    376      1   1 -1.050000    22.324191001     1.980973769    12.980490766   0   0   0 # obsk
    377      1   1 -1.050000    25.231149606     1.980973769     3.833824099   0   0   0 # obsk
    378      1   1 -1.050000    23.777670304     4.498473769     8.407157432   0   0   0 # obsk
    379      1   2  1.575000    21.016059628     1.225723769     7.561090766   0   0   0 # feok
    380      1   2  1.575000    23.923018234     1.225723769    12.134424099   0   0   0 # feok
    381      1   2  1.575000    22.469538931     3.743223769     2.987757432   0   0   0 # feok
    382      1   2  1.575000    21.016059628     1.225723769     4.679890766   0   0   0 # feok
    383      1   2  1.575000    23.923018234     1.225723769     9.253224099   0   0   0 # feok
    384      1   2  1.575000    22.469538931     3.743223769    13.826557432   0   0   0 # feok
    385      1   2  1.575000    21.016059628     1.225723769    11.539890766   0   0   0 # feok
    386      1   2  1.575000    23.923018234     1.225723769    16.113224099   0   0   0 # feok
    387      1   2  1.575000    22.469538931     3.743223769     6.966557432   0   0   0 # feok
    388      1   2  1.575000    21.016059628     1.225723769    14.421090766   0   0   0 # feok
    389      1   2  1.575000    23.923018234     1.225723769     5.274424099   0   0   0 # feok
    390      1   2  1.575000    22.469538931     3.743223769     9.847757432   0   0   0 # feok
    391      1   1 -1.050000    22.324191001     0.470473769    19.840490766   0   0   0 # obsk
    392      1   1 -1.050000    25.231149606     0.470473769    24.413824099   0   0   0 # obsk
    393      1   1 -1.050000    23.777670304     2.987973769    28.987157432   0   0   0 # obsk
    394      1   1 -1.050000    21.016059628     2.736223769    19.840490766   0   0   0 # obsk
    395      1   1 -1.050000    23.923018234     2.736223769    24.413824099   0   0   0 # obsk
    396      1   1 -1.050000    22.469538931     5.253723769    28.987157432   0   0   0 # obsk
    397      1   1 -1.050000    24.068366164     2.987973769    19.840490766   0   0   0 # obsk
    398      1   1 -1.050000    22.614886861     0.470473769    24.413824099   0   0   0 # obsk
    399      1   1 -1.129000    21.161407559     2.987973769    28.987157432   0   0   0 # obsk
    400      1   1 -1.050000    24.068366164    24.638473769    26.700490766   0   0   0 # obsk
    401      1   1 -1.050000    22.614886861     1.980973769    17.553824099   0   0   0 # obsk
    402      1   1 -1.050000    21.161407559     4.498473769    22.127157432   0   0   0 # obsk
    403      1   1 -1.050000    21.016059628     4.750223769    26.700490766   0   0   0 # obsk
    404      1   1 -1.050000    23.923018234    24.890223769    17.553824099   0   0   0 # obsk
    405      1   1 -1.050000    22.469538931     2.232723769    22.127157432   0   0   0 # obsk
    406      1   1 -1.050000    22.324191001     1.980973769    26.700490766   0   0   0 # obsk
    407      1   1 -1.050000    25.231149606     1.980973769    17.553824099   0   0   0 # obsk
    408      1   1 -1.050000    23.777670304     4.498473769    22.127157432   0   0   0 # obsk
    409      1   2  1.575000    21.016059628     1.225723769    21.281090766   0   0   0 # feok
    410      1   2  1.575000    23.923018234     1.225723769    25.854424099   0   0   0 # feok
    411      1   2  1.575000    22.469538931     3.743223769    16.707757432   0   0   0 # feok
    412      1   2  1.575000    21.016059628     1.225723769    18.399890766   0   0   0 # feok
    413      1   2  1.575000    23.923018234     1.225723769    22.973224099   0   0   0 # feok
    414      1   2  1.575000    22.469538931     3.743223769    27.546557432   0   0   0 # feok
    415      1   2  1.575000    21.016059628     1.225723769    25.259890766   0   0   0 # feok
    416      1   2  1.575000    23.923018234     1.225723769    29.833224099   0   0   0 # feok
    417      1   2  1.575000    22.469538931     3.743223769    20.686557432   0   0   0 # feok
    418      1   2  1.575000    21.016059628     1.225723769    28.141090766   0   0   0 # feok
    419      1   2  1.575000    23.923018234     1.225723769    18.994424099   0   0   0 # feok
    420      1   2  1.575000    22.469538931     3.743223769    23.567757432   0   0   0 # feok
    421      1   1 -1.050000     0.522768909    23.127973769     6.120490766   0   0   0 # obsk
    422      1   1 -1.050000     3.429727514    23.127973769    10.693824099   0   0   0 # obsk
    423      1   1 -1.050000     1.976248212     0.470473769    15.267157432   0   0   0 # obsk
    424      1   1 -1.050000    25.376497536     0.218723769     6.120490766   0   0   0 # obsk
    425      1   1 -1.050000     2.121596142     0.218723769    10.693824099   0   0   0 # obsk
    426      1   1 -1.050000     0.668116839     2.736223769    15.267157432   0   0   0 # obsk
    427      1   1 -1.050000     2.266944072     0.470473769     6.120490766   0   0   0 # obsk
    428      1   1 -1.050000     0.813464769    23.127973769    10.693824099   0   0   0 # obsk
    429      1   1 -1.050000    25.521845467     0.470473769    15.267157432   0   0   0 # obsk
    430      1   1 -1.050000     2.266944072    22.120973769    12.980490766   0   0   0 # obsk
    431      1   1 -1.050000     0.813464769    24.638473769     3.833824099   0   0   0 # obsk
    432      1   1 -1.050000    25.521845467     1.980973769     8.407157432   0   0   0 # obsk
    433      1   1 -1.050000    25.376497536     2.232723769    12.980490766   0   0   0 # obsk
    434      1   1 -1.050000     2.121596142    22.372723769     3.833824099   0   0   0 # obsk
    435      1   1 -1.050000     0.668116839    24.890223769     8.407157432   0   0   0 # obsk
    436      1   1 -1.050000     0.522768909    24.638473769    12.980490766   0   0   0 # obsk
    437      1   1 -1.050000     3.429727514    24.638473769     3.833824099   0   0   0 # obsk
    438      1   1 -1.050000     1.976248212     1.980973769     8.407157432   0   0   0 # obsk
    439      1   2  1.575000    25.376497536    23.883223769     7.561090766   0   0   0 # feok
    440      1   2  1.575000     2.121596142    23.883223769    12.134424099   0   0   0 # feok
    441      1   2  1.575000     0.668116839     1.225723769     2.987757432   0   0   0 # feok
    442      1   2  1.575000    25.376497536    23.883223769     4.679890766   0   0   0 # feok
    443      1   2  1.575000     2.121596142    23.883223769     9.253224099   0   0   0 # feok
    444      1   2  1.575000     0.668116839     1.225723769    13.826557432   0   0   0 # feok
    445      1   2  1.575000    25.376497536    23.883223769    11.539890766   0   0   0 # feok
    446      1   2  1.575000     2.121596142    23.883223769    16.113224099   0   0   0 # feok
    447      1   2  1.575000     0.668116839     1.225723769     6.966557432   0   0   0 # feok
    448      1   2  1.575000    25.376497536    23.883223769    14.421090766   0   0   0 # feok
    449      1   2  1.575000     2.121596142    23.883223769     5.274424099   0   0   0 # feok
    450      1   2  1.575000     0.668116839     1.225723769     9.847757432   0   0   0 # feok
    451      1   1 -1.050000     0.522768909    23.127973769    19.840490766   0   0   0 # obsk
    452      1   1 -1.050000     3.429727514    23.127973769    24.413824099   0   0   0 # obsk
    453      1   1 -1.050000     1.976248212     0.470473769    28.987157432   0   0   0 # obsk
    454      1   1 -1.050000    25.376497536     0.218723769    19.840490766   0   0   0 # obsk
    455      1   1 -1.050000     2.121596142     0.218723769    24.413824099   0   0   0 # obsk
    456      1   1 -1.050000     0.668116839     2.736223769    28.987157432   0   0   0 # obsk
    457      1   1 -1.050000     2.266944072     0.470473769    19.840490766   0   0   0 # obsk
    458      1   1 -1.050000     0.813464769    23.127973769    24.413824099   0   0   0 # obsk
    459      1   1 -1.050000    25.521845467     0.470473769    28.987157432   0   0   0 # obsk
    460      1   1 -1.050000     2.266944072    22.120973769    26.700490766   0   0   0 # obsk
    461      1   1 -1.050000     0.813464769    24.638473769    17.553824099   0   0   0 # obsk
    462      1   1 -1.050000    25.521845467     1.980973769    22.127157432   0   0   0 # obsk
    463      1   1 -1.050000    25.376497536     2.232723769    26.700490766   0   0   0 # obsk
    464      1   1 -1.050000     2.121596142    22.372723769    17.553824099   0   0   0 # obsk
    465      1   1 -1.050000     0.668116839    24.890223769    22.127157432   0   0   0 # obsk
    466      1   1 -1.050000     0.522768909    24.638473769    26.700490766   0   0   0 # obsk
    467      1   1 -1.050000     3.429727514    24.638473769    17.553824099   0   0   0 # obsk
    468      1   1 -1.050000     1.976248212     1.980973769    22.127157432   0   0   0 # obsk
    469      1   2  1.575000    25.376497536    23.883223769    21.281090766   0   0   0 # feok
    470      1   2  1.575000     2.121596142    23.883223769    25.854424099   0   0   0 # feok
    471      1   2  1.575000     0.668116839     1.225723769    16.707757432   0   0   0 # feok
    472      1   2  1.575000    25.376497536    23.883223769    18.399890766   0   0   0 # feok
    473      1   2  1.575000     2.121596142    23.883223769    22.973224099   0   0   0 # feok
    474      1   2  1.575000     0.668116839     1.225723769    27.546557432   0   0   0 # feok
    475      1   2  1.575000    25.376497536    23.883223769    25.259890766   0   0   0 # feok
    476      1   2  1.575000     2.121596142    23.883223769    29.833224099   0   0   0 # feok
    477      1   2  1.575000     0.668116839     1.225723769    20.686557432   0   0   0 # feok
    478      1   2  1.575000    25.376497536    23.883223769    28.141090766   0   0   0 # feok
    479      1   2  1.575000     2.121596142    23.883223769    18.994424099   0   0   0 # feok
    480      1   2  1.575000     0.668116839     1.225723769    23.567757432   0   0   0 # feok
    481      1   1 -1.050000     4.883206817    20.610473769     6.120490766   0   0   0 # obsk
    482      1   1 -1.050000     7.790165422    20.610473769    10.693824099   0   0   0 # obsk
    483      1   1 -1.050000     6.336686120    23.127973769    15.267157432   0   0   0 # obsk
    484      1   1 -1.050000     3.575075445    22.876223769     6.120490766   0   0   0 # obsk
    485      1   1 -1.050000     6.482034050    22.876223769    10.693824099   0   0   0 # obsk
    486      1   1 -1.050000     5.028554747     0.218723769    15.267157432   0   0   0 # obsk
    487      1   1 -1.050000     6.627381980    23.127973769     6.120490766   0   0   0 # obsk
    488      1   1 -1.050000     5.173902677    20.610473769    10.693824099   0   0   0 # obsk
    489      1   1 -1.050000     3.720423375    23.127973769    15.267157432   0   0   0 # obsk
    490      1   1 -1.050000     6.627381980    19.603473769    12.980490766   0   0   0 # obsk
    491      1   1 -1.050000     5.173902677    22.120973769     3.833824099   0   0   0 # obsk
    492      1   1 -1.050000     3.720423375    24.638473769     8.407157432   0   0   0 # obsk
    493      1   1 -1.050000     3.575075445    24.890223769    12.980490766   0   0   0 # obsk
    494      1   1 -1.050000     6.482034050    19.855223769     3.833824099   0   0   0 # obsk
    495      1   1 -1.050000     5.028554747    22.372723769     8.407157432   0   0   0 # obsk
    496      1   1 -1.050000     4.883206817    22.120973769    12.980490766   0   0   0 # obsk
    497      1   1 -1.050000     7.790165422    22.120973769     3.833824099   0   0   0 # obsk
    498      1   1 -1.050000     6.336686120    24.638473769     8.407157432   0   0   0 # obsk
    499      1   2  1.575000     3.575075445    21.365723769     7.561090766   0   0   0 # feok
    500      1   2  1.575000     6.482034050    21.365723769    12.134424099   0   0   0 # feok
    501      1   2  1.575000     5.028554747    23.883223769     2.987757432   0   0   0 # feok
    502      1   2  1.575000     3.575075445    21.365723769     4.679890766   0   0   0 # feok
    503      1   2  1.575000     6.482034050    21.365723769     9.253224099   0   0   0 # feok
    504      1   2  1.575000     5.028554747    23.883223769    13.826557432   0   0   0 # feok
    505      1   2  1.575000     3.575075445    21.365723769    11.539890766   0   0   0 # feok
    506      1   2  1.575000     6.482034050    21.365723769    16.113224099   0   0   0 # feok
    507      1   2  1.575000     5.028554747    23.883223769     6.966557432   0   0   0 # feok
    508      1   2  1.575000     3.575075445    21.365723769    14.421090766   0   0   0 # feok
    509      1   2  1.575000     6.482034050    21.365723769     5.274424099   0   0   0 # feok
    510      1   2  1.575000     5.028554747    23.883223769     9.847757432   0   0   0 # feok
    511      1   1 -1.050000     4.883206817    20.610473769    19.840490766   0   0   0 # obsk
    512      1   1 -1.050000     7.790165422    20.610473769    24.413824099   0   0   0 # obsk
    513      1   1 -1.050000     6.336686120    23.127973769    28.987157432   0   0   0 # obsk
    514      1   1 -1.050000     3.575075445    22.876223769    19.840490766   0   0   0 # obsk
    515      1   1 -1.050000     6.482034050    22.876223769    24.413824099   0   0   0 # obsk
    516      1   1 -1.050000     5.028554747     0.218723769    28.987157432   0   0   0 # obsk
    517      1   1 -1.050000     6.627381980    23.127973769    19.840490766   0   0   0 # obsk
    518      1   1 -1.050000     5.173902677    20.610473769    24.413824099   0   0   0 # obsk
    519      1   1 -1.050000     3.720423375    23.127973769    28.987157432   0   0   0 # obsk
    520      1   1 -1.050000     6.627381980    19.603473769    26.700490766   0   0   0 # obsk
    521      1   1 -1.050000     5.173902677    22.120973769    17.553824099   0   0   0 # obsk
    522      1   1 -1.050000     3.720423375    24.638473769    22.127157432   0   0   0 # obsk
    523      1   1 -1.050000     3.575075445    24.890223769    26.700490766   0   0   0 # obsk
    524      1   1 -1.050000     6.482034050    19.855223769    17.553824099   0   0   0 # obsk
    525      1   1 -1.050000     5.028554747    22.372723769    22.127157432   0   0   0 # obsk
    526      1   1 -1.050000     4.883206817    22.120973769    26.700490766   0   0   0 # obsk
    527      1   1 -1.050000     7.790165422    22.120973769    17.553824099   0   0   0 # obsk
    528      1   1 -1.050000     6.336686120    24.638473769    22.127157432   0   0   0 # obsk
    529      1   2  1.575000     3.575075445    21.365723769    21.281090766   0   0   0 # feok
    530      1   2  1.575000     6.482034050    21.365723769    25.854424099   0   0   0 # feok
    531      1   2  1.575000     5.028554747    23.883223769    16.707757432   0   0   0 # feok
    532      1   2  1.575000     3.575075445    21.365723769    18.399890766   0   0   0 # feok
    533      1   2  1.575000     6.482034050    21.365723769    22.973224099   0   0   0 # feok
    534      1   2  1.575000     5.028554747    23.883223769    27.546557432   0   0   0 # feok
    535      1   2  1.575000     3.575075445    21.365723769    25.259890766   0   0   0 # feok
    536      1   2  1.575000     6.482034050    21.365723769    29.833224099   0   0   0 # feok
    537      1   2  1.575000     5.028554747    23.883223769    20.686557432   0   0   0 # feok
    538      1   2  1.575000     3.575075445    21.365723769    28.141090766   0   0   0 # feok
    539      1   2  1.575000     6.482034050    21.365723769    18.994424099   0   0   0 # feok
    540      1   2  1.575000     5.028554747    23.883223769    23.567757432   0   0   0 # feok
    541      1   1 -1.050000     9.243644725    18.092973769     6.120490766   0   0   0 # obsk
    542      1   1 -1.050000    12.150603330    18.092973769    10.693824099   0   0   0 # obsk
    543      1   1 -1.050000    10.697124028    20.610473769    15.267157432   0   0   0 # obsk
    544      1   1 -1.050000     7.935513353    20.358723769     6.120490766   0   0   0 # obsk
    545      1   1 -1.050000    10.842471958    20.358723769    10.693824099   0   0   0 # obsk
    546      1   1 -1.050000     9.388992655    22.876223769    15.267157432   0   0   0 # obsk
    547      1   1 -1.050000    10.987819888    20.610473769     6.120490766   0   0   0 # obsk
    548      1   1 -1.050000     9.534340586    18.092973769    10.693824099   0   0   0 # obsk
    549      1   1 -1.050000     8.080861283    20.610473769    15.267157432   0   0   0 # obsk
    550      1   1 -1.050000    10.987819888    17.085973769    12.980490766   0   0   0 # obsk
    551      1   1 -1.050000     9.534340586    19.603473769     3.833824099   0   0   0 # obsk
    552      1   1 -1.050000     8.080861283    22.120973769     8.407157432   0   0   0 # obsk
    553      1   1 -1.050000     7.935513353    22.372723769    12.980490766   0   0   0 # obsk
    554      1   1 -1.050000    10.842471958    17.337723769     3.833824099   0   0   0 # obsk
    555      1   1 -1.050000     9.388992655    19.855223769     8.407157432   0   0   0 # obsk
    556      1   1 -1.050000     9.243644725    19.603473769    12.980490766   0   0   0 # obsk
    557      1   1 -1.050000    12.150603330    19.603473769     3.833824099   0   0   0 # obsk
    558      1   1 -1.050000    10.697124028    22.120973769     8.407157432   0   0   0 # obsk
    559      1   2  1.575000     7.935513353    18.848223769     7.561090766   0   0   0 # feok
    560      1   2  1.575000    10.842471958    18.848223769    12.134424099   0   0   0 # feok
    561      1   2  1.575000     9.388992655    21.365723769     2.987757432   0   0   0 # feok
    562      1   2  1.575000     7.935513353    18.848223769     4.679890766   0   0   0 # feok
    563      1   2  1.575000    10.842471958    18.848223769     9.253224099   0   0   0 # feok
    564      1   2  1.575000     9.388992655    21.365723769    13.826557432   0   0   0 # feok
    565      1   2  1.575000     7.935513353    18.848223769    11.539890766   0   0   0 # feok
    566      1   2  1.575000    10.842471958    18.848223769    16.113224099   0   0   0 # feok
    567      1   2  1.575000     9.388992655    21.365723769     6.966557432   0   0   0 # feok
    568      1   2  1.575000     7.935513353    18.848223769    14.421090766   0   0   0 # feok
    569      1   2  1.575000    10.842471958    18.848223769     5.274424099   0   0   0 # feok
    570      1   2  1.575000     9.388992655    21.365723769     9.847757432   0   0   0 # feok
    571      1   1 -1.050000     9.243644725    18.092973769    19.840490766   0   0   0 # obsk
    572      1   1 -1.050000    12.150603330    18.092973769    24.413824099   0   0   0 # obsk
    573      1   1 -1.050000    10.697124028    20.610473769    28.987157432   0   0   0 # obsk
    574      1   1 -1.050000     7.935513353    20.358723769    19.840490766   0   0   0 # obsk
    575      1   1 -1.050000    10.842471958    20.358723769    24.413824099   0   0   0 # obsk
    576      1   1 -1.050000     9.388992655    22.876223769    28.987157432   0   0   0 # obsk
    577      1   1 -1.050000    10.987819888    20.610473769    19.840490766   0   0   0 # obsk
    578      1   1 -1.050000     9.534340586    18.092973769    24.413824099   0   0   0 # obsk
    579      1   1 -1.050000     8.080861283    20.610473769    28.987157432   0   0   0 # obsk
    580      1   1 -1.050000    10.987819888    17.085973769    26.700490766   0   0   0 # obsk
    581      1   1 -1.050000     9.534340586    19.603473769    17.553824099   0   0   0 # obsk
    582      1   1 -1.050000     8.080861283    22.120973769    22.127157432   0   0   0 # obsk
    583      1   1 -1.050000     7.935513353    22.372723769    26.700490766   0   0   0 # obsk
    584      1   1 -1.050000    10.842471958    17.337723769    17.553824099   0   0   0 # obsk
    585      1   1 -1.050000     9.388992655    19.855223769    22.127157432   0   0   0 # obsk
    586      1   1 -1.050000     9.243644725    19.603473769    26.700490766   0   0   0 # obsk
    587      1   1 -1.050000    12.150603330    19.603473769    17.553824099   0   0   0 # obsk
    588      1   1 -1.050000    10.697124028    22.120973769    22.127157432   0   0   0 # obsk
    589      1   2  1.575000     7.935513353    18.848223769    21.281090766   0   0   0 # feok
    590      1   2  1.575000    10.842471958    18.848223769    25.854424099   0   0   0 # feok
    591      1   2  1.575000     9.388992655    21.365723769    16.707757432   0   0   0 # feok
    592      1   2  1.575000     7.935513353    18.848223769    18.399890766   0   0   0 # feok
    593      1   2  1.575000    10.842471958    18.848223769    22.973224099   0   0   0 # feok
    594      1   2  1.575000     9.388992655    21.365723769    27.546557432   0   0   0 # feok
    595      1   2  1.575000     7.935513353    18.848223769    25.259890766   0   0   0 # feok
    596      1   2  1.575000    10.842471958    18.848223769    29.833224099   0   0   0 # feok
    597      1   2  1.575000     9.388992655    21.365723769    20.686557432   0   0   0 # feok
    598      1   2  1.575000     7.935513353    18.848223769    28.141090766   0   0   0 # feok
    599      1   2  1.575000    10.842471958    18.848223769    18.994424099   0   0   0 # feok
    600      1   2  1.575000     9.388992655    21.365723769    23.567757432   0   0   0 # feok
    601      1   1 -1.050000    13.604082633    15.575473769     6.120490766   0   0   0 # obsk
    602      1   1 -1.050000    16.511041238    15.575473769    10.693824099   0   0   0 # obsk
    603      1   1 -1.050000    15.057561936    18.092973769    15.267157432   0   0   0 # obsk
    604      1   1 -1.050000    12.295951261    17.841223769     6.120490766   0   0   0 # obsk
    605      1   1 -1.050000    15.202909866    17.841223769    10.693824099   0   0   0 # obsk
    606      1   1 -1.050000    13.749430563    20.358723769    15.267157432   0   0   0 # obsk
    607      1   1 -1.050000    15.348257796    18.092973769     6.120490766   0   0   0 # obsk
    608      1   1 -1.050000    13.894778494    15.575473769    10.693824099   0   0   0 # obsk
    609      1   1 -1.050000    12.441299191    18.092973769    15.267157432   0   0   0 # obsk
    610      1   1 -1.050000    15.348257796    14.568473769    12.980490766   0   0   0 # obsk
    611      1   1 -1.050000    13.894778494    17.085973769     3.833824099   0   0   0 # obsk
    612      1   1 -1.050000    12.441299191    19.603473769     8.407157432   0   0   0 # obsk
    613      1   1 -1.050000    12.295951261    19.855223769    12.980490766   0   0   0 # obsk
    614      1   1 -1.050000    15.202909866    14.820223769     3.833824099   0   0   0 # obsk
    615      1   1 -1.050000    13.749430563    17.337723769     8.407157432   0   0   0 # obsk
    616      1   1 -1.050000    13.604082633    17.085973769    12.980490766   0   0   0 # obsk
    617      1   1 -1.050000    16.511041238    17.085973769     3.833824099   0   0   0 # obsk
    618      1   1 -1.050000    15.057561936    19.603473769     8.407157432   0   0   0 # obsk
    619      1   2  1.575000    12.295951261    16.330723769     7.561090766   0   0   0 # feok
    620      1   2  1.575000    15.202909866    16.330723769    12.134424099   0   0   0 # feok
    621      1   2  1.575000    13.749430563    18.848223769     2.987757432   0   0   0 # feok
    622      1   2  1.575000    12.295951261    16.330723769     4.679890766   0   0   0 # feok
    623      1   2  1.575000    15.202909866    16.330723769     9.253224099   0   0   0 # feok
    624      1   2  1.575000    13.749430563    18.848223769    13.826557432   0   0   0 # feok
    625      1   2  1.575000    12.295951261    16.330723769    11.539890766   0   0   0 # feok
    626      1   2  1.575000    15.202909866    16.330723769    16.113224099   0   0   0 # feok
    627      1   2  1.575000    13.749430563    18.848223769     6.966557432   0   0   0 # feok
    628      1   2  1.575000    12.295951261    16.330723769    14.421090766   0   0   0 # feok
    629      1   2  1.575000    15.202909866    16.330723769     5.274424099   0   0   0 # feok
    630      1   2  1.575000    13.749430563    18.848223769     9.847757432   0   0   0 # feok
    631      1   1 -1.050000    13.604082633    15.575473769    19.840490766   0   0   0 # obsk
    632      1   1 -1.050000    16.511041238    15.575473769    24.413824099   0   0   0 # obsk
    633      1   1 -1.129000    15.057561936    18.092973769    28.987157432   0   0   0 # obsk
    634      1   1 -1.050000    12.295951261    17.841223769    19.840490766   0   0   0 # obsk
    635      1   1 -1.050000    15.202909866    17.841223769    24.413824099   0   0   0 # obsk
    636      1   1 -1.050000    13.749430563    20.358723769    28.987157432   0   0   0 # obsk
    637      1   1 -1.050000    15.348257796    18.092973769    19.840490766   0   0   0 # obsk
    638      1   1 -1.050000    13.894778494    15.575473769    24.413824099   0   0   0 # obsk
    639      1   1 -1.050000    12.441299191    18.092973769    28.987157432   0   0   0 # obsk
    640      1   1 -1.050000    15.348257796    14.568473769    26.700490766   0   0   0 # obsk
    641      1   1 -1.050000    13.894778494    17.085973769    17.553824099   0   0   0 # obsk
    642      1   1 -1.050000    12.441299191    19.603473769    22.127157432   0   0   0 # obsk
    643      1   1 -1.050000    12.295951261    19.855223769    26.700490766   0   0   0 # obsk
    644      1   1 -1.050000    15.202909866    14.820223769    17.553824099   0   0   0 # obsk
    645      1   1 -1.050000    13.749430563    17.337723769    22.127157432   0   0   0 # obsk
    646      1   1 -1.050000    13.604082633    17.085973769    26.700490766   0   0   0 # obsk
    647      1   1 -1.050000    16.511041238    17.085973769    17.553824099   0   0   0 # obsk
    648      1   1 -1.050000    15.057561936    19.603473769    22.127157432   0   0   0 # obsk
    649      1   2  1.575000    12.295951261    16.330723769    21.281090766   0   0   0 # feok
    650      1   2  1.575000    15.202909866    16.330723769    25.854424099   0   0   0 # feok
    651      1   2  1.575000    13.749430563    18.848223769    16.707757432   0   0   0 # feok
    652      1   2  1.575000    12.295951261    16.330723769    18.399890766   0   0   0 # feok
    653      1   2  1.575000    15.202909866    16.330723769    22.973224099   0   0   0 # feok
    654      1   2  1.575000    13.749430563    18.848223769    27.546557432   0   0   0 # feok
    655      1   2  1.575000    12.295951261    16.330723769    25.259890766   0   0   0 # feok
    656      1   2  1.496000    15.202909866    16.330723769    29.833224099   0   0   0 # feok
    657      1   2  1.575000    13.749430563    18.848223769    20.686557432   0   0   0 # feok
    658      1   2  1.575000    12.295951261    16.330723769    28.141090766   0   0   0 # feok
    659      1   2  1.575000    15.202909866    16.330723769    18.994424099   0   0   0 # feok
    660      1   2  1.575000    13.749430563    18.848223769    23.567757432   0   0   0 # feok
    661      1   1 -1.050000    17.964520541    13.057973769     6.120490766   0   0   0 # obsk
    662      1   1 -1.050000    20.871479146    13.057973769    10.693824099   0   0   0 # obsk
    663      1   1 -1.050000    19.417999844    15.575473769    15.267157432   0   0   0 # obsk
    664      1   1 -1.050000    16.656389169    15.323723769     6.120490766   0   0   0 # obsk
    665      1   1 -1.050000    19.563347774    15.323723769    10.693824099   0   0   0 # obsk
    666      1   1 -1.050000    18.109868471    17.841223769    15.267157432   0   0   0 # obsk
    667      1   1 -1.050000    19.708695704    15.575473769     6.120490766   0   0   0 # obsk
    668      1   1 -1.050000    18.255216402    13.057973769    10.693824099   0   0   0 # obsk
    669      1   1 -1.050000    16.801737099    15.575473769    15.267157432   0   0   0 # obsk
    670      1   1 -1.050000    19.708695704    12.050973769    12.980490766   0   0   0 # obsk
    671      1   1 -1.050000    18.255216402    14.568473769     3.833824099   0   0   0 # obsk
    672      1   1 -1.050000    16.801737099    17.085973769     8.407157432   0   0   0 # obsk
    673      1   1 -1.050000    16.656389169    17.337723769    12.980490766   0   0   0 # obsk
    674      1   1 -1.050000    19.563347774    12.302723769     3.833824099   0   0   0 # obsk
    675      1   1 -1.050000    18.109868471    14.820223769     8.407157432   0   0   0 # obsk
    676      1   1 -1.050000    17.964520541    14.568473769    12.980490766   0   0   0 # obsk
    677      1   1 -1.050000    20.871479146    14.568473769     3.833824099   0   0   0 # obsk
    678      1   1 -1.050000    19.417999844    17.085973769     8.407157432   0   0   0 # obsk
    679      1   2  1.575000    16.656389169    13.813223769     7.561090766   0   0   0 # feok
    680      1   2  1.575000    19.563347774    13.813223769    12.134424099   0   0   0 # feok
    681      1   2  1.575000    18.109868471    16.330723769     2.987757432   0   0   0 # feok
    682      1   2  1.575000    16.656389169    13.813223769     4.679890766   0   0   0 # feok
    683      1   2  1.575000    19.563347774    13.813223769     9.253224099   0   0   0 # feok
    684      1   2  1.575000    18.109868471    16.330723769    13.826557432   0   0   0 # feok
    685      1   2  1.575000    16.656389169    13.813223769    11.539890766   0   0   0 # feok
    686      1   2  1.575000    19.563347774    13.813223769    16.113224099   0   0   0 # feok
    687      1   2  1.575000    18.109868471    16.330723769     6.966557432   0   0   0 # feok
    688      1   2  1.575000    16.656389169    13.813223769    14.421090766   0   0   0 # feok
    689      1   2  1.575000    19.563347774    13.813223769     5.274424099   0   0   0 # feok
    690      1   2  1.575000    18.109868471    16.330723769     9.847757432   0   0   0 # feok
    691      1   1 -1.050000    17.964520541    13.057973769    19.840490766   0   0   0 # obsk
    692      1   1 -1.050000    20.871479146    13.057973769    24.413824099   0   0   0 # obsk
    693      1   1 -1.050000    19.417999844    15.575473769    28.987157432   0   0   0 # obsk
    694      1   1 -1.050000    16.656389169    15.323723769    19.840490766   0   0   0 # obsk
    695      1   1 -1.050000    19.563347774    15.323723769    24.413824099   0   0   0 # obsk
    696      1   1 -1.050000    18.109868471    17.841223769    28.987157432   0   0   0 # obsk
    697      1   1 -1.050000    19.708695704    15.575473769    19.840490766   0   0   0 # obsk
    698      1   1 -1.050000    18.255216402    13.057973769    24.413824099   0   0   0 # obsk
    699      1   1 -1.129000    16.801737099    15.575473769    28.987157432   0   0   0 # obsk
    700      1   1 -1.050000    19.708695704    12.050973769    26.700490766   0   0   0 # obsk
    701      1   1 -1.050000    18.255216402    14.568473769    17.553824099   0   0   0 # obsk
    702      1   1 -1.050000    16.801737099    17.085973769    22.127157432   0   0   0 # obsk
    703      1   1 -1.050000    16.656389169    17.337723769    26.700490766   0   0   0 # obsk
    704      1   1 -1.050000    19.563347774    12.302723769    17.553824099   0   0   0 # obsk
    705      1   1 -1.050000    18.109868471    14.820223769    22.127157432   0   0   0 # obsk
    706      1   1 -1.050000    17.964520541    14.568473769    26.700490766   0   0   0 # obsk
    707      1   1 -1.050000    20.871479146    14.568473769    17.553824099   0   0   0 # obsk
    708      1   1 -1.050000    19.417999844    17.085973769    22.127157432   0   0   0 # obsk
    709      1   2  1.575000    16.656389169    13.813223769    21.281090766   0   0   0 # feok
    710      1   2  1.575000    19.563347774    13.813223769    25.854424099   0   0   0 # feok
    711      1   2  1.575000    18.109868471    16.330723769    16.707757432   0   0   0 # feok
    712      1   2  1.575000    16.656389169    13.813223769    18.399890766   0   0   0 # feok
    713      1   2  1.575000    19.563347774    13.813223769    22.973224099   0   0   0 # feok
    714      1   2  1.575000    18.109868471    16.330723769    27.546557432   0   0   0 # feok
    715      1   2  1.575000    16.656389169    13.813223769    25.259890766   0   0   0 # feok
    716      1   2  1.575000    19.563347774    13.813223769    29.833224099   0   0   0 # feok
    717      1   2  1.575000    18.109868471    16.330723769    20.686557432   0   0   0 # feok
    718      1   2  1.575000    16.656389169    13.813223769    28.141090766   0   0   0 # feok
    719      1   2  1.575000    19.563347774    13.813223769    18.994424099   0   0   0 # feok
    720      1   2  1.575000    18.109868471    16.330723769    23.567757432   0   0   0 # feok
    721      1   1 -1.050000    22.324191001     5.505473769     6.120490766   0   0   0 # obsk
    722      1   1 -1.050000    25.231149606     5.505473769    10.693824099   0   0   0 # obsk
    723      1   1 -1.050000    23.777670304     8.022973769    15.267157432   0   0   0 # obsk
    724      1   1 -1.050000    21.016059628     7.771223769     6.120490766   0   0   0 # obsk
    725      1   1 -1.050000    23.923018234     7.771223769    10.693824099   0   0   0 # obsk
    726      1   1 -1.050000    22.469538931    10.288723769    15.267157432   0   0   0 # obsk
    727      1   1 -1.050000    24.068366164     8.022973769     6.120490766   0   0   0 # obsk
    728      1   1 -1.050000    22.614886861     5.505473769    10.693824099   0   0   0 # obsk
    729      1   1 -1.050000    21.161407559     8.022973769    15.267157432   0   0   0 # obsk
    730      1   1 -1.050000    24.068366164     4.498473769    12.980490766   0   0   0 # obsk
    731      1   1 -1.050000    22.614886861     7.015973769     3.833824099   0   0   0 # obsk
    732      1   1 -1.050000    21.161407559     9.533473769     8.407157432   0   0   0 # obsk
    733      1   1 -1.050000    21.016059628     9.785223769    12.980490766   0   0   0 # obsk
    734      1   1 -1.050000    23.923018234     4.750223769     3.833824099   0   0   0 # obsk
    735      1   1 -1.050000    22.469538931     7.267723769     8.407157432   0   0   0 # obsk
    736      1   1 -1.050000    22.324191001     7.015973769    12.980490766   0   0   0 # obsk
    737      1   1 -1.050000    25.231149606     7.015973769     3.833824099   0   0   0 # obsk
    738      1   1 -1.050000    23.777670304     9.533473769     8.407157432   0   0   0 # obsk
    739      1   2  1.575000    21.016059628     6.260723769     7.561090766   0   0   0 # feok
    740      1   2  1.575000    23.923018234     6.260723769    12.134424099   0   0   0 # feok
    741      1   2  1.575000    22.469538931     8.778223769     2.987757432   0   0   0 # feok
    742      1   2  1.575000    21.016059628     6.260723769     4.679890766   0   0   0 # feok
    743      1   2  1.575000    23.923018234     6.260723769     9.253224099   0   0   0 # feok
    744      1   2  1.575000    22.469538931     8.778223769    13.826557432   0   0   0 # feok
    745      1   2  1.575000    21.016059628     6.260723769    11.539890766   0   0   0 # feok
    746      1   2  1.575000    23.923018234     6.260723769    16.113224099   0   0   0 # feok
    747      1   2  1.575000    22.469538931     8.778223769     6.966557432   0   0   0 # feok
    748      1   2  1.575000    21.016059628     6.260723769    14.421090766   0   0   0 # feok
    749      1   2  1.575000    23.923018234     6.260723769     5.274424099   0   0   0 # feok
    750      1   2  1.575000    22.469538931     8.778223769     9.847757432   0   0   0 # feok
    751      1   1 -1.050000    22.324191001     5.505473769    19.840490766   0   0   0 # obsk
    752      1   1 -1.050000    25.231149606     5.505473769    24.413824099   0   0   0 # obsk
    753      1   1 -1.050000    23.777670304     8.022973769    28.987157432   0   0   0 # obsk
    754      1   1 -1.050000    21.016059628     7.771223769    19.840490766   0   0   0 # obsk
    755      1   1 -1.050000    23.923018234     7.771223769    24.413824099   0   0   0 # obsk
    756      1   1 -1.050000    22.469538931    10.288723769    28.987157432   0   0   0 # obsk
    757      1   1 -1.050000    24.068366164     8.022973769    19.840490766   0   0   0 # obsk
    758      1   1 -1.050000    22.614886861     5.505473769    24.413824099   0   0   0 # obsk
    759      1   1 -1.050000    21.161407559     8.022973769    28.987157432   0   0   0 # obsk
    760      1   1 -1.050000    24.068366164     4.498473769    26.700490766   0   0   0 # obsk
    761      1   1 -1.050000    22.614886861     7.015973769    17.553824099   0   0   0 # obsk
    762      1   1 -1.050000    21.161407559     9.533473769    22.127157432   0   0   0 # obsk
    763      1   1 -1.050000    21.016059628     9.785223769    26.700490766   0   0   0 # obsk
    764      1   1 -1.050000    23.923018234     4.750223769    17.553824099   0   0   0 # obsk
    765      1   1 -1.050000    22.469538931     7.267723769    22.127157432   0   0   0 # obsk
    766      1   1 -1.050000    22.324191001     7.015973769    26.700490766   0   0   0 # obsk
    767      1   1 -1.050000    25.231149606     7.015973769    17.553824099   0   0   0 # obsk
    768      1   1 -1.050000    23.777670304     9.533473769    22.127157432   0   0   0 # obsk
    769      1   2  1.575000    21.016059628     6.260723769    21.281090766   0   0   0 # feok
    770      1   2  1.575000    23.923018234     6.260723769    25.854424099   0   0   0 # feok
    771      1   2  1.575000    22.469538931     8.778223769    16.707757432   0   0   0 # feok
    772      1   2  1.575000    21.016059628     6.260723769    18.399890766   0   0   0 # feok
    773      1   2  1.575000    23.923018234     6.260723769    22.973224099   0   0   0 # feok
    774      1   2  1.575000    22.469538931     8.778223769    27.546557432   0   0   0 # feok
    775      1   2  1.575000    21.016059628     6.260723769    25.259890766   0   0   0 # feok
    776      1   2  1.575000    23.923018234     6.260723769    29.833224099   0   0   0 # feok
    777      1   2  1.575000    22.469538931     8.778223769    20.686557432   0   0   0 # feok
    778      1   2  1.575000    21.016059628     6.260723769    28.141090766   0   0   0 # feok
    779      1   2  1.575000    23.923018234     6.260723769    18.994424099   0   0   0 # feok
    780      1   2  1.575000    22.469538931     8.778223769    23.567757432   0   0   0 # feok
    781      1   1 -1.050000     0.522768909     2.987973769     6.120490766   0   0   0 # obsk
    782      1   1 -1.050000     3.429727514     2.987973769    10.693824099   0   0   0 # obsk
    783      1   1 -1.050000     1.976248212     5.505473769    15.267157432   0   0   0 # obsk
    784      1   1 -1.050000    25.376497536     5.253723769     6.120490766   0   0   0 # obsk
    785      1   1 -1.050000     2.121596142     5.253723769    10.693824099   0   0   0 # obsk
    786      1   1 -1.050000     0.668116839     7.771223769    15.267157432   0   0   0 # obsk
    787      1   1 -1.050000     2.266944072     5.505473769     6.120490766   0   0   0 # obsk
    788      1   1 -1.050000     0.813464769     2.987973769    10.693824099   0   0   0 # obsk
    789      1   1 -1.050000    25.521845467     5.505473769    15.267157432   0   0   0 # obsk
    790      1   1 -1.050000     2.266944072     1.980973769    12.980490766   0   0   0 # obsk
    791      1   1 -1.050000     0.813464769     4.498473769     3.833824099   0   0   0 # obsk
    792      1   1 -1.050000    25.521845467     7.015973769     8.407157432   0   0   0 # obsk
    793      1   1 -1.050000    25.376497536     7.267723769    12.980490766   0   0   0 # obsk
    794      1   1 -1.050000     2.121596142     2.232723769     3.833824099   0   0   0 # obsk
    795      1   1 -1.050000     0.668116839     4.750223769     8.407157432   0   0   0 # obsk
    796      1   1 -1.050000     0.522768909     4.498473769    12.980490766   0   0   0 # obsk
    797      1   1 -1.050000     3.429727514     4.498473769     3.833824099   0   0   0 # obsk
    798      1   1 -1.050000     1.976248212     7.015973769     8.407157432   0   0   0 # obsk
    799      1   2  1.575000    25.376497536     3.743223769     7.561090766   0   0   0 # feok
    800      1   2  1.575000     2.121596142     3.743223769    12.134424099   0   0   0 # feok
    801      1   2  1.575000     0.668116839     6.260723769     2.987757432   0   0   0 # feok
    802      1   2  1.575000    25.376497536     3.743223769     4.679890766   0   0   0 # feok
    803      1   2  1.575000     2.121596142     3.743223769     9.253224099   0   0   0 # feok
    804      1   2  1.575000     0.668116839     6.260723769    13.826557432   0   0   0 # feok
    805      1   2  1.575000    25.376497536     3.743223769    11.539890766   0   0   0 # feok
    806      1   2  1.575000     2.121596142     3.743223769    16.113224099   0   0   0 # feok
    807      1   2  1.575000     0.668116839     6.260723769     6.966557432   0   0   0 # feok
    808      1   2  1.575000    25.376497536     3.743223769    14.421090766   0   0   0 # feok
    809      1   2  1.575000     2.121596142     3.743223769     5.274424099   0   0   0 # feok
    810      1   2  1.575000     0.668116839     6.260723769     9.847757432   0   0   0 # feok
    811      1   1 -1.050000     0.522768909     2.987973769    19.840490766   0   0   0 # obsk
    812      1   1 -1.050000     3.429727514     2.987973769    24.413824099   0   0   0 # obsk
    813      1   1 -1.050000     1.976248212     5.505473769    28.987157432   0   0   0 # obsk
    814      1   1 -1.050000    25.376497536     5.253723769    19.840490766   0   0   0 # obsk
    815      1   1 -1.050000     2.121596142     5.253723769    24.413824099   0   0   0 # obsk
    816      1   1 -1.050000     0.668116839     7.771223769    28.987157432   0   0   0 # obsk
    817      1   1 -1.050000     2.266944072     5.505473769    19.840490766   0   0   0 # obsk
    818      1   1 -1.050000     0.813464769     2.987973769    24.413824099   0   0   0 # obsk
    819      1   1 -1.050000    25.521845467     5.505473769    28.987157432   0   0   0 # obsk
    820      1   1 -1.050000     2.266944072     1.980973769    26.700490766   0   0   0 # obsk
    821      1   1 -1.050000     0.813464769     4.498473769    17.553824099   0   0   0 # obsk
    822      1   1 -1.050000    25.521845467     7.015973769    22.127157432   0   0   0 # obsk
    823      1   1 -1.050000    25.376497536     7.267723769    26.700490766   0   0   0 # obsk
    824      1   1 -1.050000     2.121596142     2.232723769    17.553824099   0   0   0 # obsk
    825      1   1 -1.050000     0.668116839     4.750223769    22.127157432   0   0   0 # obsk
    826      1   1 -1.050000     0.522768909     4.498473769    26.700490766   0   0   0 # obsk
    827      1   1 -1.050000     3.429727514     4.498473769    17.553824099   0   0   0 # obsk
    828      1   1 -1.050000     1.976248212     7.015973769    22.127157432   0   0   0 # obsk
    829      1   2  1.575000    25.376497536     3.743223769    21.281090766   0   0   0 # feok
    830      1   2  1.575000     2.121596142     3.743223769    25.854424099   0   0   0 # feok
    831      1   2  1.575000     0.668116839     6.260723769    16.707757432   0   0   0 # feok
    832      1   2  1.575000    25.376497536     3.743223769    18.399890766   0   0   0 # feok
    833      1   2  1.575000     2.121596142     3.743223769    22.973224099   0   0   0 # feok
    834      1   2  1.575000     0.668116839     6.260723769    27.546557432   0   0   0 # feok
    835      1   2  1.575000    25.376497536     3.743223769    25.259890766   0   0   0 # feok
    836      1   2  1.575000     2.121596142     3.743223769    29.833224099   0   0   0 # feok
    837      1   2  1.575000     0.668116839     6.260723769    20.686557432   0   0   0 # feok
    838      1   2  1.575000    25.376497536     3.743223769    28.141090766   0   0   0 # feok
    839      1   2  1.575000     2.121596142     3.743223769    18.994424099   0   0   0 # feok
    840      1   2  1.575000     0.668116839     6.260723769    23.567757432   0   0   0 # feok
    841      1   1 -1.050000     4.883206817     0.470473769     6.120490766   0   0   0 # obsk
    842      1   1 -1.050000     7.790165422     0.470473769    10.693824099   0   0   0 # obsk
    843      1   1 -1.050000     6.336686120     2.987973769    15.267157432   0   0   0 # obsk
    844      1   1 -1.050000     3.575075445     2.736223769     6.120490766   0   0   0 # obsk
    845      1   1 -1.050000     6.482034050     2.736223769    10.693824099   0   0   0 # obsk
    846      1   1 -1.050000     5.028554747     5.253723769    15.267157432   0   0   0 # obsk
    847      1   1 -1.050000     6.627381980     2.987973769     6.120490766   0   0   0 # obsk
    848      1   1 -1.050000     5.173902677     0.470473769    10.693824099   0   0   0 # obsk
    849      1   1 -1.050000     3.720423375     2.987973769    15.267157432   0   0   0 # obsk
    850      1   1 -1.050000     6.627381980    24.638473769    12.980490766   0   0   0 # obsk
    851      1   1 -1.050000     5.173902677     1.980973769     3.833824099   0   0   0 # obsk
    852      1   1 -1.050000     3.720423375     4.498473769     8.407157432   0   0   0 # obsk
    853      1   1 -1.050000     3.575075445     4.750223769    12.980490766   0   0   0 # obsk
    854      1   1 -1.050000     6.482034050    24.890223769     3.833824099   0   0   0 # obsk
    855      1   1 -1.050000     5.028554747     2.232723769     8.407157432   0   0   0 # obsk
    856      1   1 -1.050000     4.883206817     1.980973769    12.980490766   0   0   0 # obsk
    857      1   1 -1.050000     7.790165422     1.980973769     3.833824099   0   0   0 # obsk
    858      1   1 -1.050000     6.336686120     4.498473769     8.407157432   0   0   0 # obsk
    859      1   2  1.575000     3.575075445     1.225723769     7.561090766   0   0   0 # feok
    860      1   2  1.575000     6.482034050     1.225723769    12.134424099   0   0   0 # feok
    861      1   2  1.575000     5.028554747     3.743223769     2.987757432   0   0   0 # feok
    862      1   2  1.575000     3.575075445     1.225723769     4.679890766   0   0   0 # feok
    863      1   2  1.575000     6.482034050     1.225723769     9.253224099   0   0   0 # feok
    864      1   2  1.575000     5.028554747     3.743223769    13.826557432   0   0   0 # feok
    865      1   2  1.575000     3.575075445     1.225723769    11.539890766   0   0   0 # feok
    866      1   2  1.575000     6.482034050     1.225723769    16.113224099   0   0   0 # feok
    867      1   2  1.575000     5.028554747     3.743223769     6.966557432   0   0   0 # feok
    868      1   2  1.575000     3.575075445     1.225723769    14.421090766   0   0   0 # feok
    869      1   2  1.575000     6.482034050     1.225723769     5.274424099   0   0   0 # feok
    870      1   2  1.575000     5.028554747     3.743223769     9.847757432   0   0   0 # feok
    871      1   1 -1.050000     4.883206817     0.470473769    19.840490766   0   0   0 # obsk
    872      1   1 -1.050000     7.790165422     0.470473769    24.413824099   0   0   0 # obsk
    873      1   1 -1.050000     6.336686120     2.987973769    28.987157432   0   0   0 # obsk
    874      1   1 -1.050000     3.575075445     2.736223769    19.840490766   0   0   0 # obsk
    875      1   1 -1.050000     6.482034050     2.736223769    24.413824099   0   0   0 # obsk
    876      1   1 -1.129000     5.028554747     5.253723769    28.987157432   0   0   0 # obsk
    877      1   1 -1.050000     6.627381980     2.987973769    19.840490766   0   0   0 # obsk
    878      1   1 -1.050000     5.173902677     0.470473769    24.413824099   0   0   0 # obsk
    879      1   1 -1.050000     3.720423375     2.987973769    28.987157432   0   0   0 # obsk
    880      1   1 -1.050000     6.627381980    24.638473769    26.700490766   0   0   0 # obsk
    881      1   1 -1.050000     5.173902677     1.980973769    17.553824099   0   0   0 # obsk
    882      1   1 -1.050000     3.720423375     4.498473769    22.127157432   0   0   0 # obsk
    883      1   1 -1.050000     3.575075445     4.750223769    26.700490766   0   0   0 # obsk
    884      1   1 -1.050000     6.482034050    24.890223769    17.553824099   0   0   0 # obsk
    885      1   1 -1.050000     5.028554747     2.232723769    22.127157432   0   0   0 # obsk
    886      1   1 -1.050000     4.883206817     1.980973769    26.700490766   0   0   0 # obsk
    887      1   1 -1.050000     7.790165422     1.980973769    17.553824099   0   0   0 # obsk
    888      1   1 -1.050000     6.336686120     4.498473769    22.127157432   0   0   0 # obsk
    889      1   2  1.575000     3.575075445     1.225723769    21.281090766   0   0   0 # feok
    890      1   2  1.575000     6.482034050     1.225723769    25.854424099   0   0   0 # feok
    891      1   2  1.575000     5.028554747     3.743223769    16.707757432   0   0   0 # feok
    892      1   2  1.575000     3.575075445     1.225723769    18.399890766   0   0   0 # feok
    893      1   2  1.575000     6.482034050     1.225723769    22.973224099   0   0   0 # feok
    894      1   2  1.575000     5.028554747     3.743223769    27.546557432   0   0   0 # feok
    895      1   2  1.575000     3.575075445     1.225723769    25.259890766   0   0   0 # feok
    896      1   2  1.575000     6.482034050     1.225723769    29.833224099   0   0   0 # feok
    897      1   2  1.575000     5.028554747     3.743223769    20.686557432   0   0   0 # feok
    898      1   2  1.575000     3.575075445     1.225723769    28.141090766   0   0   0 # feok
    899      1   2  1.575000     6.482034050     1.225723769    18.994424099   0   0   0 # feok
    900      1   2  1.575000     5.028554747     3.743223769    23.567757432   0   0   0 # feok
    901      1   1 -1.050000     9.243644725    23.127973769     6.120490766   0   0   0 # obsk
    902      1   1 -1.050000    12.150603330    23.127973769    10.693824099   0   0   0 # obsk
    903      1   1 -1.050000    10.697124028     0.470473769    15.267157432   0   0   0 # obsk
    904      1   1 -1.050000     7.935513353     0.218723769     6.120490766   0   0   0 # obsk
    905      1   1 -1.050000    10.842471958     0.218723769    10.693824099   0   0   0 # obsk
    906      1   1 -1.050000     9.388992655     2.736223769    15.267157432   0   0   0 # obsk
    907      1   1 -1.050000    10.987819888     0.470473769     6.120490766   0   0   0 # obsk
    908      1   1 -1.050000     9.534340586    23.127973769    10.693824099   0   0   0 # obsk
    909      1   1 -1.050000     8.080861283     0.470473769    15.267157432   0   0   0 # obsk
    910      1   1 -1.050000    10.987819888    22.120973769    12.980490766   0   0   0 # obsk
    911      1   1 -1.050000     9.534340586    24.638473769     3.833824099   0   0   0 # obsk
    912      1   1 -1.050000     8.080861283     1.980973769     8.407157432   0   0   0 # obsk
    913      1   1 -1.050000     7.935513353     2.232723769    12.980490766   0   0   0 # obsk
    914      1   1 -1.050000    10.842471958    22.372723769     3.833824099   0   0   0 # obsk
    915      1   1 -1.050000     9.388992655    24.890223769     8.407157432   0   0   0 # obsk
    916      1   1 -1.050000     9.243644725    24.638473769    12.980490766   0   0   0 # obsk
    917      1   1 -1.050000    12.150603330    24.638473769     3.833824099   0   0   0 # obsk
    918      1   1 -1.050000    10.697124028     1.980973769     8.407157432   0   0   0 # obsk
    919      1   2  1.575000     7.935513353    23.883223769     7.561090766   0   0   0 # feok
    920      1   2  1.575000    10.842471958    23.883223769    12.134424099   0   0   0 # feok
    921      1   2  1.575000     9.388992655     1.225723769     2.987757432   0   0   0 # feok
    922      1   2  1.575000     7.935513353    23.883223769     4.679890766   0   0   0 # feok
    923      1   2  1.575000    10.842471958    23.883223769     9.253224099   0   0   0 # feok
    924      1   2  1.575000     9.388992655     1.225723769    13.826557432   0   0   0 # feok
    925      1   2  1.575000     7.935513353    23.883223769    11.539890766   0   0   0 # feok
    926      1   2  1.575000    10.842471958    23.883223769    16.113224099   0   0   0 # feok
    927      1   2  1.575000     9.388992655     1.225723769     6.966557432   0   0   0 # feok
    928      1   2  1.575000     7.935513353    23.883223769    14.421090766   0   0   0 # feok
    929      1   2  1.575000    10.842471958    23.883223769     5.274424099   0   0   0 # feok
    930      1   2  1.575000     9.388992655     1.225723769     9.847757432   0   0   0 # feok
    931      1   1 -1.050000     9.243644725    23.127973769    19.840490766   0   0   0 # obsk
    932      1   1 -1.050000    12.150603330    23.127973769    24.413824099   0   0   0 # obsk
    933      1   1 -1.050000    10.697124028     0.470473769    28.987157432   0   0   0 # obsk
    934      1   1 -1.050000     7.935513353     0.218723769    19.840490766   0   0   0 # obsk
    935      1   1 -1.050000    10.842471958     0.218723769    24.413824099   0   0   0 # obsk
    936      1   1 -1.050000     9.388992655     2.736223769    28.987157432   0   0   0 # obsk
    937      1   1 -1.050000    10.987819888     0.470473769    19.840490766   0   0   0 # obsk
    938      1   1 -1.050000     9.534340586    23.127973769    24.413824099   0   0   0 # obsk
    939      1   1 -1.050000     8.080861283     0.470473769    28.987157432   0   0   0 # obsk
    940      1   1 -1.050000    10.987819888    22.120973769    26.700490766   0   0   0 # obsk
    941      1   1 -1.050000     9.534340586    24.638473769    17.553824099   0   0   0 # obsk
    942      1   1 -1.050000     8.080861283     1.980973769    22.127157432   0   0   0 # obsk
    943      1   1 -1.050000     7.935513353     2.232723769    26.700490766   0   0   0 # obsk
    944      1   1 -1.050000    10.842471958    22.372723769    17.553824099   0   0   0 # obsk
    945      1   1 -1.050000     9.388992655    24.890223769    22.127157432   0   0   0 # obsk
    946      1   1 -1.050000     9.243644725    24.638473769    26.700490766   0   0   0 # obsk
    947      1   1 -1.050000    12.150603330    24.638473769    17.553824099   0   0   0 # obsk
    948      1   1 -1.050000    10.697124028     1.980973769    22.127157432   0   0   0 # obsk
    949      1   2  1.575000     7.935513353    23.883223769    21.281090766   0   0   0 # feok
    950      1   2  1.575000    10.842471958    23.883223769    25.854424099   0   0   0 # feok
    951      1   2  1.575000     9.388992655     1.225723769    16.707757432   0   0   0 # feok
    952      1   2  1.575000     7.935513353    23.883223769    18.399890766   0   0   0 # feok
    953      1   2  1.575000    10.842471958    23.883223769    22.973224099   0   0   0 # feok
    954      1   2  1.575000     9.388992655     1.225723769    27.546557432   0   0   0 # feok
    955      1   2  1.575000     7.935513353    23.883223769    25.259890766   0   0   0 # feok
    956      1   2  1.575000    10.842471958    23.883223769    29.833224099   0   0   0 # feok
    957      1   2  1.575000     9.388992655     1.225723769    20.686557432   0   0   0 # feok
    958      1   2  1.575000     7.935513353    23.883223769    28.141090766   0   0   0 # feok
    959      1   2  1.575000    10.842471958    23.883223769    18.994424099   0   0   0 # feok
    960      1   2  1.575000     9.388992655     1.225723769    23.567757432   0   0   0 # feok
    961      1   1 -1.050000    13.604082633    20.610473769     6.120490766   0   0   0 # obsk
    962      1   1 -1.050000    16.511041238    20.610473769    10.693824099   0   0   0 # obsk
    963      1   1 -1.050000    15.057561936    23.127973769    15.267157432   0   0   0 # obsk
    964      1   1 -1.050000    12.295951261    22.876223769     6.120490766   0   0   0 # obsk
    965      1   1 -1.050000    15.202909866    22.876223769    10.693824099   0   0   0 # obsk
    966      1   1 -1.050000    13.749430563     0.218723769    15.267157432   0   0   0 # obsk
    967      1   1 -1.050000    15.348257796    23.127973769     6.120490766   0   0   0 # obsk
    968      1   1 -1.050000    13.894778494    20.610473769    10.693824099   0   0   0 # obsk
    969      1   1 -1.050000    12.441299191    23.127973769    15.267157432   0   0   0 # obsk
    970      1   1 -1.050000    15.348257796    19.603473769    12.980490766   0   0   0 # obsk
    971      1   1 -1.050000    13.894778494    22.120973769     3.833824099   0   0   0 # obsk
    972      1   1 -1.050000    12.441299191    24.638473769     8.407157432   0   0   0 # obsk
    973      1   1 -1.050000    12.295951261    24.890223769    12.980490766   0   0   0 # obsk
    974      1   1 -1.050000    15.202909866    19.855223769     3.833824099   0   0   0 # obsk
    975      1   1 -1.050000    13.749430563    22.372723769     8.407157432   0   0   0 # obsk
    976      1   1 -1.050000    13.604082633    22.120973769    12.980490766   0   0   0 # obsk
    977      1   1 -1.050000    16.511041238    22.120973769     3.833824099   0   0   0 # obsk
    978      1   1 -1.050000    15.057561936    24.638473769     8.407157432   0   0   0 # obsk
    979      1   2  1.575000    12.295951261    21.365723769     7.561090766   0   0   0 # feok
    980      1   2  1.575000    15.202909866    21.365723769    12.134424099   0   0   0 # feok
    981      1   2  1.575000    13.749430563    23.883223769     2.987757432   0   0   0 # feok
    982      1   2  1.575000    12.295951261    21.365723769     4.679890766   0   0   0 # feok
    983      1   2  1.575000    15.202909866    21.365723769     9.253224099   0   0   0 # feok
    984      1   2  1.575000    13.749430563    23.883223769    13.826557432   0   0   0 # feok
    985      1   2  1.575000    12.295951261    21.365723769    11.539890766   0   0   0 # feok
    986      1   2  1.575000    15.202909866    21.365723769    16.113224099   0   0   0 # feok
    987      1   2  1.575000    13.749430563    23.883223769     6.966557432   0   0   0 # feok
    988      1   2  1.575000    12.295951261    21.365723769    14.421090766   0   0   0 # feok
    989      1   2  1.575000    15.202909866    21.365723769     5.274424099   0   0   0 # feok
    990      1   2  1.575000    13.749430563    23.883223769     9.847757432   0   0   0 # feok
    991      1   1 -1.050000    13.604082633    20.610473769    19.840490766   0   0   0 # obsk
    992      1   1 -1.050000    16.511041238    20.610473769    24.413824099   0   0   0 # obsk
    993      1   1 -1.050000    15.057561936    23.127973769    28.987157432   0   0   0 # obsk
    994      1   1 -1.050000    12.295951261    22.876223769    19.840490766   0   0   0 # obsk
    995      1   1 -1.050000    15.202909866    22.876223769    24.413824099   0   0   0 # obsk
    996      1   1 -1.050000    13.749430563     0.218723769    28.987157432   0   0   0 # obsk
    997      1   1 -1.050000    15.348257796    23.127973769    19.840490766   0   0   0 # obsk
    998      1   1 -1.050000    13.894778494    20.610473769    24.413824099   0   0   0 # obsk
    999      1   1 -1.050000    12.441299191    23.127973769    28.987157432   0   0   0 # obsk
   1000      1   1 -1.050000    15.348257796    19.603473769    26.700490766   0   0   0 # obsk
   1001      1   1 -1.050000    13.894778494    22.120973769    17.553824099   0   0   0 # obsk
   1002      1   1 -1.050000    12.441299191    24.638473769    22.127157432   0   0   0 # obsk
   1003      1   1 -1.050000    12.295951261    24.890223769    26.700490766   0   0   0 # obsk
   1004      1   1 -1.050000    15.202909866    19.855223769    17.553824099   0   0   0 # obsk
   1005      1   1 -1.050000    13.749430563    22.372723769    22.127157432   0   0   0 # obsk
   1006      1   1 -1.050000    13.604082633    22.120973769    26.700490766   0   0   0 # obsk
   1007      1   1 -1.050000    16.511041238    22.120973769    17.553824099   0   0   0 # obsk
   1008      1   1 -1.050000    15.057561936    24.638473769    22.127157432   0   0   0 # obsk
   1009      1   2  1.575000    12.295951261    21.365723769    21.281090766   0   0   0 # feok
   1010      1   2  1.575000    15.202909866    21.365723769    25.854424099   0   0   0 # feok
   1011      1   2  1.575000    13.749430563    23.883223769    16.707757432   0   0   0 # feok
   1012      1   2  1.575000    12.295951261    21.365723769    18.399890766   0   0   0 # feok
   1013      1   2  1.575000    15.202909866    21.365723769    22.973224099   0   0   0 # feok
   1014      1   2  1.575000    13.749430563    23.883223769    27.546557432   0   0   0 # feok
   1015      1   2  1.575000    12.295951261    21.365723769    25.259890766   0   0   0 # feok
   1016      1   2  1.575000    15.202909866    21.365723769    29.833224099   0   0   0 # feok
   1017      1   2  1.575000    13.749430563    23.883223769    20.686557432   0   0   0 # feok
   1018      1   2  1.575000    12.295951261    21.365723769    28.141090766   0   0   0 # feok
   1019      1   2  1.575000    15.202909866    21.365723769    18.994424099   0   0   0 # feok
   1020      1   2  1.575000    13.749430563    23.883223769    23.567757432   0   0   0 # feok
   1021      1   1 -1.050000    17.964520541    18.092973769     6.120490766   0   0   0 # obsk
   1022      1   1 -1.050000    20.871479146    18.092973769    10.693824099   0   0   0 # obsk
   1023      1   1 -1.050000    19.417999844    20.610473769    15.267157432   0   0   0 # obsk
   1024      1   1 -1.050000    16.656389169    20.358723769     6.120490766   0   0   0 # obsk
   1025      1   1 -1.050000    19.563347774    20.358723769    10.693824099   0   0   0 # obsk
   1026      1   1 -1.050000    18.109868471    22.876223769    15.267157432   0   0   0 # obsk
   1027      1   1 -1.050000    19.708695704    20.610473769     6.120490766   0   0   0 # obsk
   1028      1   1 -1.050000    18.255216402    18.092973769    10.693824099   0   0   0 # obsk
   1029      1   1 -1.050000    16.801737099    20.610473769    15.267157432   0   0   0 # obsk
   1030      1   1 -1.050000    19.708695704    17.085973769    12.980490766   0   0   0 # obsk
   1031      1   1 -1.050000    18.255216402    19.603473769     3.833824099   0   0   0 # obsk
   1032      1   1 -1.050000    16.801737099    22.120973769     8.407157432   0   0   0 # obsk
   1033      1   1 -1.050000    16.656389169    22.372723769    12.980490766   0   0   0 # obsk
   1034      1   1 -1.050000    19.563347774    17.337723769     3.833824099   0   0   0 # obsk
   1035      1   1 -1.050000    18.109868471    19.855223769     8.407157432   0   0   0 # obsk
   1036      1   1 -1.050000    17.964520541    19.603473769    12.980490766   0   0   0 # obsk
   1037      1   1 -1.050000    20.871479146    19.603473769     3.833824099   0   0   0 # obsk
   1038      1   1 -1.050000    19.417999844    22.120973769     8.407157432   0   0   0 # obsk
   1039      1   2  1.575000    16.656389169    18.848223769     7.561090766   0   0   0 # feok
   1040      1   2  1.575000    19.563347774    18.848223769    12.134424099   0   0   0 # feok
   1041      1   2  1.575000    18.109868471    21.365723769     2.987757432   0   0   0 # feok
   1042      1   2  1.575000    16.656389169    18.848223769     4.679890766   0   0   0 # feok
   1043      1   2  1.575000    19.563347774    18.848223769     9.253224099   0   0   0 # feok
   1044      1   2  1.575000    18.109868471    21.365723769    13.826557432   0   0   0 # feok
   1045      1   2  1.575000    16.656389169    18.848223769    11.539890766   0   0   0 # feok
   1046      1   2  1.575000    19.563347774    18.848223769    16.113224099   0   0   0 # feok
   1047      1   2  1.575000    18.109868471    21.365723769     6.966557432   0   0   0 # feok
   1048      1   2  1.575000    16.656389169    18.848223769    14.421090766   0   0   0 # feok
   1049      1   2  1.575000    19.563347774    18.848223769     5.274424099   0   0   0 # feok
   1050      1   2  1.575000    18.109868471    21.365723769     9.847757432   0   0   0 # feok
   1051      1   1 -1.050000    17.964520541    18.092973769    19.840490766   0   0   0 # obsk
   1052      1   1 -1.050000    20.871479146    18.092973769    24.413824099   0   0   0 # obsk
   1053      1   1 -1.050000    19.417999844    20.610473769    28.987157432   0   0   0 # obsk
   1054      1   1 -1.050000    16.656389169    20.358723769    19.840490766   0   0   0 # obsk
   1055      1   1 -1.050000    19.563347774    20.358723769    24.413824099   0   0   0 # obsk
   1056      1   1 -1.050000    18.109868471    22.876223769    28.987157432   0   0   0 # obsk
   1057      1   1 -1.050000    19.708695704    20.610473769    19.840490766   0   0   0 # obsk
   1058      1   1 -1.050000    18.255216402    18.092973769    24.413824099   0   0   0 # obsk
   1059      1   1 -1.050000    16.801737099    20.610473769    28.987157432   0   0   0 # obsk
   1060      1   1 -1.050000    19.708695704    17.085973769    26.700490766   0   0   0 # obsk
   1061      1   1 -1.050000    18.255216402    19.603473769    17.553824099   0   0   0 # obsk
   1062      1   1 -1.050000    16.801737099    22.120973769    22.127157432   0   0   0 # obsk
   1063      1   1 -1.050000    16.656389169    22.372723769    26.700490766   0   0   0 # obsk
   1064      1   1 -1.050000    19.563347774    17.337723769    17.553824099   0   0   0 # obsk
   1065      1   1 -1.050000    18.109868471    19.855223769    22.127157432   0   0   0 # obsk
   1066      1   1 -1.050000    17.964520541    19.603473769    26.700490766   0   0   0 # obsk
   1067      1   1 -1.050000    20.871479146    19.603473769    17.553824099   0   0   0 # obsk
   1068      1   1 -1.050000    19.417999844    22.120973769    22.127157432   0   0   0 # obsk
   1069      1   2  1.575000    16.656389169    18.848223769    21.281090766   0   0   0 # feok
   1070      1   2  1.575000    19.563347774    18.848223769    25.854424099   0   0   0 # feok
   1071      1   2  1.575000    18.109868471    21.365723769    16.707757432   0   0   0 # feok
   1072      1   2  1.575000    16.656389169    18.848223769    18.399890766   0   0   0 # feok
   1073      1   2  1.575000    19.563347774    18.848223769    22.973224099   0   0   0 # feok
   1074      1   2  1.575000    18.109868471    21.365723769    27.546557432   0   0   0 # feok
   1075      1   2  1.575000    16.656389169    18.848223769    25.259890766   0   0   0 # feok
   1076      1   2  1.575000    19.563347774    18.848223769    29.833224099   0   0   0 # feok
   1077      1   2  1.575000    18.109868471    21.365723769    20.686557432   0   0   0 # feok
   1078      1   2  1.575000    16.656389169    18.848223769    28.141090766   0   0   0 # feok
   1079      1   2  1.575000    19.563347774    18.848223769    18.994424099   0   0   0 # feok
   1080      1   2  1.575000    18.109868471    21.365723769    23.567757432   0   0   0 # feok
   1081      1   1 -1.050000    22.324191001    10.540473769     6.120490766   0   0   0 # obsk
   1082      1   1 -1.050000    25.231149606    10.540473769    10.693824099   0   0   0 # obsk
   1083      1   1 -1.050000    23.777670304    13.057973769    15.267157432   0   0   0 # obsk
   1084      1   1 -1.050000    21.016059628    12.806223769     6.120490766   0   0   0 # obsk
   1085      1   1 -1.050000    23.923018234    12.806223769    10.693824099   0   0   0 # obsk
   1086      1   1 -1.050000    22.469538931    15.323723769    15.267157432   0   0   0 # obsk
   1087      1   1 -1.050000    24.068366164    13.057973769     6.120490766   0   0   0 # obsk
   1088      1   1 -1.050000    22.614886861    10.540473769    10.693824099   0   0   0 # obsk
   1089      1   1 -1.050000    21.161407559    13.057973769    15.267157432   0   0   0 # obsk
   1090      1   1 -1.050000    24.068366164     9.533473769    12.980490766   0   0   0 # obsk
   1091      1   1 -1.050000    22.614886861    12.050973769     3.833824099   0   0   0 # obsk
   1092      1   1 -1.050000    21.161407559    14.568473769     8.407157432   0   0   0 # obsk
   1093      1   1 -1.050000    21.016059628    14.820223769    12.980490766   0   0   0 # obsk
   1094      1   1 -1.050000    23.923018234     9.785223769     3.833824099   0   0   0 # obsk
   1095      1   1 -1.050000    22.469538931    12.302723769     8.407157432   0   0   0 # obsk
   1096      1   1 -1.050000    22.324191001    12.050973769    12.980490766   0   0   0 # obsk
   1097      1   1 -1.050000    25.231149606    12.050973769     3.833824099   0   0   0 # obsk
   1098      1   1 -1.050000    23.777670304    14.568473769     8.407157432   0   0   0 # obsk
   1099      1   2  1.575000    21.016059628    11.295723769     7.561090766   0   0   0 # feok
   1100      1   2  1.575000    23.923018234    11.295723769    12.134424099   0   0   0 # feok
   1101      1   2  1.575000    22.469538931    13.813223769     2.987757432   0   0   0 # feok
   1102      1   2  1.575000    21.016059628    11.295723769     4.679890766   0   0   0 # feok
   1103      1   2  1.575000    23.923018234    11.295723769     9.253224099   0   0   0 # feok
   1104      1   2  1.575000    22.469538931    13.813223769    13.826557432   0   0   0 # feok
   1105      1   2  1.575000    21.016059628    11.295723769    11.539890766   0   0   0 # feok
   1106      1   2  1.575000    23.923018234    11.295723769    16.113224099   0   0   0 # feok
   1107      1   2  1.575000    22.469538931    13.813223769     6.966557432   0   0   0 # feok
   1108      1   2  1.575000    21.016059628    11.295723769    14.421090766   0   0   0 # feok
   1109      1   2  1.575000    23.923018234    11.295723769     5.274424099   0   0   0 # feok
   1110      1   2  1.575000    22.469538931    13.813223769     9.847757432   0   0   0 # feok
   1111      1   1 -1.050000    22.324191001    10.540473769    19.840490766   0   0   0 # obsk
   1112      1   1 -1.050000    25.231149606    10.540473769    24.413824099   0   0   0 # obsk
   1113      1   1 -1.050000    23.777670304    13.057973769    28.987157432   0   0   0 # obsk
   1114      1   1 -1.050000    21.016059628    12.806223769    19.840490766   0   0   0 # obsk
   1115      1   1 -1.050000    23.923018234    12.806223769    24.413824099   0   0   0 # obsk
   1116      1   1 -1.050000    22.469538931    15.323723769    28.987157432   0   0   0 # obsk
   1117      1   1 -1.050000    24.068366164    13.057973769    19.840490766   0   0   0 # obsk
   1118      1   1 -1.050000    22.614886861    10.540473769    24.413824099   0   0   0 # obsk
   1119      1   1 -1.050000    21.161407559    13.057973769    28.987157432   0   0   0 # obsk
   1120      1   1 -1.050000    24.068366164     9.533473769    26.700490766   0   0   0 # obsk
   1121      1   1 -1.050000    22.614886861    12.050973769    17.553824099   0   0   0 # obsk
   1122      1   1 -1.050000    21.161407559    14.568473769    22.127157432   0   0   0 # obsk
   1123      1   1 -1.050000    21.016059628    14.820223769    26.700490766   0   0   0 # obsk
   1124      1   1 -1.050000    23.923018234     9.785223769    17.553824099   0   0   0 # obsk
   1125      1   1 -1.050000    22.469538931    12.302723769    22.127157432   0   0   0 # obsk
   1126      1   1 -1.050000    22.324191001    12.050973769    26.700490766   0   0   0 # obsk
   1127      1   1 -1.050000    25.231149606    12.050973769    17.553824099   0   0   0 # obsk
   1128      1   1 -1.050000    23.777670304    14.568473769    22.127157432   0   0   0 # obsk
   1129      1   2  1.575000    21.016059628    11.295723769    21.281090766   0   0   0 # feok
   1130      1   2  1.575000    23.923018234    11.295723769    25.854424099   0   0   0 # feok
   1131      1   2  1.575000    22.469538931    13.813223769    16.707757432   0   0   0 # feok
   1132      1   2  1.575000    21.016059628    11.295723769    18.399890766   0   0   0 # feok
   1133      1   2  1.575000    23.923018234    11.295723769    22.973224099   0   0   0 # feok
   1134      1   2  1.575000    22.469538931    13.813223769    27.546557432   0   0   0 # feok
   1135      1   2  1.575000    21.016059628    11.295723769    25.259890766   0   0   0 # feok
   1136      1   2  1.575000    23.923018234    11.295723769    29.833224099   0   0   0 # feok
   1137      1   2  1.575000    22.469538931    13.813223769    20.686557432   0   0   0 # feok
   1138      1   2  1.575000    21.016059628    11.295723769    28.141090766   0   0   0 # feok
   1139      1   2  1.575000    23.923018234    11.295723769    18.994424099   0   0   0 # feok
   1140      1   2  1.575000    22.469538931    13.813223769    23.567757432   0   0   0 # feok
   1141      1   1 -1.050000     0.522768909     8.022973769     6.120490766   0   0   0 # obsk
   1142      1   1 -1.050000     3.429727514     8.022973769    10.693824099   0   0   0 # obsk
   1143      1   1 -1.050000     1.976248212    10.540473769    15.267157432   0   0   0 # obsk
   1144      1   1 -1.050000    25.376497536    10.288723769     6.120490766   0   0   0 # obsk
   1145      1   1 -1.050000     2.121596142    10.288723769    10.693824099   0   0   0 # obsk
   1146      1   1 -1.050000     0.668116839    12.806223769    15.267157432   0   0   0 # obsk
   1147      1   1 -1.050000     2.266944072    10.540473769     6.120490766   0   0   0 # obsk
   1148      1   1 -1.050000     0.813464769     8.022973769    10.693824099   0   0   0 # obsk
   1149      1   1 -1.050000    25.521845467    10.540473769    15.267157432   0   0   0 # obsk
   1150      1   1 -1.050000     2.266944072     7.015973769    12.980490766   0   0   0 # obsk
   1151      1   1 -1.050000     0.813464769     9.533473769     3.833824099   0   0   0 # obsk
   1152      1   1 -1.050000    25.521845467    12.050973769     8.407157432   0   0   0 # obsk
   1153      1   1 -1.050000    25.376497536    12.302723769    12.980490766   0   0   0 # obsk
   1154      1   1 -1.050000     2.121596142     7.267723769     3.833824099   0   0   0 # obsk
   1155      1   1 -1.050000     0.668116839     9.785223769     8.407157432   0   0   0 # obsk
   1156      1   1 -1.050000     0.522768909     9.533473769    12.980490766   0   0   0 # obsk
   1157      1   1 -1.050000     3.429727514     9.533473769     3.833824099   0   0   0 # obsk
   1158      1   1 -1.050000     1.976248212    12.050973769     8.407157432   0   0   0 # obsk
   1159      1   2  1.575000    25.376497536     8.778223769     7.561090766   0   0   0 # feok
   1160      1   2  1.575000     2.121596142     8.778223769    12.134424099   0   0   0 # feok
   1161      1   2  1.575000     0.668116839    11.295723769     2.987757432   0   0   0 # feok
   1162      1   2  1.575000    25.376497536     8.778223769     4.679890766   0   0   0 # feok
   1163      1   2  1.575000     2.121596142     8.778223769     9.253224099   0   0   0 # feok
   1164      1   2  1.575000     0.668116839    11.295723769    13.826557432   0   0   0 # feok
   1165      1   2  1.575000    25.376497536     8.778223769    11.539890766   0   0   0 # feok
   1166      1   2  1.575000     2.121596142     8.778223769    16.113224099   0   0   0 # feok
   1167      1   2  1.575000     0.668116839    11.295723769     6.966557432   0   0   0 # feok
   1168      1   2  1.575000    25.376497536     8.778223769    14.421090766   0   0   0 # feok
   1169      1   2  1.575000     2.121596142     8.778223769     5.274424099   0   0   0 # feok
   1170      1   2  1.575000     0.668116839    11.295723769     9.847757432   0   0   0 # feok
   1171      1   1 -1.050000     0.522768909     8.022973769    19.840490766   0   0   0 # obsk
   1172      1   1 -1.050000     3.429727514     8.022973769    24.413824099   0   0   0 # obsk
   1173      1   1 -1.050000     1.976248212    10.540473769    28.987157432   0   0   0 # obsk
   1174      1   1 -1.050000    25.376497536    10.288723769    19.840490766   0   0   0 # obsk
   1175      1   1 -1.050000     2.121596142    10.288723769    24.413824099   0   0   0 # obsk
   1176      1   1 -1.050000     0.668116839    12.806223769    28.987157432   0   0   0 # obsk
   1177      1   1 -1.050000     2.266944072    10.540473769    19.840490766   0   0   0 # obsk
   1178      1   1 -1.050000     0.813464769     8.022973769    24.413824099   0   0   0 # obsk
   1179      1   1 -1.050000    25.521845467    10.540473769    28.987157432   0   0   0 # obsk
   1180      1   1 -1.050000     2.266944072     7.015973769    26.700490766   0   0   0 # obsk
   1181      1   1 -1.050000     0.813464769     9.533473769    17.553824099   0   0   0 # obsk
   1182      1   1 -1.050000    25.521845467    12.050973769    22.127157432   0   0   0 # obsk
   1183      1   1 -1.050000    25.376497536    12.302723769    26.700490766   0   0   0 # obsk
   1184      1   1 -1.050000     2.121596142     7.267723769    17.553824099   0   0   0 # obsk
   1185      1   1 -1.050000     0.668116839     9.785223769    22.127157432   0   0   0 # obsk
   1186      1   1 -1.050000     0.522768909     9.533473769    26.700490766   0   0   0 # obsk
   1187      1   1 -1.050000     3.429727514     9.533473769    17.553824099   0   0   0 # obsk
   1188      1   1 -1.050000     1.976248212    12.050973769    22.127157432   0   0   0 # obsk
   1189      1   2  1.575000    25.376497536     8.778223769    21.281090766   0   0   0 # feok
   1190      1   2  1.575000     2.121596142     8.778223769    25.854424099   0   0   0 # feok
   1191      1   2  1.575000     0.668116839    11.295723769    16.707757432   0   0   0 # feok
   1192      1   2  1.575000    25.376497536     8.778223769    18.399890766   0   0   0 # feok
   1193      1   2  1.575000     2.121596142     8.778223769    22.973224099   0   0   0 # feok
   1194      1   2  1.575000     0.668116839    11.295723769    27.546557432   0   0   0 # feok
   1195      1   2  1.575000    25.376497536     8.778223769    25.259890766   0   0   0 # feok
   1196      1   2  1.575000     2.121596142     8.778223769    29.833224099   0   0   0 # feok
   1197      1   2  1.575000     0.668116839    11.295723769    20.686557432   0   0   0 # feok
   1198      1   2  1.575000    25.376497536     8.778223769    28.141090766   0   0   0 # feok
   1199      1   2  1.575000     2.121596142     8.778223769    18.994424099   0   0   0 # feok
   1200      1   2  1.575000     0.668116839    11.295723769    23.567757432   0   0   0 # feok
   1201      1   1 -1.050000     4.883206817     5.505473769     6.120490766   0   0   0 # obsk
   1202      1   1 -1.050000     7.790165422     5.505473769    10.693824099   0   0   0 # obsk
   1203      1   1 -1.050000     6.336686120     8.022973769    15.267157432   0   0   0 # obsk
   1204      1   1 -1.050000     3.575075445     7.771223769     6.120490766   0   0   0 # obsk
   1205      1   1 -1.050000     6.482034050     7.771223769    10.693824099   0   0   0 # obsk
   1206      1   1 -1.050000     5.028554747    10.288723769    15.267157432   0   0   0 # obsk
   1207      1   1 -1.050000     6.627381980     8.022973769     6.120490766   0   0   0 # obsk
   1208      1   1 -1.050000     5.173902677     5.505473769    10.693824099   0   0   0 # obsk
   1209      1   1 -1.050000     3.720423375     8.022973769    15.267157432   0   0   0 # obsk
   1210      1   1 -1.050000     6.627381980     4.498473769    12.980490766   0   0   0 # obsk
   1211      1   1 -1.050000     5.173902677     7.015973769     3.833824099   0   0   0 # obsk
   1212      1   1 -1.050000     3.720423375     9.533473769     8.407157432   0   0   0 # obsk
   1213      1   1 -1.050000     3.575075445     9.785223769    12.980490766   0   0   0 # obsk
   1214      1   1 -1.050000     6.482034050     4.750223769     3.833824099   0   0   0 # obsk
   1215      1   1 -1.050000     5.028554747     7.267723769     8.407157432   0   0   0 # obsk
   1216      1   1 -1.050000     4.883206817     7.015973769    12.980490766   0   0   0 # obsk
   1217      1   1 -1.050000     7.790165422     7.015973769     3.833824099   0   0   0 # obsk
   1218      1   1 -1.050000     6.336686120     9.533473769     8.407157432   0   0   0 # obsk
   1219      1   2  1.575000     3.575075445     6.260723769     7.561090766   0   0   0 # feok
   1220      1   2  1.575000     6.482034050     6.260723769    12.134424099   0   0   0 # feok
   1221      1   2  1.575000     5.028554747     8.778223769     2.987757432   0   0   0 # feok
   1222      1   2  1.575000     3.575075445     6.260723769     4.679890766   0   0   0 # feok
   1223      1   2  1.575000     6.482034050     6.260723769     9.253224099   0   0   0 # feok
   1224      1   2  1.575000     5.028554747     8.778223769    13.826557432   0   0   0 # feok
   1225      1   2  1.575000     3.575075445     6.260723769    11.539890766   0   0   0 # feok
   1226      1   2  1.575000     6.482034050     6.260723769    16.113224099   0   0   0 # feok
   1227      1   2  1.575000     5.028554747     8.778223769     6.966557432   0   0   0 # feok
   1228      1   2  1.575000     3.575075445     6.260723769    14.421090766   0   0   0 # feok
   1229      1   2  1.575000     6.482034050     6.260723769     5.274424099   0   0   0 # feok
   1230      1   2  1.575000     5.028554747     8.778223769     9.847757432   0   0   0 # feok
   1231      1   1 -1.050000     4.883206817     5.505473769    19.840490766   0   0   0 # obsk
   1232      1   1 -1.050000     7.790165422     5.505473769    24.413824099   0   0   0 # obsk
   1233      1   1 -1.129000     6.336686120     8.022973769    28.987157432   0   0   0 # obsk
   1234      1   1 -1.050000     3.575075445     7.771223769    19.840490766   0   0   0 # obsk
   1235      1   1 -1.050000     6.482034050     7.771223769    24.413824099   0   0   0 # obsk
   1236      1   1 -1.050000     5.028554747    10.288723769    28.987157432   0   0   0 # obsk
   1237      1   1 -1.050000     6.627381980     8.022973769    19.840490766   0   0   0 # obsk
   1238      1   1 -1.050000     5.173902677     5.505473769    24.413824099   0   0   0 # obsk
   1239      1   1 -1.050000     3.720423375     8.022973769    28.987157432   0   0   0 # obsk
   1240      1   1 -1.050000     6.627381980     4.498473769    26.700490766   0   0   0 # obsk
   1241      1   1 -1.050000     5.173902677     7.015973769    17.553824099   0   0   0 # obsk
   1242      1   1 -1.050000     3.720423375     9.533473769    22.127157432   0   0   0 # obsk
   1243      1   1 -1.050000     3.575075445     9.785223769    26.700490766   0   0   0 # obsk
   1244      1   1 -1.050000     6.482034050     4.750223769    17.553824099   0   0   0 # obsk
   1245      1   1 -1.050000     5.028554747     7.267723769    22.127157432   0   0   0 # obsk
   1246      1   1 -1.050000     4.883206817     7.015973769    26.700490766   0   0   0 # obsk
   1247      1   1 -1.050000     7.790165422     7.015973769    17.553824099   0   0   0 # obsk
   1248      1   1 -1.050000     6.336686120     9.533473769    22.127157432   0   0   0 # obsk
   1249      1   2  1.575000     3.575075445     6.260723769    21.281090766   0   0   0 # feok
   1250      1   2  1.575000     6.482034050     6.260723769    25.854424099   0   0   0 # feok
   1251      1   2  1.575000     5.028554747     8.778223769    16.707757432   0   0   0 # feok
   1252      1   2  1.575000     3.575075445     6.260723769    18.399890766   0   0   0 # feok
   1253      1   2  1.575000     6.482034050     6.260723769    22.973224099   0   0   0 # feok
   1254      1   2  1.575000     5.028554747     8.778223769    27.546557432   0   0   0 # feok
   1255      1   2  1.575000     3.575075445     6.260723769    25.259890766   0   0   0 # feok
   1256      1   2  1.496000     6.482034050     6.260723769    29.833224099   0   0   0 # feok
   1257      1   2  1.575000     5.028554747     8.778223769    20.686557432   0   0   0 # feok
   1258      1   2  1.575000     3.575075445     6.260723769    28.141090766   0   0   0 # feok
   1259      1   2  1.575000     6.482034050     6.260723769    18.994424099   0   0   0 # feok
   1260      1   2  1.575000     5.028554747     8.778223769    23.567757432   0   0   0 # feok
   1261      1   1 -1.050000     9.243644725     2.987973769     6.120490766   0   0   0 # obsk
   1262      1   1 -1.050000    12.150603330     2.987973769    10.693824099   0   0   0 # obsk
   1263      1   1 -1.050000    10.697124028     5.505473769    15.267157432   0   0   0 # obsk
   1264      1   1 -1.050000     7.935513353     5.253723769     6.120490766   0   0   0 # obsk
   1265      1   1 -1.050000    10.842471958     5.253723769    10.693824099   0   0   0 # obsk
   1266      1   1 -1.050000     9.388992655     7.771223769    15.267157432   0   0   0 # obsk
   1267      1   1 -1.050000    10.987819888     5.505473769     6.120490766   0   0   0 # obsk
   1268      1   1 -1.050000     9.534340586     2.987973769    10.693824099   0   0   0 # obsk
   1269      1   1 -1.050000     8.080861283     5.505473769    15.267157432   0   0   0 # obsk
   1270      1   1 -1.050000    10.987819888     1.980973769    12.980490766   0   0   0 # obsk
   1271      1   1 -1.050000     9.534340586     4.498473769     3.833824099   0   0   0 # obsk
   1272      1   1 -1.050000     8.080861283     7.015973769     8.407157432   0   0   0 # obsk
   1273      1   1 -1.050000     7.935513353     7.267723769    12.980490766   0   0   0 # obsk
   1274      1   1 -1.050000    10.842471958     2.232723769     3.833824099   0   0   0 # obsk
   1275      1   1 -1.050000     9.388992655     4.750223769     8.407157432   0   0   0 # obsk
   1276      1   1 -1.050000     9.243644725     4.498473769    12.980490766   0   0   0 # obsk
   1277      1   1 -1.050000    12.150603330     4.498473769     3.833824099   0   0   0 # obsk
   1278      1   1 -1.050000    10.697124028     7.015973769     8.407157432   0   0   0 # obsk
   1279      1   2  1.575000     7.935513353     3.743223769     7.561090766   0   0   0 # feok
   1280      1   2  1.575000    10.842471958     3.743223769    12.134424099   0   0   0 # feok
   1281      1   2  1.575000     9.388992655     6.260723769     2.987757432   0   0   0 # feok
   1282      1   2  1.575000     7.935513353     3.743223769     4.679890766   0   0   0 # feok
   1283      1   2  1.575000    10.842471958     3.743223769     9.253224099   0   0   0 # feok
   1284      1   2  1.575000     9.388992655     6.260723769    13.826557432   0   0   0 # feok
   1285      1   2  1.575000     7.935513353     3.743223769    11.539890766   0   0   0 # feok
   1286      1   2  1.575000    10.842471958     3.743223769    16.113224099   0   0   0 # feok
   1287      1   2  1.575000     9.388992655     6.260723769     6.966557432   0   0   0 # feok
   1288      1   2  1.575000     7.935513353     3.743223769    14.421090766   0   0   0 # feok
   1289      1   2  1.575000    10.842471958     3.743223769     5.274424099   0   0   0 # feok
   1290      1   2  1.575000     9.388992655     6.260723769     9.847757432   0   0   0 # feok
   1291      1   1 -1.050000     9.243644725     2.987973769    19.840490766   0   0   0 # obsk
   1292      1   1 -1.050000    12.150603330     2.987973769    24.413824099   0   0   0 # obsk
   1293      1   1 -1.050000    10.697124028     5.505473769    28.987157432   0   0   0 # obsk
   1294      1   1 -1.050000     7.935513353     5.253723769    19.840490766   0   0   0 # obsk
   1295      1   1 -1.050000    10.842471958     5.253723769    24.413824099   0   0   0 # obsk
   1296      1   1 -1.050000     9.388992655     7.771223769    28.987157432   0   0   0 # obsk
   1297      1   1 -1.050000    10.987819888     5.505473769    19.840490766   0   0   0 # obsk
   1298      1   1 -1.050000     9.534340586     2.987973769    24.413824099   0   0   0 # obsk
   1299      1   1 -1.129000     8.080861283     5.505473769    28.987157432   0   0   0 # obsk
   1300      1   1 -1.050000    10.987819888     1.980973769    26.700490766   0   0   0 # obsk
   1301      1   1 -1.050000     9.534340586     4.498473769    17.553824099   0   0   0 # obsk
   1302      1   1 -1.050000     8.080861283     7.015973769    22.127157432   0   0   0 # obsk
   1303      1   1 -1.050000     7.935513353     7.267723769    26.700490766   0   0   0 # obsk
   1304      1   1 -1.050000    10.842471958     2.232723769    17.553824099   0   0   0 # obsk
   1305      1   1 -1.050000     9.388992655     4.750223769    22.127157432   0   0   0 # obsk
   1306      1   1 -1.050000     9.243644725     4.498473769    26.700490766   0   0   0 # obsk
   1307      1   1 -1.050000    12.150603330     4.498473769    17.553824099   0   0   0 # obsk
   1308      1   1 -1.050000    10.697124028     7.015973769    22.127157432   0   0   0 # obsk
   1309      1   2  1.575000     7.935513353     3.743223769    21.281090766   0   0   0 # feok
   1310      1   2  1.575000    10.842471958     3.743223769    25.854424099   0   0   0 # feok
   1311      1   2  1.575000     9.388992655     6.260723769    16.707757432   0   0   0 # feok
   1312      1   2  1.575000     7.935513353     3.743223769    18.399890766   0   0   0 # feok
   1313      1   2  1.575000    10.842471958     3.743223769    22.973224099   0   0   0 # feok
   1314      1   2  1.575000     9.388992655     6.260723769    27.546557432   0   0   0 # feok
   1315      1   2  1.575000     7.935513353     3.743223769    25.259890766   0   0   0 # feok
   1316      1   2  1.575000    10.842471958     3.743223769    29.833224099   0   0   0 # feok
   1317      1   2  1.575000     9.388992655     6.260723769    20.686557432   0   0   0 # feok
   1318      1   2  1.575000     7.935513353     3.743223769    28.141090766   0   0   0 # feok
   1319      1   2  1.575000    10.842471958     3.743223769    18.994424099   0   0   0 # feok
   1320      1   2  1.575000     9.388992655     6.260723769    23.567757432   0   0   0 # feok
   1321      1   1 -1.050000    13.604082633     0.470473769     6.120490766   0   0   0 # obsk
   1322      1   1 -1.050000    16.511041238     0.470473769    10.693824099   0   0   0 # obsk
   1323      1   1 -1.050000    15.057561936     2.987973769    15.267157432   0   0   0 # obsk
   1324      1   1 -1.050000    12.295951261     2.736223769     6.120490766   0   0   0 # obsk
   1325      1   1 -1.050000    15.202909866     2.736223769    10.693824099   0   0   0 # obsk
   1326      1   1 -1.050000    13.749430563     5.253723769    15.267157432   0   0   0 # obsk
   1327      1   1 -1.050000    15.348257796     2.987973769     6.120490766   0   0   0 # obsk
   1328      1   1 -1.050000    13.894778494     0.470473769    10.693824099   0   0   0 # obsk
   1329      1   1 -1.050000    12.441299191     2.987973769    15.267157432   0   0   0 # obsk
   1330      1   1 -1.050000    15.348257796    24.638473769    12.980490766   0   0   0 # obsk
   1331      1   1 -1.050000    13.894778494     1.980973769     3.833824099   0   0   0 # obsk
   1332      1   1 -1.050000    12.441299191     4.498473769     8.407157432   0   0   0 # obsk
   1333      1   1 -1.050000    12.295951261     4.750223769    12.980490766   0   0   0 # obsk
   1334      1   1 -1.050000    15.202909866    24.890223769     3.833824099   0   0   0 # obsk
   1335      1   1 -1.050000    13.749430563     2.232723769     8.407157432   0   0   0 # obsk
   1336      1   1 -1.050000    13.604082633     1.980973769    12.980490766   0   0   0 # obsk
   1337      1   1 -1.050000    16.511041238     1.980973769     3.833824099   0   0   0 # obsk
   1338      1   1 -1.050000    15.057561936     4.498473769     8.407157432   0   0   0 # obsk
   1339      1   2  1.575000    12.295951261     1.225723769     7.561090766   0   0   0 # feok
   1340      1   2  1.575000    15.202909866     1.225723769    12.134424099   0   0   0 # feok
   1341      1   2  1.575000    13.749430563     3.743223769     2.987757432   0   0   0 # feok
   1342      1   2  1.575000    12.295951261     1.225723769     4.679890766   0   0   0 # feok
   1343      1   2  1.575000    15.202909866     1.225723769     9.253224099   0   0   0 # feok
   1344      1   2  1.575000    13.749430563     3.743223769    13.826557432   0   0   0 # feok
   1345      1   2  1.575000    12.295951261     1.225723769    11.539890766   0   0   0 # feok
   1346      1   2  1.575000    15.202909866     1.225723769    16.113224099   0   0   0 # feok
   1347      1   2  1.575000    13.749430563     3.743223769     6.966557432   0   0   0 # feok
   1348      1   2  1.575000    12.295951261     1.225723769    14.421090766   0   0   0 # feok
   1349      1   2  1.575000    15.202909866     1.225723769     5.274424099   0   0   0 # feok
   1350      1   2  1.575000    13.749430563     3.743223769     9.847757432   0   0   0 # feok
   1351      1   1 -1.050000    13.604082633     0.470473769    19.840490766   0   0   0 # obsk
   1352      1   1 -1.050000    16.511041238     0.470473769    24.413824099   0   0   0 # obsk
   1353      1   1 -1.050000    15.057561936     2.987973769    28.987157432   0   0   0 # obsk
   1354      1   1 -1.050000    12.295951261     2.736223769    19.840490766   0   0   0 # obsk
   1355      1   1 -1.050000    15.202909866     2.736223769    24.413824099   0   0   0 # obsk
   1356      1   1 -1.050000    13.749430563     5.253723769    28.987157432   0   0   0 # obsk
   1357      1   1 -1.050000    15.348257796     2.987973769    19.840490766   0   0   0 # obsk
   1358      1   1 -1.050000    13.894778494     0.470473769    24.413824099   0   0   0 # obsk
   1359      1   1 -1.050000    12.441299191     2.987973769    28.987157432   0   0   0 # obsk
   1360      1   1 -1.050000    15.348257796    24.638473769    26.700490766   0   0   0 # obsk
   1361      1   1 -1.050000    13.894778494     1.980973769    17.553824099   0   0   0 # obsk
   1362      1   1 -1.050000    12.441299191     4.498473769    22.127157432   0   0   0 # obsk
   1363      1   1 -1.050000    12.295951261     4.750223769    26.700490766   0   0   0 # obsk
   1364      1   1 -1.050000    15.202909866    24.890223769    17.553824099   0   0   0 # obsk
   1365      1   1 -1.050000    13.749430563     2.232723769    22.127157432   0   0   0 # obsk
   1366      1   1 -1.050000    13.604082633     1.980973769    26.700490766   0   0   0 # obsk
   1367      1   1 -1.050000    16.511041238     1.980973769    17.553824099   0   0   0 # obsk
   1368      1   1 -1.050000    15.057561936     4.498473769    22.127157432   0   0   0 # obsk
   1369      1   2  1.575000    12.295951261     1.225723769    21.281090766   0   0   0 # feok
   1370      1   2  1.575000    15.202909866     1.225723769    25.854424099   0   0   0 # feok
   1371      1   2  1.575000    13.749430563     3.743223769    16.707757432   0   0   0 # feok
   1372      1   2  1.575000    12.295951261     1.225723769    18.399890766   0   0   0 # feok
   1373      1   2  1.575000    15.202909866     1.225723769    22.973224099   0   0   0 # feok
   1374      1   2  1.575000    13.749430563     3.743223769    27.546557432   0   0   0 # feok
   1375      1   2  1.575000    12.295951261     1.225723769    25.259890766   0   0   0 # feok
   1376      1   2  1.575000    15.202909866     1.225723769    29.833224099   0   0   0 # feok
   1377      1   2  1.575000    13.749430563     3.743223769    20.686557432   0   0   0 # feok
   1378      1   2  1.575000    12.295951261     1.225723769    28.141090766   0   0   0 # feok
   1379      1   2  1.575000    15.202909866     1.225723769    18.994424099   0   0   0 # feok
   1380      1   2  1.575000    13.749430563     3.743223769    23.567757432   0   0   0 # feok
   1381      1   1 -1.050000    17.964520541    23.127973769     6.120490766   0   0   0 # obsk
   1382      1   1 -1.050000    20.871479146    23.127973769    10.693824099   0   0   0 # obsk
   1383      1   1 -1.050000    19.417999844     0.470473769    15.267157432   0   0   0 # obsk
   1384      1   1 -1.050000    16.656389169     0.218723769     6.120490766   0   0   0 # obsk
   1385      1   1 -1.050000    19.563347774     0.218723769    10.693824099   0   0   0 # obsk
   1386      1   1 -1.050000    18.109868471     2.736223769    15.267157432   0   0   0 # obsk
   1387      1   1 -1.050000    19.708695704     0.470473769     6.120490766   0   0   0 # obsk
   1388      1   1 -1.050000    18.255216402    23.127973769    10.693824099   0   0   0 # obsk
   1389      1   1 -1.050000    16.801737099     0.470473769    15.267157432   0   0   0 # obsk
   1390      1   1 -1.050000    19.708695704    22.120973769    12.980490766   0   0   0 # obsk
   1391      1   1 -1.050000    18.255216402    24.638473769     3.833824099   0   0   0 # obsk
   1392      1   1 -1.050000    16.801737099     1.980973769     8.407157432   0   0   0 # obsk
   1393      1   1 -1.050000    16.656389169     2.232723769    12.980490766   0   0   0 # obsk
   1394      1   1 -1.050000    19.563347774    22.372723769     3.833824099   0   0   0 # obsk
   1395      1   1 -1.050000    18.109868471    24.890223769     8.407157432   0   0   0 # obsk
   1396      1   1 -1.050000    17.964520541    24.638473769    12.980490766   0   0   0 # obsk
   1397      1   1 -1.050000    20.871479146    24.638473769     3.833824099   0   0   0 # obsk
   1398      1   1 -1.050000    19.417999844     1.980973769     8.407157432   0   0   0 # obsk
   1399      1   2  1.575000    16.656389169    23.883223769     7.561090766   0   0   0 # feok
   1400      1   2  1.575000    19.563347774    23.883223769    12.134424099   0   0   0 # feok
   1401      1   2  1.575000    18.109868471     1.225723769     2.987757432   0   0   0 # feok
   1402      1   2  1.575000    16.656389169    23.883223769     4.679890766   0   0   0 # feok
   1403      1   2  1.575000    19.563347774    23.883223769     9.253224099   0   0   0 # feok
   1404      1   2  1.575000    18.109868471     1.225723769    13.826557432   0   0   0 # feok
   1405      1   2  1.575000    16.656389169    23.883223769    11.539890766   0   0   0 # feok
   1406      1   2  1.575000    19.563347774    23.883223769    16.113224099   0   0   0 # feok
   1407      1   2  1.575000    18.109868471     1.225723769     6.966557432   0   0   0 # feok
   1408      1   2  1.575000    16.656389169    23.883223769    14.421090766   0   0   0 # feok
   1409      1   2  1.575000    19.563347774    23.883223769     5.274424099   0   0   0 # feok
   1410      1   2  1.575000    18.109868471     1.225723769     9.847757432   0   0   0 # feok
   1411      1   1 -1.050000    17.964520541    23.127973769    19.840490766   0   0   0 # obsk
   1412      1   1 -1.050000    20.871479146    23.127973769    24.413824099   0   0   0 # obsk
   1413      1   1 -1.050000    19.417999844     0.470473769    28.987157432   0   0   0 # obsk
   1414      1   1 -1.050000    16.656389169     0.218723769    19.840490766   0   0   0 # obsk
   1415      1   1 -1.050000    19.563347774     0.218723769    24.413824099   0   0   0 # obsk
   1416      1   1 -1.129000    18.109868471     2.736223769    28.987157432   0   0   0 # obsk
   1417      1   1 -1.050000    19.708695704     0.470473769    19.840490766   0   0   0 # obsk
   1418      1   1 -1.050000    18.255216402    23.127973769    24.413824099   0   0   0 # obsk
   1419      1   1 -1.050000    16.801737099     0.470473769    28.987157432   0   0   0 # obsk
   1420      1   1 -1.050000    19.708695704    22.120973769    26.700490766   0   0   0 # obsk
   1421      1   1 -1.050000    18.255216402    24.638473769    17.553824099   0   0   0 # obsk
   1422      1   1 -1.050000    16.801737099     1.980973769    22.127157432   0   0   0 # obsk
   1423      1   1 -1.050000    16.656389169     2.232723769    26.700490766   0   0   0 # obsk
   1424      1   1 -1.050000    19.563347774    22.372723769    17.553824099   0   0   0 # obsk
   1425      1   1 -1.050000    18.109868471    24.890223769    22.127157432   0   0   0 # obsk
   1426      1   1 -1.050000    17.964520541    24.638473769    26.700490766   0   0   0 # obsk
   1427      1   1 -1.050000    20.871479146    24.638473769    17.553824099   0   0   0 # obsk
   1428      1   1 -1.050000    19.417999844     1.980973769    22.127157432   0   0   0 # obsk
   1429      1   2  1.575000    16.656389169    23.883223769    21.281090766   0   0   0 # feok
   1430      1   2  1.575000    19.563347774    23.883223769    25.854424099   0   0   0 # feok
   1431      1   2  1.575000    18.109868471     1.225723769    16.707757432   0   0   0 # feok
   1432      1   2  1.575000    16.656389169    23.883223769    18.399890766   0   0   0 # feok
   1433      1   2  1.575000    19.563347774    23.883223769    22.973224099   0   0   0 # feok
   1434      1   2  1.575000    18.109868471     1.225723769    27.546557432   0   0   0 # feok
   1435      1   2  1.575000    16.656389169    23.883223769    25.259890766   0   0   0 # feok
   1436      1   2  1.575000    19.563347774    23.883223769    29.833224099   0   0   0 # feok
   1437      1   2  1.575000    18.109868471     1.225723769    20.686557432   0   0   0 # feok
   1438      1   2  1.575000    16.656389169    23.883223769    28.141090766   0   0   0 # feok
   1439      1   2  1.575000    19.563347774    23.883223769    18.994424099   0   0   0 # feok
   1440      1   2  1.575000    18.109868471     1.225723769    23.567757432   0   0   0 # feok
   1441      1   1 -1.050000    22.324191001    15.575473769     6.120490766   0   0   0 # obsk
   1442      1   1 -1.050000    25.231149606    15.575473769    10.693824099   0   0   0 # obsk
   1443      1   1 -1.050000    23.777670304    18.092973769    15.267157432   0   0   0 # obsk
   1444      1   1 -1.050000    21.016059628    17.841223769     6.120490766   0   0   0 # obsk
   1445      1   1 -1.050000    23.923018234    17.841223769    10.693824099   0   0   0 # obsk
   1446      1   1 -1.050000    22.469538931    20.358723769    15.267157432   0   0   0 # obsk
   1447      1   1 -1.050000    24.068366164    18.092973769     6.120490766   0   0   0 # obsk
   1448      1   1 -1.050000    22.614886861    15.575473769    10.693824099   0   0   0 # obsk
   1449      1   1 -1.050000    21.161407559    18.092973769    15.267157432   0   0   0 # obsk
   1450      1   1 -1.050000    24.068366164    14.568473769    12.980490766   0   0   0 # obsk
   1451      1   1 -1.050000    22.614886861    17.085973769     3.833824099   0   0   0 # obsk
   1452      1   1 -1.050000    21.161407559    19.603473769     8.407157432   0   0   0 # obsk
   1453      1   1 -1.050000    21.016059628    19.855223769    12.980490766   0   0   0 # obsk
   1454      1   1 -1.050000    23.923018234    14.820223769     3.833824099   0   0   0 # obsk
   1455      1   1 -1.050000    22.469538931    17.337723769     8.407157432   0   0   0 # obsk
   1456      1   1 -1.050000    22.324191001    17.085973769    12.980490766   0   0   0 # obsk
   1457      1   1 -1.050000    25.231149606    17.085973769     3.833824099   0   0   0 # obsk
   1458      1   1 -1.050000    23.777670304    19.603473769     8.407157432   0   0   0 # obsk
   1459      1   2  1.575000    21.016059628    16.330723769     7.561090766   0   0   0 # feok
   1460      1   2  1.575000    23.923018234    16.330723769    12.134424099   0   0   0 # feok
   1461      1   2  1.575000    22.469538931    18.848223769     2.987757432   0   0   0 # feok
   1462      1   2  1.575000    21.016059628    16.330723769     4.679890766   0   0   0 # feok
   1463      1   2  1.575000    23.923018234    16.330723769     9.253224099   0   0   0 # feok
   1464      1   2  1.575000    22.469538931    18.848223769    13.826557432   0   0   0 # feok
   1465      1   2  1.575000    21.016059628    16.330723769    11.539890766   0   0   0 # feok
   1466      1   2  1.575000    23.923018234    16.330723769    16.113224099   0   0   0 # feok
   1467      1   2  1.575000    22.469538931    18.848223769     6.966557432   0   0   0 # feok
   1468      1   2  1.575000    21.016059628    16.330723769    14.421090766   0   0   0 # feok
   1469      1   2  1.575000    23.923018234    16.330723769     5.274424099   0   0   0 # feok
   1470      1   2  1.575000    22.469538931    18.848223769     9.847757432   0   0   0 # feok
   1471      1   1 -1.050000    22.324191001    15.575473769    19.840490766   0   0   0 # obsk
   1472      1   1 -1.050000    25.231149606    15.575473769    24.413824099   0   0   0 # obsk
   1473      1   1 -1.050000    23.777670304    18.092973769    28.987157432   0   0   0 # obsk
   1474      1   1 -1.050000    21.016059628    17.841223769    19.840490766   0   0   0 # obsk
   1475      1   1 -1.050000    23.923018234    17.841223769    24.413824099   0   0   0 # obsk
   1476      1   1 -1.050000    22.469538931    20.358723769    28.987157432   0   0   0 # obsk
   1477      1   1 -1.050000    24.068366164    18.092973769    19.840490766   0   0   0 # obsk
   1478      1   1 -1.050000    22.614886861    15.575473769    24.413824099   0   0   0 # obsk
   1479      1   1 -1.050000    21.161407559    18.092973769    28.987157432   0   0   0 # obsk
   1480      1   1 -1.050000    24.068366164    14.568473769    26.700490766   0   0   0 # obsk
   1481      1   1 -1.050000    22.614886861    17.085973769    17.553824099   0   0   0 # obsk
   1482      1   1 -1.050000    21.161407559    19.603473769    22.127157432   0   0   0 # obsk
   1483      1   1 -1.050000    21.016059628    19.855223769    26.700490766   0   0   0 # obsk
   1484      1   1 -1.050000    23.923018234    14.820223769    17.553824099   0   0   0 # obsk
   1485      1   1 -1.050000    22.469538931    17.337723769    22.127157432   0   0   0 # obsk
   1486      1   1 -1.050000    22.324191001    17.085973769    26.700490766   0   0   0 # obsk
   1487      1   1 -1.050000    25.231149606    17.085973769    17.553824099   0   0   0 # obsk
   1488      1   1 -1.050000    23.777670304    19.603473769    22.127157432   0   0   0 # obsk
   1489      1   2  1.575000    21.016059628    16.330723769    21.281090766   0   0   0 # feok
   1490      1   2  1.575000    23.923018234    16.330723769    25.854424099   0   0   0 # feok
   1491      1   2  1.575000    22.469538931    18.848223769    16.707757432   0   0   0 # feok
   1492      1   2  1.575000    21.016059628    16.330723769    18.399890766   0   0   0 # feok
   1493      1   2  1.575000    23.923018234    16.330723769    22.973224099   0   0   0 # feok
   1494      1   2  1.575000    22.469538931    18.848223769    27.546557432   0   0   0 # feok
   1495      1   2  1.575000    21.016059628    16.330723769    25.259890766   0   0   0 # feok
   1496      1   2  1.575000    23.923018234    16.330723769    29.833224099   0   0   0 # feok
   1497      1   2  1.575000    22.469538931    18.848223769    20.686557432   0   0   0 # feok
   1498      1   2  1.575000    21.016059628    16.330723769    28.141090766   0   0   0 # feok
   1499      1   2  1.575000    23.923018234    16.330723769    18.994424099   0   0   0 # feok
   1500      1   2  1.575000    22.469538931    18.848223769    23.567757432   0   0   0 # feok
   1501      1   1 -1.050000     0.522768909    13.057973769     6.120490766   0   0   0 # obsk
   1502      1   1 -1.050000     3.429727514    13.057973769    10.693824099   0   0   0 # obsk
   1503      1   1 -1.050000     1.976248212    15.575473769    15.267157432   0   0   0 # obsk
   1504      1   1 -1.050000    25.376497536    15.323723769     6.120490766   0   0   0 # obsk
   1505      1   1 -1.050000     2.121596142    15.323723769    10.693824099   0   0   0 # obsk
   1506      1   1 -1.050000     0.668116839    17.841223769    15.267157432   0   0   0 # obsk
   1507      1   1 -1.050000     2.266944072    15.575473769     6.120490766   0   0   0 # obsk
   1508      1   1 -1.050000     0.813464769    13.057973769    10.693824099   0   0   0 # obsk
   1509      1   1 -1.050000    25.521845467    15.575473769    15.267157432   0   0   0 # obsk
   1510      1   1 -1.050000     2.266944072    12.050973769    12.980490766   0   0   0 # obsk
   1511      1   1 -1.050000     0.813464769    14.568473769     3.833824099   0   0   0 # obsk
   1512      1   1 -1.050000    25.521845467    17.085973769     8.407157432   0   0   0 # obsk
   1513      1   1 -1.050000    25.376497536    17.337723769    12.980490766   0   0   0 # obsk
   1514      1   1 -1.050000     2.121596142    12.302723769     3.833824099   0   0   0 # obsk
   1515      1   1 -1.050000     0.668116839    14.820223769     8.407157432   0   0   0 # obsk
   1516      1   1 -1.050000     0.522768909    14.568473769    12.980490766   0   0   0 # obsk
   1517      1   1 -1.050000     3.429727514    14.568473769     3.833824099   0   0   0 # obsk
   1518      1   1 -1.050000     1.976248212    17.085973769     8.407157432   0   0   0 # obsk
   1519      1   2  1.575000    25.376497536    13.813223769     7.561090766   0   0   0 # feok
   1520      1   2  1.575000     2.121596142    13.813223769    12.134424099   0   0   0 # feok
   1521      1   2  1.575000     0.668116839    16.330723769     2.987757432   0   0   0 # feok
   1522      1   2  1.575000    25.376497536    13.813223769     4.679890766   0   0   0 # feok
   1523      1   2  1.575000     2.121596142    13.813223769     9.253224099   0   0   0 # feok
   1524      1   2  1.575000     0.668116839    16.330723769    13.826557432   0   0   0 # feok
   1525      1   2  1.575000    25.376497536    13.813223769    11.539890766   0   0   0 # feok
   1526      1   2  1.575000     2.121596142    13.813223769    16.113224099   0   0   0 # feok
   1527      1   2  1.575000     0.668116839    16.330723769     6.966557432   0   0   0 # feok
   1528      1   2  1.575000    25.376497536    13.813223769    14.421090766   0   0   0 # feok
   1529      1   2  1.575000     2.121596142    13.813223769     5.274424099   0   0   0 # feok
   1530      1   2  1.575000     0.668116839    16.330723769     9.847757432   0   0   0 # feok
   1531      1   1 -1.050000     0.522768909    13.057973769    19.840490766   0   0   0 # obsk
   1532      1   1 -1.050000     3.429727514    13.057973769    24.413824099   0   0   0 # obsk
   1533      1   1 -1.050000     1.976248212    15.575473769    28.987157432   0   0   0 # obsk
   1534      1   1 -1.050000    25.376497536    15.323723769    19.840490766   0   0   0 # obsk
   1535      1   1 -1.050000     2.121596142    15.323723769    24.413824099   0   0   0 # obsk
   1536      1   1 -1.129000     0.668116839    17.841223769    28.987157432   0   0   0 # obsk
   1537      1   1 -1.050000     2.266944072    15.575473769    19.840490766   0   0   0 # obsk
   1538      1   1 -1.050000     0.813464769    13.057973769    24.413824099   0   0   0 # obsk
   1539      1   1 -1.050000    25.521845467    15.575473769    28.987157432   0   0   0 # obsk
   1540      1   1 -1.050000     2.266944072    12.050973769    26.700490766   0   0   0 # obsk
   1541      1   1 -1.050000     0.813464769    14.568473769    17.553824099   0   0   0 # obsk
   1542      1   1 -1.050000    25.521845467    17.085973769    22.127157432   0   0   0 # obsk
   1543      1   1 -1.050000    25.376497536    17.337723769    26.700490766   0   0   0 # obsk
   1544      1   1 -1.050000     2.121596142    12.302723769    17.553824099   0   0   0 # obsk
   1545      1   1 -1.050000     0.668116839    14.820223769    22.127157432   0   0   0 # obsk
   1546      1   1 -1.050000     0.522768909    14.568473769    26.700490766   0   0   0 # obsk
   1547      1   1 -1.050000     3.429727514    14.568473769    17.553824099   0   0   0 # obsk
   1548      1   1 -1.050000     1.976248212    17.085973769    22.127157432   0   0   0 # obsk
   1549      1   2  1.575000    25.376497536    13.813223769    21.281090766   0   0   0 # feok
   1550      1   2  1.575000     2.121596142    13.813223769    25.854424099   0   0   0 # feok
   1551      1   2  1.575000     0.668116839    16.330723769    16.707757432   0   0   0 # feok
   1552      1   2  1.575000    25.376497536    13.813223769    18.399890766   0   0   0 # feok
   1553      1   2  1.575000     2.121596142    13.813223769    22.973224099   0   0   0 # feok
   1554      1   2  1.575000     0.668116839    16.330723769    27.546557432   0   0   0 # feok
   1555      1   2  1.575000    25.376497536    13.813223769    25.259890766   0   0   0 # feok
   1556      1   2  1.575000     2.121596142    13.813223769    29.833224099   0   0   0 # feok
   1557      1   2  1.575000     0.668116839    16.330723769    20.686557432   0   0   0 # feok
   1558      1   2  1.575000    25.376497536    13.813223769    28.141090766   0   0   0 # feok
   1559      1   2  1.575000     2.121596142    13.813223769    18.994424099   0   0   0 # feok
   1560      1   2  1.575000     0.668116839    16.330723769    23.567757432   0   0   0 # feok
   1561      1   1 -1.050000     4.883206817    10.540473769     6.120490766   0   0   0 # obsk
   1562      1   1 -1.050000     7.790165422    10.540473769    10.693824099   0   0   0 # obsk
   1563      1   1 -1.050000     6.336686120    13.057973769    15.267157432   0   0   0 # obsk
   1564      1   1 -1.050000     3.575075445    12.806223769     6.120490766   0   0   0 # obsk
   1565      1   1 -1.050000     6.482034050    12.806223769    10.693824099   0   0   0 # obsk
   1566      1   1 -1.050000     5.028554747    15.323723769    15.267157432   0   0   0 # obsk
   1567      1   1 -1.050000     6.627381980    13.057973769     6.120490766   0   0   0 # obsk
   1568      1   1 -1.050000     5.173902677    10.540473769    10.693824099   0   0   0 # obsk
   1569      1   1 -1.050000     3.720423375    13.057973769    15.267157432   0   0   0 # obsk
   1570      1   1 -1.050000     6.627381980     9.533473769    12.980490766   0   0   0 # obsk
   1571      1   1 -1.050000     5.173902677    12.050973769     3.833824099   0   0   0 # obsk
   1572      1   1 -1.050000     3.720423375    14.568473769     8.407157432   0   0   0 # obsk
   1573      1   1 -1.050000     3.575075445    14.820223769    12.980490766   0   0   0 # obsk
   1574      1   1 -1.050000     6.482034050     9.785223769     3.833824099   0   0   0 # obsk
   1575      1   1 -1.050000     5.028554747    12.302723769     8.407157432   0   0   0 # obsk
   1576      1   1 -1.050000     4.883206817    12.050973769    12.980490766   0   0   0 # obsk
   1577      1   1 -1.050000     7.790165422    12.050973769     3.833824099   0   0   0 # obsk
   1578      1   1 -1.050000     6.336686120    14.568473769     8.407157432   0   0   0 # obsk
   1579      1   2  1.575000     3.575075445    11.295723769     7.561090766   0   0   0 # feok
   1580      1   2  1.575000     6.482034050    11.295723769    12.134424099   0   0   0 # feok
   1581      1   2  1.575000     5.028554747    13.813223769     2.987757432   0   0   0 # feok
   1582      1   2  1.575000     3.575075445    11.295723769     4.679890766   0   0   0 # feok
   1583      1   2  1.575000     6.482034050    11.295723769     9.253224099   0   0   0 # feok
   1584      1   2  1.575000     5.028554747    13.813223769    13.826557432   0   0   0 # feok
   1585      1   2  1.575000     3.575075445    11.295723769    11.539890766   0   0   0 # feok
   1586      1   2  1.575000     6.482034050    11.295723769    16.113224099   0   0   0 # feok
   1587      1   2  1.575000     5.028554747    13.813223769     6.966557432   0   0   0 # feok
   1588      1   2  1.575000     3.575075445    11.295723769    14.421090766   0   0   0 # feok
   1589      1   2  1.575000     6.482034050    11.295723769     5.274424099   0   0   0 # feok
   1590      1   2  1.575000     5.028554747    13.813223769     9.847757432   0   0   0 # feok
   1591      1   1 -1.050000     4.883206817    10.540473769    19.840490766   0   0   0 # obsk
   1592      1   1 -1.050000     7.790165422    10.540473769    24.413824099   0   0   0 # obsk
   1593      1   1 -1.050000     6.336686120    13.057973769    28.987157432   0   0   0 # obsk
   1594      1   1 -1.050000     3.575075445    12.806223769    19.840490766   0   0   0 # obsk
   1595      1   1 -1.050000     6.482034050    12.806223769    24.413824099   0   0   0 # obsk
   1596      1   1 -1.050000     5.028554747    15.323723769    28.987157432   0   0   0 # obsk
   1597      1   1 -1.050000     6.627381980    13.057973769    19.840490766   0   0   0 # obsk
   1598      1   1 -1.050000     5.173902677    10.540473769    24.413824099   0   0   0 # obsk
   1599      1   1 -1.050000     3.720423375    13.057973769    28.987157432   0   0   0 # obsk
   1600      1   1 -1.050000     6.627381980     9.533473769    26.700490766   0   0   0 # obsk
   1601      1   1 -1.050000     5.173902677    12.050973769    17.553824099   0   0   0 # obsk
   1602      1   1 -1.050000     3.720423375    14.568473769    22.127157432   0   0   0 # obsk
   1603      1   1 -1.050000     3.575075445    14.820223769    26.700490766   0   0   0 # obsk
   1604      1   1 -1.050000     6.482034050     9.785223769    17.553824099   0   0   0 # obsk
   1605      1   1 -1.050000     5.028554747    12.302723769    22.127157432   0   0   0 # obsk
   1606      1   1 -1.050000     4.883206817    12.050973769    26.700490766   0   0   0 # obsk
   1607      1   1 -1.050000     7.790165422    12.050973769    17.553824099   0   0   0 # obsk
   1608      1   1 -1.050000     6.336686120    14.568473769    22.127157432   0   0   0 # obsk
   1609      1   2  1.575000     3.575075445    11.295723769    21.281090766   0   0   0 # feok
   1610      1   2  1.575000     6.482034050    11.295723769    25.854424099   0   0   0 # feok
   1611      1   2  1.575000     5.028554747    13.813223769    16.707757432   0   0   0 # feok
   1612      1   2  1.575000     3.575075445    11.295723769    18.399890766   0   0   0 # feok
   1613      1   2  1.575000     6.482034050    11.295723769    22.973224099   0   0   0 # feok
   1614      1   2  1.575000     5.028554747    13.813223769    27.546557432   0   0   0 # feok
   1615      1   2  1.575000     3.575075445    11.295723769    25.259890766   0   0   0 # feok
   1616      1   2  1.575000     6.482034050    11.295723769    29.833224099   0   0   0 # feok
   1617      1   2  1.575000     5.028554747    13.813223769    20.686557432   0   0   0 # feok
   1618      1   2  1.575000     3.575075445    11.295723769    28.141090766   0   0   0 # feok
   1619      1   2  1.575000     6.482034050    11.295723769    18.994424099   0   0   0 # feok
   1620      1   2  1.575000     5.028554747    13.813223769    23.567757432   0   0   0 # feok
   1621      1   1 -1.050000     9.243644725     8.022973769     6.120490766   0   0   0 # obsk
   1622      1   1 -1.050000    12.150603330     8.022973769    10.693824099   0   0   0 # obsk
   1623      1   1 -1.050000    10.697124028    10.540473769    15.267157432   0   0   0 # obsk
   1624      1   1 -1.050000     7.935513353    10.288723769     6.120490766   0   0   0 # obsk
   1625      1   1 -1.050000    10.842471958    10.288723769    10.693824099   0   0   0 # obsk
   1626      1   1 -1.050000     9.388992655    12.806223769    15.267157432   0   0   0 # obsk
   1627      1   1 -1.050000    10.987819888    10.540473769     6.120490766   0   0   0 # obsk
   1628      1   1 -1.050000     9.534340586     8.022973769    10.693824099   0   0   0 # obsk
   1629      1   1 -1.050000     8.080861283    10.540473769    15.267157432   0   0   0 # obsk
   1630      1   1 -1.050000    10.987819888     7.015973769    12.980490766   0   0   0 # obsk
   1631      1   1 -1.050000     9.534340586     9.533473769     3.833824099   0   0   0 # obsk
   1632      1   1 -1.050000     8.080861283    12.050973769     8.407157432   0   0   0 # obsk
   1633      1   1 -1.050000     7.935513353    12.302723769    12.980490766   0   0   0 # obsk
   1634      1   1 -1.050000    10.842471958     7.267723769     3.833824099   0   0   0 # obsk
   1635      1   1 -1.050000     9.388992655     9.785223769     8.407157432   0   0   0 # obsk
   1636      1   1 -1.050000     9.243644725     9.533473769    12.980490766   0   0   0 # obsk
   1637      1   1 -1.050000    12.150603330     9.533473769     3.833824099   0   0   0 # obsk
   1638      1   1 -1.050000    10.697124028    12.050973769     8.407157432   0   0   0 # obsk
   1639      1   2  1.575000     7.935513353     8.778223769     7.561090766   0   0   0 # feok
   1640      1   2  1.575000    10.842471958     8.778223769    12.134424099   0   0   0 # feok
   1641      1   2  1.575000     9.388992655    11.295723769     2.987757432   0   0   0 # feok
   1642      1   2  1.575000     7.935513353     8.778223769     4.679890766   0   0   0 # feok
   1643      1   2  1.575000    10.842471958     8.778223769     9.253224099   0   0   0 # feok
   1644      1   2  1.575000     9.388992655    11.295723769    13.826557432   0   0   0 # feok
   1645      1   2  1.575000     7.935513353     8.778223769    11.539890766   0   0   0 # feok
   1646      1   2  1.575000    10.842471958     8.778223769    16.113224099   0   0   0 # feok
   1647      1   2  1.575000     9.388992655    11.295723769     6.966557432   0   0   0 # feok
   1648      1   2  1.575000     7.935513353     8.778223769    14.421090766   0   0   0 # feok
   1649      1   2  1.575000    10.842471958     8.778223769     5.274424099   0   0   0 # feok
   1650      1   2  1.575000     9.388992655    11.295723769     9.847757432   0   0   0 # feok
   1651      1   1 -1.050000     9.243644725     8.022973769    19.840490766   0   0   0 # obsk
   1652      1   1 -1.050000    12.150603330     8.022973769    24.413824099   0   0   0 # obsk
   1653      1   1 -1.050000    10.697124028    10.540473769    28.987157432   0   0   0 # obsk
   1654      1   1 -1.050000     7.935513353    10.288723769    19.840490766   0   0   0 # obsk
   1655      1   1 -1.050000    10.842471958    10.288723769    24.413824099   0   0   0 # obsk
   1656      1   1 -1.050000     9.388992655    12.806223769    28.987157432   0   0   0 # obsk
   1657      1   1 -1.050000    10.987819888    10.540473769    19.840490766   0   0   0 # obsk
   1658      1   1 -1.050000     9.534340586     8.022973769    24.413824099   0   0   0 # obsk
   1659      1   1 -1.050000     8.080861283    10.540473769    28.987157432   0   0   0 # obsk
   1660      1   1 -1.050000    10.987819888     7.015973769    26.700490766   0   0   0 # obsk
   1661      1   1 -1.050000     9.534340586     9.533473769    17.553824099   0   0   0 # obsk
   1662      1   1 -1.050000     8.080861283    12.050973769    22.127157432   0   0   0 # obsk
   1663      1   1 -1.050000     7.935513353    12.302723769    26.700490766   0   0   0 # obsk
   1664      1   1 -1.050000    10.842471958     7.267723769    17.553824099   0   0   0 # obsk
   1665      1   1 -1.050000     9.388992655     9.785223769    22.127157432   0   0   0 # obsk
   1666      1   1 -1.050000     9.243644725     9.533473769    26.700490766   0   0   0 # obsk
   1667      1   1 -1.050000    12.150603330     9.533473769    17.553824099   0   0   0 # obsk
   1668      1   1 -1.050000    10.697124028    12.050973769    22.127157432   0   0   0 # obsk
   1669      1   2  1.575000     7.935513353     8.778223769    21.281090766   0   0   0 # feok
   1670      1   2  1.575000    10.842471958     8.778223769    25.854424099   0   0   0 # feok
   1671      1   2  1.575000     9.388992655    11.295723769    16.707757432   0   0   0 # feok
   1672      1   2  1.575000     7.935513353     8.778223769    18.399890766   0   0   0 # feok
   1673      1   2  1.575000    10.842471958     8.778223769    22.973224099   0   0   0 # feok
   1674      1   2  1.575000     9.388992655    11.295723769    27.546557432   0   0   0 # feok
   1675      1   2  1.575000     7.935513353     8.778223769    25.259890766   0   0   0 # feok
   1676      1   2  1.575000    10.842471958     8.778223769    29.833224099   0   0   0 # feok
   1677      1   2  1.575000     9.388992655    11.295723769    20.686557432   0   0   0 # feok
   1678      1   2  1.575000     7.935513353     8.778223769    28.141090766   0   0   0 # feok
   1679      1   2  1.575000    10.842471958     8.778223769    18.994424099   0   0   0 # feok
   1680      1   2  1.575000     9.388992655    11.295723769    23.567757432   0   0   0 # feok
   1681      1   1 -1.050000    13.604082633     5.505473769     6.120490766   0   0   0 # obsk
   1682      1   1 -1.050000    16.511041238     5.505473769    10.693824099   0   0   0 # obsk
   1683      1   1 -1.050000    15.057561936     8.022973769    15.267157432   0   0   0 # obsk
   1684      1   1 -1.050000    12.295951261     7.771223769     6.120490766   0   0   0 # obsk
   1685      1   1 -1.050000    15.202909866     7.771223769    10.693824099   0   0   0 # obsk
   1686      1   1 -1.050000    13.749430563    10.288723769    15.267157432   0   0   0 # obsk
   1687      1   1 -1.050000    15.348257796     8.022973769     6.120490766   0   0   0 # obsk
   1688      1   1 -1.050000    13.894778494     5.505473769    10.693824099   0   0   0 # obsk
   1689      1   1 -1.050000    12.441299191     8.022973769    15.267157432   0   0   0 # obsk
   1690      1   1 -1.050000    15.348257796     4.498473769    12.980490766   0   0   0 # obsk
   1691      1   1 -1.050000    13.894778494     7.015973769     3.833824099   0   0   0 # obsk
   1692      1   1 -1.050000    12.441299191     9.533473769     8.407157432   0   0   0 # obsk
   1693      1   1 -1.050000    12.295951261     9.785223769    12.980490766   0   0   0 # obsk
   1694      1   1 -1.050000    15.202909866     4.750223769     3.833824099   0   0   0 # obsk
   1695      1   1 -1.050000    13.749430563     7.267723769     8.407157432   0   0   0 # obsk
   1696      1   1 -1.050000    13.604082633     7.015973769    12.980490766   0   0   0 # obsk
   1697      1   1 -1.050000    16.511041238     7.015973769     3.833824099   0   0   0 # obsk
   1698      1   1 -1.050000    15.057561936     9.533473769     8.407157432   0   0   0 # obsk
   1699      1   2  1.575000    12.295951261     6.260723769     7.561090766   0   0   0 # feok
   1700      1   2  1.575000    15.202909866     6.260723769    12.134424099   0   0   0 # feok
   1701      1   2  1.575000    13.749430563     8.778223769     2.987757432   0   0   0 # feok
   1702      1   2  1.575000    12.295951261     6.260723769     4.679890766   0   0   0 # feok
   1703      1   2  1.575000    15.202909866     6.260723769     9.253224099   0   0   0 # feok
   1704      1   2  1.575000    13.749430563     8.778223769    13.826557432   0   0   0 # feok
   1705      1   2  1.575000    12.295951261     6.260723769    11.539890766   0   0   0 # feok
   1706      1   2  1.575000    15.202909866     6.260723769    16.113224099   0   0   0 # feok
   1707      1   2  1.575000    13.749430563     8.778223769     6.966557432   0   0   0 # feok
   1708      1   2  1.575000    12.295951261     6.260723769    14.421090766   0   0   0 # feok
   1709      1   2  1.575000    15.202909866     6.260723769     5.274424099   0   0   0 # feok
   1710      1   2  1.575000    13.749430563     8.778223769     9.847757432   0   0   0 # feok
   1711      1   1 -1.050000    13.604082633     5.505473769    19.840490766   0   0   0 # obsk
   1712      1   1 -1.050000    16.511041238     5.505473769    24.413824099   0   0   0 # obsk
   1713      1   1 -1.050000    15.057561936     8.022973769    28.987157432   0   0   0 # obsk
   1714      1   1 -1.050000    12.295951261     7.771223769    19.840490766   0   0   0 # obsk
   1715      1   1 -1.050000    15.202909866     7.771223769    24.413824099   0   0   0 # obsk
   1716      1   1 -1.050000    13.749430563    10.288723769    28.987157432   0   0   0 # obsk
   1717      1   1 -1.050000    15.348257796     8.022973769    19.840490766   0   0   0 # obsk
   1718      1   1 -1.050000    13.894778494     5.505473769    24.413824099   0   0   0 # obsk
   1719      1   1 -1.050000    12.441299191     8.022973769    28.987157432   0   0   0 # obsk
   1720      1   1 -1.050000    15.348257796     4.498473769    26.700490766   0   0   0 # obsk
   1721      1   1 -1.050000    13.894778494     7.015973769    17.553824099   0   0   0 # obsk
   1722      1   1 -1.050000    12.441299191     9.533473769    22.127157432   0   0   0 # obsk
   1723      1   1 -1.050000    12.295951261     9.785223769    26.700490766   0   0   0 # obsk
   1724      1   1 -1.050000    15.202909866     4.750223769    17.553824099   0   0   0 # obsk
   1725      1   1 -1.050000    13.749430563     7.267723769    22.127157432   0   0   0 # obsk
   1726      1   1 -1.050000    13.604082633     7.015973769    26.700490766   0   0   0 # obsk
   1727      1   1 -1.050000    16.511041238     7.015973769    17.553824099   0   0   0 # obsk
   1728      1   1 -1.050000    15.057561936     9.533473769    22.127157432   0   0   0 # obsk
   1729      1   2  1.575000    12.295951261     6.260723769    21.281090766   0   0   0 # feok
   1730      1   2  1.575000    15.202909866     6.260723769    25.854424099   0   0   0 # feok
   1731      1   2  1.575000    13.749430563     8.778223769    16.707757432   0   0   0 # feok
   1732      1   2  1.575000    12.295951261     6.260723769    18.399890766   0   0   0 # feok
   1733      1   2  1.575000    15.202909866     6.260723769    22.973224099   0   0   0 # feok
   1734      1   2  1.575000    13.749430563     8.778223769    27.546557432   0   0   0 # feok
   1735      1   2  1.575000    12.295951261     6.260723769    25.259890766   0   0   0 # feok
   1736      1   2  1.575000    15.202909866     6.260723769    29.833224099   0   0   0 # feok
   1737      1   2  1.575000    13.749430563     8.778223769    20.686557432   0   0   0 # feok
   1738      1   2  1.575000    12.295951261     6.260723769    28.141090766   0   0   0 # feok
   1739      1   2  1.575000    15.202909866     6.260723769    18.994424099   0   0   0 # feok
   1740      1   2  1.575000    13.749430563     8.778223769    23.567757432   0   0   0 # feok
   1741      1   1 -1.050000    17.964520541     2.987973769     6.120490766   0   0   0 # obsk
   1742      1   1 -1.050000    20.871479146     2.987973769    10.693824099   0   0   0 # obsk
   1743      1   1 -1.050000    19.417999844     5.505473769    15.267157432   0   0   0 # obsk
   1744      1   1 -1.050000    16.656389169     5.253723769     6.120490766   0   0   0 # obsk
   1745      1   1 -1.050000    19.563347774     5.253723769    10.693824099   0   0   0 # obsk
   1746      1   1 -1.050000    18.109868471     7.771223769    15.267157432   0   0   0 # obsk
   1747      1   1 -1.050000    19.708695704     5.505473769     6.120490766   0   0   0 # obsk
   1748      1   1 -1.050000    18.255216402     2.987973769    10.693824099   0   0   0 # obsk
   1749      1   1 -1.050000    16.801737099     5.505473769    15.267157432   0   0   0 # obsk
   1750      1   1 -1.050000    19.708695704     1.980973769    12.980490766   0   0   0 # obsk
   1751      1   1 -1.050000    18.255216402     4.498473769     3.833824099   0   0   0 # obsk
   1752      1   1 -1.050000    16.801737099     7.015973769     8.407157432   0   0   0 # obsk
   1753      1   1 -1.050000    16.656389169     7.267723769    12.980490766   0   0   0 # obsk
   1754      1   1 -1.050000    19.563347774     2.232723769     3.833824099   0   0   0 # obsk
   1755      1   1 -1.050000    18.109868471     4.750223769     8.407157432   0   0   0 # obsk
   1756      1   1 -1.050000    17.964520541     4.498473769    12.980490766   0   0   0 # obsk
   1757      1   1 -1.050000    20.871479146     4.498473769     3.833824099   0   0   0 # obsk
   1758      1   1 -1.050000    19.417999844     7.015973769     8.407157432   0   0   0 # obsk
   1759      1   2  1.575000    16.656389169     3.743223769     7.561090766   0   0   0 # feok
   1760      1   2  1.575000    19.563347774     3.743223769    12.134424099   0   0   0 # feok
   1761      1   2  1.575000    18.109868471     6.260723769     2.987757432   0   0   0 # feok
   1762      1   2  1.575000    16.656389169     3.743223769     4.679890766   0   0   0 # feok
   1763      1   2  1.575000    19.563347774     3.743223769     9.253224099   0   0   0 # feok
   1764      1   2  1.575000    18.109868471     6.260723769    13.826557432   0   0   0 # feok
   1765      1   2  1.575000    16.656389169     3.743223769    11.539890766   0   0   0 # feok
   1766      1   2  1.575000    19.563347774     3.743223769    16.113224099   0   0   0 # feok
   1767      1   2  1.575000    18.109868471     6.260723769     6.966557432   0   0   0 # feok
   1768      1   2  1.575000    16.656389169     3.743223769    14.421090766   0   0   0 # feok
   1769      1   2  1.575000    19.563347774     3.743223769     5.274424099   0   0   0 # feok
   1770      1   2  1.575000    18.109868471     6.260723769     9.847757432   0   0   0 # feok
   1771      1   1 -1.050000    17.964520541     2.987973769    19.840490766   0   0   0 # obsk
   1772      1   1 -1.050000    20.871479146     2.987973769    24.413824099   0   0   0 # obsk
   1773      1   1 -1.129000    19.417999844     5.505473769    28.987157432   0   0   0 # obsk
   1774      1   1 -1.050000    16.656389169     5.253723769    19.840490766   0   0   0 # obsk
   1775      1   1 -1.050000    19.563347774     5.253723769    24.413824099   0   0   0 # obsk
   1776      1   1 -1.050000    18.109868471     7.771223769    28.987157432   0   0   0 # obsk
   1777      1   1 -1.050000    19.708695704     5.505473769    19.840490766   0   0   0 # obsk
   1778      1   1 -1.050000    18.255216402     2.987973769    24.413824099   0   0   0 # obsk
   1779      1   1 -1.050000    16.801737099     5.505473769    28.987157432   0   0   0 # obsk
   1780      1   1 -1.050000    19.708695704     1.980973769    26.700490766   0   0   0 # obsk
   1781      1   1 -1.050000    18.255216402     4.498473769    17.553824099   0   0   0 # obsk
   1782      1   1 -1.050000    16.801737099     7.015973769    22.127157432   0   0   0 # obsk
   1783      1   1 -1.050000    16.656389169     7.267723769    26.700490766   0   0   0 # obsk
   1784      1   1 -1.050000    19.563347774     2.232723769    17.553824099   0   0   0 # obsk
   1785      1   1 -1.050000    18.109868471     4.750223769    22.127157432   0   0   0 # obsk
   1786      1   1 -1.050000    17.964520541     4.498473769    26.700490766   0   0   0 # obsk
   1787      1   1 -1.050000    20.871479146     4.498473769    17.553824099   0   0   0 # obsk
   1788      1   1 -1.050000    19.417999844     7.015973769    22.127157432   0   0   0 # obsk
   1789      1   2  1.575000    16.656389169     3.743223769    21.281090766   0   0   0 # feok
   1790      1   2  1.575000    19.563347774     3.743223769    25.854424099   0   0   0 # feok
   1791      1   2  1.575000    18.109868471     6.260723769    16.707757432   0   0   0 # feok
   1792      1   2  1.575000    16.656389169     3.743223769    18.399890766   0   0   0 # feok
   1793      1   2  1.575000    19.563347774     3.743223769    22.973224099   0   0   0 # feok
   1794      1   2  1.575000    18.109868471     6.260723769    27.546557432   0   0   0 # feok
   1795      1   2  1.575000    16.656389169     3.743223769    25.259890766   0   0   0 # feok
   1796      1   2  1.496000    19.563347774     3.743223769    29.833224099   0   0   0 # feok
   1797      1   2  1.575000    18.109868471     6.260723769    20.686557432   0   0   0 # feok
   1798      1   2  1.575000    16.656389169     3.743223769    28.141090766   0   0   0 # feok
   1799      1   2  1.575000    19.563347774     3.743223769    18.994424099   0   0   0 # feok
   1800      1   2  1.575000    18.109868471     6.260723769    23.567757432   0   0   0 # feok
   1801      1   3 -1.029000    13.972722335    18.092973769    31.041818092   0   0   0 # ohk
   1802      1   3 -1.029000     6.559977891     5.253723769    31.041818092   0   0   0 # ohk
   1803      1   3 -1.029000     2.199539983    17.841223769    31.041818092   0   0   0 # ohk
   1804      1   3 -1.029000    20.949422988     5.505473769    31.041818092   0   0   0 # ohk
   1805      1   4  0.346000    13.382734539    18.913855513    30.891114723   0   0   0 # hoy
   1806      1   4  0.346000     5.946300409     5.993723870    31.405842304   0   0   0 # hoy
   1807      1   4  0.346000     1.585862501    18.581223870    31.405842304   0   0   0 # hoy
   1808      1   4  0.346000    20.907665080     6.245473870    31.748994024   0   0   0 # hoy

Bonds

     1   1   1801   1805
     2   1   1802   1806
     3   1   1803   1807
     4   1   1804   1808

Angles

     1   1    656   1801   1805
     2   1   1256   1802   1806
     3   1    116   1803   1807
     4   1   1796   1804   1808

