LAMMPS data file for hem-d2-8

   1816 atoms
   8 bonds
   8 angles
      0 dihedrals
      0 impropers

   4 atom types
   1 bond types
   1 angle types

    -0.419529552    25.742370448 xlo xhi
    -0.521890397    24.653109603 ylo yhi
   -50.029160696    83.109839304 zlo zhi

Masses

   1  15.999400 # obsk
   2  55.847000 # feok
   3  15.999400 # ohk
   4   1.007940 # hoy

Pair Coeffs # lj/cut/coul/long

   1   0.1554000000   3.1655413253 # obsk
   2   0.0000090298   4.0722178483 # feok
   3   0.1554000000   3.1655413253 # ohk
   4   0.0000000000   0.0000000000 # hoy

Bond Coeffs # harmonic

   1   554.1348     1.0000 # ohk-hoy

Angle Coeffs # harmonic

   1    30.0000   109.4700 # feok-ohk-hoy

Atoms # full

      1      1   1 -1.050000     1.308131372    24.419750000     6.120490766   0   0   0 # obsk
      2      1   1 -1.050000     4.215089978    24.419750000    10.693824099   0   0   0 # obsk
      3      1   1 -1.050000     2.761610675     1.762250000    15.267157432   0   0   0 # obsk
      4      1   1 -1.050000     0.000000000     1.510500000     6.120490766   0   0   0 # obsk
      5      1   1 -1.050000     2.906958605     1.510500000    10.693824099   0   0   0 # obsk
      6      1   1 -1.050000     1.453479303     4.028000000    15.267157432   0   0   0 # obsk
      7      1   1 -1.050000     3.052306536     1.762250000     6.120490766   0   0   0 # obsk
      8      1   1 -1.050000     1.598827233    24.419750000    10.693824099   0   0   0 # obsk
      9      1   1 -1.050000     0.145347930     1.762250000    15.267157432   0   0   0 # obsk
     10      1   1 -1.050000     3.052306536    23.412750000    12.980490766   0   0   0 # obsk
     11      1   1 -1.050000     1.598827233     0.755250000     3.833824099   0   0   0 # obsk
     12      1   1 -1.050000     0.145347930     3.272750000     8.407157432   0   0   0 # obsk
     13      1   1 -1.050000     0.000000000     3.524500000    12.980490766   0   0   0 # obsk
     14      1   1 -1.050000     2.906958605    23.664500000     3.833824099   0   0   0 # obsk
     15      1   1 -1.050000     1.453479303     1.007000000     8.407157432   0   0   0 # obsk
     16      1   1 -1.050000     1.308131372     0.755250000    12.980490766   0   0   0 # obsk
     17      1   1 -1.050000     4.215089978     0.755250000     3.833824099   0   0   0 # obsk
     18      1   1 -1.050000     2.761610675     3.272750000     8.407157432   0   0   0 # obsk
     19      1   2  1.575000     0.000000000     0.000000000     7.561090766   0   0   0 # feok
     20      1   2  1.575000     2.906958605     0.000000000    12.134424099   0   0   0 # feok
     21      1   2  1.575000     1.453479303     2.517500000     2.987757432   0   0   0 # feok
     22      1   2  1.575000     0.000000000     0.000000000     4.679890766   0   0   0 # feok
     23      1   2  1.575000     2.906958605     0.000000000     9.253224099   0   0   0 # feok
     24      1   2  1.575000     1.453479303     2.517500000    13.826557432   0   0   0 # feok
     25      1   2  1.575000     0.000000000     0.000000000    11.539890766   0   0   0 # feok
     26      1   2  1.575000     2.906958605     0.000000000    16.113224099   0   0   0 # feok
     27      1   2  1.575000     1.453479303     2.517500000     6.966557432   0   0   0 # feok
     28      1   2  1.575000     0.000000000     0.000000000    14.421090766   0   0   0 # feok
     29      1   2  1.575000     2.906958605     0.000000000     5.274424099   0   0   0 # feok
     30      1   2  1.575000     1.453479303     2.517500000     9.847757432   0   0   0 # feok
     31      1   1 -1.050000     1.308131372    24.419750000    19.840490766   0   0   0 # obsk
     32      1   1 -1.050000     4.215089978    24.419750000    24.413824099   0   0   0 # obsk
     33      1   1 -1.050000     2.761610675     1.762250000    28.987157432   0   0   0 # obsk
     34      1   1 -1.050000     0.000000000     1.510500000    19.840490766   0   0   0 # obsk
     35      1   1 -1.050000     2.906958605     1.510500000    24.413824099   0   0   0 # obsk
     36      1   1 -1.050000     1.453479303     4.028000000    28.987157432   0   0   0 # obsk
     37      1   1 -1.050000     3.052306536     1.762250000    19.840490766   0   0   0 # obsk
     38      1   1 -1.050000     1.598827233    24.419750000    24.413824099   0   0   0 # obsk
     39      1   1 -1.050000     0.145347930     1.762250000    28.987157432   0   0   0 # obsk
     40      1   1 -1.050000     3.052306536    23.412750000    26.700490766   0   0   0 # obsk
     41      1   1 -1.050000     1.598827233     0.755250000    17.553824099   0   0   0 # obsk
     42      1   1 -1.050000     0.145347930     3.272750000    22.127157432   0   0   0 # obsk
     43      1   1 -1.050000     0.000000000     3.524500000    26.700490766   0   0   0 # obsk
     44      1   1 -1.050000     2.906958605    23.664500000    17.553824099   0   0   0 # obsk
     45      1   1 -1.050000     1.453479303     1.007000000    22.127157432   0   0   0 # obsk
     46      1   1 -1.050000     1.308131372     0.755250000    26.700490766   0   0   0 # obsk
     47      1   1 -1.050000     4.215089978     0.755250000    17.553824099   0   0   0 # obsk
     48      1   1 -1.050000     2.761610675     3.272750000    22.127157432   0   0   0 # obsk
     49      1   2  1.575000     0.000000000     0.000000000    21.281090766   0   0   0 # feok
     50      1   2  1.575000     2.906958605     0.000000000    25.854424099   0   0   0 # feok
     51      1   2  1.575000     1.453479303     2.517500000    16.707757432   0   0   0 # feok
     52      1   2  1.575000     0.000000000     0.000000000    18.399890766   0   0   0 # feok
     53      1   2  1.575000     2.906958605     0.000000000    22.973224099   0   0   0 # feok
     54      1   2  1.575000     1.453479303     2.517500000    27.546557432   0   0   0 # feok
     55      1   2  1.575000     0.000000000     0.000000000    25.259890766   0   0   0 # feok
     56      1   2  1.575000     2.906958605     0.000000000    29.833224099   0   0   0 # feok
     57      1   2  1.575000     1.453479303     2.517500000    20.686557432   0   0   0 # feok
     58      1   2  1.575000     0.000000000     0.000000000    28.141090766   0   0   0 # feok
     59      1   2  1.575000     2.906958605     0.000000000    18.994424099   0   0   0 # feok
     60      1   2  1.575000     1.453479303     2.517500000    23.567757432   0   0   0 # feok
     61      1   1 -1.050000     5.668569280    21.902250000     6.120490766   0   0   0 # obsk
     62      1   1 -1.050000     8.575527886    21.902250000    10.693824099   0   0   0 # obsk
     63      1   1 -1.050000     7.122048583    24.419750000    15.267157432   0   0   0 # obsk
     64      1   1 -1.050000     4.360437908    24.168000000     6.120490766   0   0   0 # obsk
     65      1   1 -1.050000     7.267396513    24.168000000    10.693824099   0   0   0 # obsk
     66      1   1 -1.050000     5.813917211     1.510500000    15.267157432   0   0   0 # obsk
     67      1   1 -1.050000     7.412744444    24.419750000     6.120490766   0   0   0 # obsk
     68      1   1 -1.050000     5.959265141    21.902250000    10.693824099   0   0   0 # obsk
     69      1   1 -1.050000     4.505785838    24.419750000    15.267157432   0   0   0 # obsk
     70      1   1 -1.050000     7.412744444    20.895250000    12.980490766   0   0   0 # obsk
     71      1   1 -1.050000     5.959265141    23.412750000     3.833824099   0   0   0 # obsk
     72      1   1 -1.050000     4.505785838     0.755250000     8.407157432   0   0   0 # obsk
     73      1   1 -1.050000     4.360437908     1.007000000    12.980490766   0   0   0 # obsk
     74      1   1 -1.050000     7.267396513    21.147000000     3.833824099   0   0   0 # obsk
     75      1   1 -1.050000     5.813917211    23.664500000     8.407157432   0   0   0 # obsk
     76      1   1 -1.050000     5.668569280    23.412750000    12.980490766   0   0   0 # obsk
     77      1   1 -1.050000     8.575527886    23.412750000     3.833824099   0   0   0 # obsk
     78      1   1 -1.050000     7.122048583     0.755250000     8.407157432   0   0   0 # obsk
     79      1   2  1.575000     4.360437908    22.657500000     7.561090766   0   0   0 # feok
     80      1   2  1.575000     7.267396513    22.657500000    12.134424099   0   0   0 # feok
     81      1   2  1.575000     5.813917211     0.000000000     2.987757432   0   0   0 # feok
     82      1   2  1.575000     4.360437908    22.657500000     4.679890766   0   0   0 # feok
     83      1   2  1.575000     7.267396513    22.657500000     9.253224099   0   0   0 # feok
     84      1   2  1.575000     5.813917211     0.000000000    13.826557432   0   0   0 # feok
     85      1   2  1.575000     4.360437908    22.657500000    11.539890766   0   0   0 # feok
     86      1   2  1.575000     7.267396513    22.657500000    16.113224099   0   0   0 # feok
     87      1   2  1.575000     5.813917211     0.000000000     6.966557432   0   0   0 # feok
     88      1   2  1.575000     4.360437908    22.657500000    14.421090766   0   0   0 # feok
     89      1   2  1.575000     7.267396513    22.657500000     5.274424099   0   0   0 # feok
     90      1   2  1.575000     5.813917211     0.000000000     9.847757432   0   0   0 # feok
     91      1   1 -1.050000     5.668569280    21.902250000    19.840490766   0   0   0 # obsk
     92      1   1 -1.050000     8.575527886    21.902250000    24.413824099   0   0   0 # obsk
     93      1   1 -1.050000     7.122048583    24.419750000    28.987157432   0   0   0 # obsk
     94      1   1 -1.050000     4.360437908    24.168000000    19.840490766   0   0   0 # obsk
     95      1   1 -1.050000     7.267396513    24.168000000    24.413824099   0   0   0 # obsk
     96      1   1 -1.129000     5.813917211     1.510500000    28.987157432   0   0   0 # obsk
     97      1   1 -1.050000     7.412744444    24.419750000    19.840490766   0   0   0 # obsk
     98      1   1 -1.050000     5.959265141    21.902250000    24.413824099   0   0   0 # obsk
     99      1   1 -1.050000     4.505785838    24.419750000    28.987157432   0   0   0 # obsk
    100      1   1 -1.050000     7.412744444    20.895250000    26.700490766   0   0   0 # obsk
    101      1   1 -1.050000     5.959265141    23.412750000    17.553824099   0   0   0 # obsk
    102      1   1 -1.050000     4.505785838     0.755250000    22.127157432   0   0   0 # obsk
    103      1   1 -1.050000     4.360437908     1.007000000    26.700490766   0   0   0 # obsk
    104      1   1 -1.050000     7.267396513    21.147000000    17.553824099   0   0   0 # obsk
    105      1   1 -1.050000     5.813917211    23.664500000    22.127157432   0   0   0 # obsk
    106      1   1 -1.050000     5.668569280    23.412750000    26.700490766   0   0   0 # obsk
    107      1   1 -1.050000     8.575527886    23.412750000    17.553824099   0   0   0 # obsk
    108      1   1 -1.050000     7.122048583     0.755250000    22.127157432   0   0   0 # obsk
    109      1   2  1.575000     4.360437908    22.657500000    21.281090766   0   0   0 # feok
    110      1   2  1.575000     7.267396513    22.657500000    25.854424099   0   0   0 # feok
    111      1   2  1.575000     5.813917211     0.000000000    16.707757432   0   0   0 # feok
    112      1   2  1.575000     4.360437908    22.657500000    18.399890766   0   0   0 # feok
    113      1   2  1.575000     7.267396513    22.657500000    22.973224099   0   0   0 # feok
    114      1   2  1.575000     5.813917211     0.000000000    27.546557432   0   0   0 # feok
    115      1   2  1.575000     4.360437908    22.657500000    25.259890766   0   0   0 # feok
    116      1   2  1.575000     7.267396513    22.657500000    29.833224099   0   0   0 # feok
    117      1   2  1.575000     5.813917211     0.000000000    20.686557432   0   0   0 # feok
    118      1   2  1.575000     4.360437908    22.657500000    28.141090766   0   0   0 # feok
    119      1   2  1.575000     7.267396513    22.657500000    18.994424099   0   0   0 # feok
    120      1   2  1.575000     5.813917211     0.000000000    23.567757432   0   0   0 # feok
    121      1   1 -1.050000    10.029007189    19.384750000     6.120490766   0   0   0 # obsk
    122      1   1 -1.050000    12.935965794    19.384750000    10.693824099   0   0   0 # obsk
    123      1   1 -1.050000    11.482486491    21.902250000    15.267157432   0   0   0 # obsk
    124      1   1 -1.050000     8.720875816    21.650500000     6.120490766   0   0   0 # obsk
    125      1   1 -1.050000    11.627834421    21.650500000    10.693824099   0   0   0 # obsk
    126      1   1 -1.050000    10.174355119    24.168000000    15.267157432   0   0   0 # obsk
    127      1   1 -1.050000    11.773182352    21.902250000     6.120490766   0   0   0 # obsk
    128      1   1 -1.050000    10.319703049    19.384750000    10.693824099   0   0   0 # obsk
    129      1   1 -1.050000     8.866223746    21.902250000    15.267157432   0   0   0 # obsk
    130      1   1 -1.050000    11.773182352    18.377750000    12.980490766   0   0   0 # obsk
    131      1   1 -1.050000    10.319703049    20.895250000     3.833824099   0   0   0 # obsk
    132      1   1 -1.050000     8.866223746    23.412750000     8.407157432   0   0   0 # obsk
    133      1   1 -1.050000     8.720875816    23.664500000    12.980490766   0   0   0 # obsk
    134      1   1 -1.050000    11.627834421    18.629500000     3.833824099   0   0   0 # obsk
    135      1   1 -1.050000    10.174355119    21.147000000     8.407157432   0   0   0 # obsk
    136      1   1 -1.050000    10.029007189    20.895250000    12.980490766   0   0   0 # obsk
    137      1   1 -1.050000    12.935965794    20.895250000     3.833824099   0   0   0 # obsk
    138      1   1 -1.050000    11.482486491    23.412750000     8.407157432   0   0   0 # obsk
    139      1   2  1.575000     8.720875816    20.140000000     7.561090766   0   0   0 # feok
    140      1   2  1.575000    11.627834421    20.140000000    12.134424099   0   0   0 # feok
    141      1   2  1.575000    10.174355119    22.657500000     2.987757432   0   0   0 # feok
    142      1   2  1.575000     8.720875816    20.140000000     4.679890766   0   0   0 # feok
    143      1   2  1.575000    11.627834421    20.140000000     9.253224099   0   0   0 # feok
    144      1   2  1.575000    10.174355119    22.657500000    13.826557432   0   0   0 # feok
    145      1   2  1.575000     8.720875816    20.140000000    11.539890766   0   0   0 # feok
    146      1   2  1.575000    11.627834421    20.140000000    16.113224099   0   0   0 # feok
    147      1   2  1.575000    10.174355119    22.657500000     6.966557432   0   0   0 # feok
    148      1   2  1.575000     8.720875816    20.140000000    14.421090766   0   0   0 # feok
    149      1   2  1.575000    11.627834421    20.140000000     5.274424099   0   0   0 # feok
    150      1   2  1.575000    10.174355119    22.657500000     9.847757432   0   0   0 # feok
    151      1   1 -1.050000    10.029007189    19.384750000    19.840490766   0   0   0 # obsk
    152      1   1 -1.050000    12.935965794    19.384750000    24.413824099   0   0   0 # obsk
    153      1   1 -1.050000    11.482486491    21.902250000    28.987157432   0   0   0 # obsk
    154      1   1 -1.050000     8.720875816    21.650500000    19.840490766   0   0   0 # obsk
    155      1   1 -1.050000    11.627834421    21.650500000    24.413824099   0   0   0 # obsk
    156      1   1 -1.050000    10.174355119    24.168000000    28.987157432   0   0   0 # obsk
    157      1   1 -1.050000    11.773182352    21.902250000    19.840490766   0   0   0 # obsk
    158      1   1 -1.050000    10.319703049    19.384750000    24.413824099   0   0   0 # obsk
    159      1   1 -1.050000     8.866223746    21.902250000    28.987157432   0   0   0 # obsk
    160      1   1 -1.050000    11.773182352    18.377750000    26.700490766   0   0   0 # obsk
    161      1   1 -1.050000    10.319703049    20.895250000    17.553824099   0   0   0 # obsk
    162      1   1 -1.050000     8.866223746    23.412750000    22.127157432   0   0   0 # obsk
    163      1   1 -1.050000     8.720875816    23.664500000    26.700490766   0   0   0 # obsk
    164      1   1 -1.050000    11.627834421    18.629500000    17.553824099   0   0   0 # obsk
    165      1   1 -1.050000    10.174355119    21.147000000    22.127157432   0   0   0 # obsk
    166      1   1 -1.050000    10.029007189    20.895250000    26.700490766   0   0   0 # obsk
    167      1   1 -1.050000    12.935965794    20.895250000    17.553824099   0   0   0 # obsk
    168      1   1 -1.050000    11.482486491    23.412750000    22.127157432   0   0   0 # obsk
    169      1   2  1.575000     8.720875816    20.140000000    21.281090766   0   0   0 # feok
    170      1   2  1.575000    11.627834421    20.140000000    25.854424099   0   0   0 # feok
    171      1   2  1.575000    10.174355119    22.657500000    16.707757432   0   0   0 # feok
    172      1   2  1.575000     8.720875816    20.140000000    18.399890766   0   0   0 # feok
    173      1   2  1.575000    11.627834421    20.140000000    22.973224099   0   0   0 # feok
    174      1   2  1.575000    10.174355119    22.657500000    27.546557432   0   0   0 # feok
    175      1   2  1.575000     8.720875816    20.140000000    25.259890766   0   0   0 # feok
    176      1   2  1.575000    11.627834421    20.140000000    29.833224099   0   0   0 # feok
    177      1   2  1.575000    10.174355119    22.657500000    20.686557432   0   0   0 # feok
    178      1   2  1.575000     8.720875816    20.140000000    28.141090766   0   0   0 # feok
    179      1   2  1.575000    11.627834421    20.140000000    18.994424099   0   0   0 # feok
    180      1   2  1.575000    10.174355119    22.657500000    23.567757432   0   0   0 # feok
    181      1   1 -1.050000    14.389445097    16.867250000     6.120490766   0   0   0 # obsk
    182      1   1 -1.050000    17.296403702    16.867250000    10.693824099   0   0   0 # obsk
    183      1   1 -1.050000    15.842924399    19.384750000    15.267157432   0   0   0 # obsk
    184      1   1 -1.050000    13.081313724    19.133000000     6.120490766   0   0   0 # obsk
    185      1   1 -1.050000    15.988272330    19.133000000    10.693824099   0   0   0 # obsk
    186      1   1 -1.050000    14.534793027    21.650500000    15.267157432   0   0   0 # obsk
    187      1   1 -1.050000    16.133620260    19.384750000     6.120490766   0   0   0 # obsk
    188      1   1 -1.050000    14.680140957    16.867250000    10.693824099   0   0   0 # obsk
    189      1   1 -1.050000    13.226661654    19.384750000    15.267157432   0   0   0 # obsk
    190      1   1 -1.050000    16.133620260    15.860250000    12.980490766   0   0   0 # obsk
    191      1   1 -1.050000    14.680140957    18.377750000     3.833824099   0   0   0 # obsk
    192      1   1 -1.050000    13.226661654    20.895250000     8.407157432   0   0   0 # obsk
    193      1   1 -1.050000    13.081313724    21.147000000    12.980490766   0   0   0 # obsk
    194      1   1 -1.050000    15.988272330    16.112000000     3.833824099   0   0   0 # obsk
    195      1   1 -1.050000    14.534793027    18.629500000     8.407157432   0   0   0 # obsk
    196      1   1 -1.050000    14.389445097    18.377750000    12.980490766   0   0   0 # obsk
    197      1   1 -1.050000    17.296403702    18.377750000     3.833824099   0   0   0 # obsk
    198      1   1 -1.050000    15.842924399    20.895250000     8.407157432   0   0   0 # obsk
    199      1   2  1.575000    13.081313724    17.622500000     7.561090766   0   0   0 # feok
    200      1   2  1.575000    15.988272330    17.622500000    12.134424099   0   0   0 # feok
    201      1   2  1.575000    14.534793027    20.140000000     2.987757432   0   0   0 # feok
    202      1   2  1.575000    13.081313724    17.622500000     4.679890766   0   0   0 # feok
    203      1   2  1.575000    15.988272330    17.622500000     9.253224099   0   0   0 # feok
    204      1   2  1.575000    14.534793027    20.140000000    13.826557432   0   0   0 # feok
    205      1   2  1.575000    13.081313724    17.622500000    11.539890766   0   0   0 # feok
    206      1   2  1.575000    15.988272330    17.622500000    16.113224099   0   0   0 # feok
    207      1   2  1.575000    14.534793027    20.140000000     6.966557432   0   0   0 # feok
    208      1   2  1.575000    13.081313724    17.622500000    14.421090766   0   0   0 # feok
    209      1   2  1.575000    15.988272330    17.622500000     5.274424099   0   0   0 # feok
    210      1   2  1.575000    14.534793027    20.140000000     9.847757432   0   0   0 # feok
    211      1   1 -1.050000    14.389445097    16.867250000    19.840490766   0   0   0 # obsk
    212      1   1 -1.050000    17.296403702    16.867250000    24.413824099   0   0   0 # obsk
    213      1   1 -1.129000    15.842924399    19.384750000    28.987157432   0   0   0 # obsk
    214      1   1 -1.050000    13.081313724    19.133000000    19.840490766   0   0   0 # obsk
    215      1   1 -1.050000    15.988272330    19.133000000    24.413824099   0   0   0 # obsk
    216      1   1 -1.050000    14.534793027    21.650500000    28.987157432   0   0   0 # obsk
    217      1   1 -1.050000    16.133620260    19.384750000    19.840490766   0   0   0 # obsk
    218      1   1 -1.050000    14.680140957    16.867250000    24.413824099   0   0   0 # obsk
    219      1   1 -1.050000    13.226661654    19.384750000    28.987157432   0   0   0 # obsk
    220      1   1 -1.050000    16.133620260    15.860250000    26.700490766   0   0   0 # obsk
    221      1   1 -1.050000    14.680140957    18.377750000    17.553824099   0   0   0 # obsk
    222      1   1 -1.050000    13.226661654    20.895250000    22.127157432   0   0   0 # obsk
    223      1   1 -1.050000    13.081313724    21.147000000    26.700490766   0   0   0 # obsk
    224      1   1 -1.050000    15.988272330    16.112000000    17.553824099   0   0   0 # obsk
    225      1   1 -1.050000    14.534793027    18.629500000    22.127157432   0   0   0 # obsk
    226      1   1 -1.050000    14.389445097    18.377750000    26.700490766   0   0   0 # obsk
    227      1   1 -1.050000    17.296403702    18.377750000    17.553824099   0   0   0 # obsk
    228      1   1 -1.050000    15.842924399    20.895250000    22.127157432   0   0   0 # obsk
    229      1   2  1.575000    13.081313724    17.622500000    21.281090766   0   0   0 # feok
    230      1   2  1.575000    15.988272330    17.622500000    25.854424099   0   0   0 # feok
    231      1   2  1.575000    14.534793027    20.140000000    16.707757432   0   0   0 # feok
    232      1   2  1.575000    13.081313724    17.622500000    18.399890766   0   0   0 # feok
    233      1   2  1.575000    15.988272330    17.622500000    22.973224099   0   0   0 # feok
    234      1   2  1.575000    14.534793027    20.140000000    27.546557432   0   0   0 # feok
    235      1   2  1.575000    13.081313724    17.622500000    25.259890766   0   0   0 # feok
    236      1   2  1.575000    14.534793027    20.140000000    20.686557432   0   0   0 # feok
    237      1   2  1.575000    13.081313724    17.622500000    28.141090766   0   0   0 # feok
    238      1   2  1.575000    15.988272330    17.622500000    18.994424099   0   0   0 # feok
    239      1   2  1.575000    14.534793027    20.140000000    23.567757432   0   0   0 # feok
    240      1   1 -1.050000    18.749883005    14.349750000     6.120490766   0   0   0 # obsk
    241      1   1 -1.050000    21.656841610    14.349750000    10.693824099   0   0   0 # obsk
    242      1   1 -1.050000    20.203362307    16.867250000    15.267157432   0   0   0 # obsk
    243      1   1 -1.050000    17.441751632    16.615500000     6.120490766   0   0   0 # obsk
    244      1   1 -1.050000    20.348710238    16.615500000    10.693824099   0   0   0 # obsk
    245      1   1 -1.050000    18.895230935    19.133000000    15.267157432   0   0   0 # obsk
    246      1   1 -1.050000    20.494058168    16.867250000     6.120490766   0   0   0 # obsk
    247      1   1 -1.050000    19.040578865    14.349750000    10.693824099   0   0   0 # obsk
    248      1   1 -1.050000    17.587099562    16.867250000    15.267157432   0   0   0 # obsk
    249      1   1 -1.050000    20.494058168    13.342750000    12.980490766   0   0   0 # obsk
    250      1   1 -1.050000    19.040578865    15.860250000     3.833824099   0   0   0 # obsk
    251      1   1 -1.050000    17.587099562    18.377750000     8.407157432   0   0   0 # obsk
    252      1   1 -1.050000    17.441751632    18.629500000    12.980490766   0   0   0 # obsk
    253      1   1 -1.050000    20.348710238    13.594500000     3.833824099   0   0   0 # obsk
    254      1   1 -1.050000    18.895230935    16.112000000     8.407157432   0   0   0 # obsk
    255      1   1 -1.050000    18.749883005    15.860250000    12.980490766   0   0   0 # obsk
    256      1   1 -1.050000    21.656841610    15.860250000     3.833824099   0   0   0 # obsk
    257      1   1 -1.050000    20.203362307    18.377750000     8.407157432   0   0   0 # obsk
    258      1   2  1.575000    17.441751632    15.105000000     7.561090766   0   0   0 # feok
    259      1   2  1.575000    20.348710238    15.105000000    12.134424099   0   0   0 # feok
    260      1   2  1.575000    18.895230935    17.622500000     2.987757432   0   0   0 # feok
    261      1   2  1.575000    17.441751632    15.105000000     4.679890766   0   0   0 # feok
    262      1   2  1.575000    20.348710238    15.105000000     9.253224099   0   0   0 # feok
    263      1   2  1.575000    18.895230935    17.622500000    13.826557432   0   0   0 # feok
    264      1   2  1.575000    17.441751632    15.105000000    11.539890766   0   0   0 # feok
    265      1   2  1.575000    20.348710238    15.105000000    16.113224099   0   0   0 # feok
    266      1   2  1.575000    18.895230935    17.622500000     6.966557432   0   0   0 # feok
    267      1   2  1.575000    17.441751632    15.105000000    14.421090766   0   0   0 # feok
    268      1   2  1.575000    20.348710238    15.105000000     5.274424099   0   0   0 # feok
    269      1   2  1.575000    18.895230935    17.622500000     9.847757432   0   0   0 # feok
    270      1   1 -1.050000    18.749883005    14.349750000    19.840490766   0   0   0 # obsk
    271      1   1 -1.050000    21.656841610    14.349750000    24.413824099   0   0   0 # obsk
    272      1   1 -1.050000    20.203362307    16.867250000    28.987157432   0   0   0 # obsk
    273      1   1 -1.050000    17.441751632    16.615500000    19.840490766   0   0   0 # obsk
    274      1   1 -1.050000    20.348710238    16.615500000    24.413824099   0   0   0 # obsk
    275      1   1 -1.050000    18.895230935    19.133000000    28.987157432   0   0   0 # obsk
    276      1   1 -1.050000    20.494058168    16.867250000    19.840490766   0   0   0 # obsk
    277      1   1 -1.050000    19.040578865    14.349750000    24.413824099   0   0   0 # obsk
    278      1   1 -1.129000    17.587099562    16.867250000    28.987157432   0   0   0 # obsk
    279      1   1 -1.050000    20.494058168    13.342750000    26.700490766   0   0   0 # obsk
    280      1   1 -1.050000    19.040578865    15.860250000    17.553824099   0   0   0 # obsk
    281      1   1 -1.050000    17.587099562    18.377750000    22.127157432   0   0   0 # obsk
    282      1   1 -1.050000    17.441751632    18.629500000    26.700490766   0   0   0 # obsk
    283      1   1 -1.050000    20.348710238    13.594500000    17.553824099   0   0   0 # obsk
    284      1   1 -1.050000    18.895230935    16.112000000    22.127157432   0   0   0 # obsk
    285      1   1 -1.050000    18.749883005    15.860250000    26.700490766   0   0   0 # obsk
    286      1   1 -1.050000    21.656841610    15.860250000    17.553824099   0   0   0 # obsk
    287      1   1 -1.050000    20.203362307    18.377750000    22.127157432   0   0   0 # obsk
    288      1   2  1.575000    17.441751632    15.105000000    21.281090766   0   0   0 # feok
    289      1   2  1.575000    20.348710238    15.105000000    25.854424099   0   0   0 # feok
    290      1   2  1.575000    18.895230935    17.622500000    16.707757432   0   0   0 # feok
    291      1   2  1.575000    17.441751632    15.105000000    18.399890766   0   0   0 # feok
    292      1   2  1.575000    20.348710238    15.105000000    22.973224099   0   0   0 # feok
    293      1   2  1.575000    18.895230935    17.622500000    27.546557432   0   0   0 # feok
    294      1   2  1.575000    17.441751632    15.105000000    25.259890766   0   0   0 # feok
    295      1   2  1.575000    20.348710238    15.105000000    29.833224099   0   0   0 # feok
    296      1   2  1.575000    18.895230935    17.622500000    20.686557432   0   0   0 # feok
    297      1   2  1.575000    17.441751632    15.105000000    28.141090766   0   0   0 # feok
    298      1   2  1.575000    20.348710238    15.105000000    18.994424099   0   0   0 # feok
    299      1   2  1.575000    18.895230935    17.622500000    23.567757432   0   0   0 # feok
    300      1   1 -1.050000    23.110320913    11.832250000     6.120490766   0   0   0 # obsk
    301      1   1 -1.050000    -0.144620482    11.832250000    10.693824099   1   0   0 # obsk
    302      1   1 -1.050000    24.563800215    14.349750000    15.267157432   0   0   0 # obsk
    303      1   1 -1.050000    21.802189540    14.098000000     6.120490766   0   0   0 # obsk
    304      1   1 -1.050000    24.709148146    14.098000000    10.693824099   0   0   0 # obsk
    305      1   1 -1.050000    23.255668843    16.615500000    15.267157432   0   0   0 # obsk
    306      1   1 -1.050000    24.854496076    14.349750000     6.120490766   0   0   0 # obsk
    307      1   1 -1.050000    23.401016773    11.832250000    10.693824099   0   0   0 # obsk
    308      1   1 -1.050000    21.947537471    14.349750000    15.267157432   0   0   0 # obsk
    309      1   1 -1.050000    24.854496076    10.825250000    12.980490766   0   0   0 # obsk
    310      1   1 -1.050000    23.401016773    13.342750000     3.833824099   0   0   0 # obsk
    311      1   1 -1.050000    21.947537471    15.860250000     8.407157432   0   0   0 # obsk
    312      1   1 -1.050000    21.802189540    16.112000000    12.980490766   0   0   0 # obsk
    313      1   1 -1.050000    24.709148146    11.077000000     3.833824099   0   0   0 # obsk
    314      1   1 -1.050000    23.255668843    13.594500000     8.407157432   0   0   0 # obsk
    315      1   1 -1.050000    23.110320913    13.342750000    12.980490766   0   0   0 # obsk
    316      1   1 -1.050000    -0.144620482    13.342750000     3.833824099   1   0   0 # obsk
    317      1   1 -1.050000    24.563800215    15.860250000     8.407157432   0   0   0 # obsk
    318      1   2  1.575000    21.802189540    12.587500000     7.561090766   0   0   0 # feok
    319      1   2  1.575000    24.709148146    12.587500000    12.134424099   0   0   0 # feok
    320      1   2  1.575000    23.255668843    15.105000000     2.987757432   0   0   0 # feok
    321      1   2  1.575000    21.802189540    12.587500000     4.679890766   0   0   0 # feok
    322      1   2  1.575000    24.709148146    12.587500000     9.253224099   0   0   0 # feok
    323      1   2  1.575000    23.255668843    15.105000000    13.826557432   0   0   0 # feok
    324      1   2  1.575000    21.802189540    12.587500000    11.539890766   0   0   0 # feok
    325      1   2  1.575000    24.709148146    12.587500000    16.113224099   0   0   0 # feok
    326      1   2  1.575000    23.255668843    15.105000000     6.966557432   0   0   0 # feok
    327      1   2  1.575000    21.802189540    12.587500000    14.421090766   0   0   0 # feok
    328      1   2  1.575000    24.709148146    12.587500000     5.274424099   0   0   0 # feok
    329      1   2  1.575000    23.255668843    15.105000000     9.847757432   0   0   0 # feok
    330      1   1 -1.050000    23.110320913    11.832250000    19.840490766   0   0   0 # obsk
    331      1   1 -1.050000    -0.144620482    11.832250000    24.413824099   1   0   0 # obsk
    332      1   1 -1.050000    24.563800215    14.349750000    28.987157432   0   0   0 # obsk
    333      1   1 -1.050000    21.802189540    14.098000000    19.840490766   0   0   0 # obsk
    334      1   1 -1.050000    24.709148146    14.098000000    24.413824099   0   0   0 # obsk
    335      1   1 -1.129000    23.255668843    16.615500000    28.987157432   0   0   0 # obsk
    336      1   1 -1.050000    24.854496076    14.349750000    19.840490766   0   0   0 # obsk
    337      1   1 -1.050000    23.401016773    11.832250000    24.413824099   0   0   0 # obsk
    338      1   1 -1.050000    21.947537471    14.349750000    28.987157432   0   0   0 # obsk
    339      1   1 -1.050000    24.854496076    10.825250000    26.700490766   0   0   0 # obsk
    340      1   1 -1.050000    23.401016773    13.342750000    17.553824099   0   0   0 # obsk
    341      1   1 -1.050000    21.947537471    15.860250000    22.127157432   0   0   0 # obsk
    342      1   1 -1.050000    21.802189540    16.112000000    26.700490766   0   0   0 # obsk
    343      1   1 -1.050000    24.709148146    11.077000000    17.553824099   0   0   0 # obsk
    344      1   1 -1.050000    23.255668843    13.594500000    22.127157432   0   0   0 # obsk
    345      1   1 -1.050000    23.110320913    13.342750000    26.700490766   0   0   0 # obsk
    346      1   1 -1.050000    -0.144620482    13.342750000    17.553824099   1   0   0 # obsk
    347      1   1 -1.050000    24.563800215    15.860250000    22.127157432   0   0   0 # obsk
    348      1   2  1.575000    21.802189540    12.587500000    21.281090766   0   0   0 # feok
    349      1   2  1.575000    24.709148146    12.587500000    25.854424099   0   0   0 # feok
    350      1   2  1.575000    23.255668843    15.105000000    16.707757432   0   0   0 # feok
    351      1   2  1.575000    21.802189540    12.587500000    18.399890766   0   0   0 # feok
    352      1   2  1.575000    24.709148146    12.587500000    22.973224099   0   0   0 # feok
    353      1   2  1.575000    23.255668843    15.105000000    27.546557432   0   0   0 # feok
    354      1   2  1.575000    21.802189540    12.587500000    25.259890766   0   0   0 # feok
    355      1   2  1.575000    24.709148146    12.587500000    29.833224099   0   0   0 # feok
    356      1   2  1.575000    23.255668843    15.105000000    20.686557432   0   0   0 # feok
    357      1   2  1.575000    21.802189540    12.587500000    28.141090766   0   0   0 # feok
    358      1   2  1.575000    24.709148146    12.587500000    18.994424099   0   0   0 # feok
    359      1   2  1.575000    23.255668843    15.105000000    23.567757432   0   0   0 # feok
    360      1   1 -1.050000     1.308131372     4.279750000     6.120490766   0   0   0 # obsk
    361      1   1 -1.050000     4.215089978     4.279750000    10.693824099   0   0   0 # obsk
    362      1   1 -1.050000     2.761610675     6.797250000    15.267157432   0   0   0 # obsk
    363      1   1 -1.050000     0.000000000     6.545500000     6.120490766   0   0   0 # obsk
    364      1   1 -1.050000     2.906958605     6.545500000    10.693824099   0   0   0 # obsk
    365      1   1 -1.050000     1.453479303     9.063000000    15.267157432   0   0   0 # obsk
    366      1   1 -1.050000     3.052306536     6.797250000     6.120490766   0   0   0 # obsk
    367      1   1 -1.050000     1.598827233     4.279750000    10.693824099   0   0   0 # obsk
    368      1   1 -1.050000     0.145347930     6.797250000    15.267157432   0   0   0 # obsk
    369      1   1 -1.050000     3.052306536     3.272750000    12.980490766   0   0   0 # obsk
    370      1   1 -1.050000     1.598827233     5.790250000     3.833824099   0   0   0 # obsk
    371      1   1 -1.050000     0.145347930     8.307750000     8.407157432   0   0   0 # obsk
    372      1   1 -1.050000     0.000000000     8.559500000    12.980490766   0   0   0 # obsk
    373      1   1 -1.050000     2.906958605     3.524500000     3.833824099   0   0   0 # obsk
    374      1   1 -1.050000     1.453479303     6.042000000     8.407157432   0   0   0 # obsk
    375      1   1 -1.050000     1.308131372     5.790250000    12.980490766   0   0   0 # obsk
    376      1   1 -1.050000     4.215089978     5.790250000     3.833824099   0   0   0 # obsk
    377      1   1 -1.050000     2.761610675     8.307750000     8.407157432   0   0   0 # obsk
    378      1   2  1.575000     0.000000000     5.035000000     7.561090766   0   0   0 # feok
    379      1   2  1.575000     2.906958605     5.035000000    12.134424099   0   0   0 # feok
    380      1   2  1.575000     1.453479303     7.552500000     2.987757432   0   0   0 # feok
    381      1   2  1.575000     0.000000000     5.035000000     4.679890766   0   0   0 # feok
    382      1   2  1.575000     2.906958605     5.035000000     9.253224099   0   0   0 # feok
    383      1   2  1.575000     1.453479303     7.552500000    13.826557432   0   0   0 # feok
    384      1   2  1.575000     0.000000000     5.035000000    11.539890766   0   0   0 # feok
    385      1   2  1.575000     2.906958605     5.035000000    16.113224099   0   0   0 # feok
    386      1   2  1.575000     1.453479303     7.552500000     6.966557432   0   0   0 # feok
    387      1   2  1.575000     0.000000000     5.035000000    14.421090766   0   0   0 # feok
    388      1   2  1.575000     2.906958605     5.035000000     5.274424099   0   0   0 # feok
    389      1   2  1.575000     1.453479303     7.552500000     9.847757432   0   0   0 # feok
    390      1   1 -1.050000     1.308131372     4.279750000    19.840490766   0   0   0 # obsk
    391      1   1 -1.050000     4.215089978     4.279750000    24.413824099   0   0   0 # obsk
    392      1   1 -1.050000     2.761610675     6.797250000    28.987157432   0   0   0 # obsk
    393      1   1 -1.050000     0.000000000     6.545500000    19.840490766   0   0   0 # obsk
    394      1   1 -1.050000     2.906958605     6.545500000    24.413824099   0   0   0 # obsk
    395      1   1 -1.129000     1.453479303     9.063000000    28.987157432   0   0   0 # obsk
    396      1   1 -1.050000     3.052306536     6.797250000    19.840490766   0   0   0 # obsk
    397      1   1 -1.050000     1.598827233     4.279750000    24.413824099   0   0   0 # obsk
    398      1   1 -1.050000     0.145347930     6.797250000    28.987157432   0   0   0 # obsk
    399      1   1 -1.050000     3.052306536     3.272750000    26.700490766   0   0   0 # obsk
    400      1   1 -1.050000     1.598827233     5.790250000    17.553824099   0   0   0 # obsk
    401      1   1 -1.050000     0.145347930     8.307750000    22.127157432   0   0   0 # obsk
    402      1   1 -1.050000     0.000000000     8.559500000    26.700490766   0   0   0 # obsk
    403      1   1 -1.050000     2.906958605     3.524500000    17.553824099   0   0   0 # obsk
    404      1   1 -1.050000     1.453479303     6.042000000    22.127157432   0   0   0 # obsk
    405      1   1 -1.050000     1.308131372     5.790250000    26.700490766   0   0   0 # obsk
    406      1   1 -1.050000     4.215089978     5.790250000    17.553824099   0   0   0 # obsk
    407      1   1 -1.050000     2.761610675     8.307750000    22.127157432   0   0   0 # obsk
    408      1   2  1.575000     0.000000000     5.035000000    21.281090766   0   0   0 # feok
    409      1   2  1.575000     2.906958605     5.035000000    25.854424099   0   0   0 # feok
    410      1   2  1.575000     1.453479303     7.552500000    16.707757432   0   0   0 # feok
    411      1   2  1.575000     0.000000000     5.035000000    18.399890766   0   0   0 # feok
    412      1   2  1.575000     2.906958605     5.035000000    22.973224099   0   0   0 # feok
    413      1   2  1.575000     1.453479303     7.552500000    27.546557432   0   0   0 # feok
    414      1   2  1.575000     0.000000000     5.035000000    25.259890766   0   0   0 # feok
    415      1   2  1.575000     2.906958605     5.035000000    29.833224099   0   0   0 # feok
    416      1   2  1.575000     1.453479303     7.552500000    20.686557432   0   0   0 # feok
    417      1   2  1.575000     0.000000000     5.035000000    28.141090766   0   0   0 # feok
    418      1   2  1.575000     2.906958605     5.035000000    18.994424099   0   0   0 # feok
    419      1   2  1.575000     1.453479303     7.552500000    23.567757432   0   0   0 # feok
    420      1   1 -1.050000     5.668569280     1.762250000     6.120490766   0   0   0 # obsk
    421      1   1 -1.050000     8.575527886     1.762250000    10.693824099   0   0   0 # obsk
    422      1   1 -1.050000     7.122048583     4.279750000    15.267157432   0   0   0 # obsk
    423      1   1 -1.050000     4.360437908     4.028000000     6.120490766   0   0   0 # obsk
    424      1   1 -1.050000     7.267396513     4.028000000    10.693824099   0   0   0 # obsk
    425      1   1 -1.050000     5.813917211     6.545500000    15.267157432   0   0   0 # obsk
    426      1   1 -1.050000     7.412744444     4.279750000     6.120490766   0   0   0 # obsk
    427      1   1 -1.050000     5.959265141     1.762250000    10.693824099   0   0   0 # obsk
    428      1   1 -1.050000     4.505785838     4.279750000    15.267157432   0   0   0 # obsk
    429      1   1 -1.050000     7.412744444     0.755250000    12.980490766   0   0   0 # obsk
    430      1   1 -1.050000     5.959265141     3.272750000     3.833824099   0   0   0 # obsk
    431      1   1 -1.050000     4.505785838     5.790250000     8.407157432   0   0   0 # obsk
    432      1   1 -1.050000     4.360437908     6.042000000    12.980490766   0   0   0 # obsk
    433      1   1 -1.050000     7.267396513     1.007000000     3.833824099   0   0   0 # obsk
    434      1   1 -1.050000     5.813917211     3.524500000     8.407157432   0   0   0 # obsk
    435      1   1 -1.050000     5.668569280     3.272750000    12.980490766   0   0   0 # obsk
    436      1   1 -1.050000     8.575527886     3.272750000     3.833824099   0   0   0 # obsk
    437      1   1 -1.050000     7.122048583     5.790250000     8.407157432   0   0   0 # obsk
    438      1   2  1.575000     4.360437908     2.517500000     7.561090766   0   0   0 # feok
    439      1   2  1.575000     7.267396513     2.517500000    12.134424099   0   0   0 # feok
    440      1   2  1.575000     5.813917211     5.035000000     2.987757432   0   0   0 # feok
    441      1   2  1.575000     4.360437908     2.517500000     4.679890766   0   0   0 # feok
    442      1   2  1.575000     7.267396513     2.517500000     9.253224099   0   0   0 # feok
    443      1   2  1.575000     5.813917211     5.035000000    13.826557432   0   0   0 # feok
    444      1   2  1.575000     4.360437908     2.517500000    11.539890766   0   0   0 # feok
    445      1   2  1.575000     7.267396513     2.517500000    16.113224099   0   0   0 # feok
    446      1   2  1.575000     5.813917211     5.035000000     6.966557432   0   0   0 # feok
    447      1   2  1.575000     4.360437908     2.517500000    14.421090766   0   0   0 # feok
    448      1   2  1.575000     7.267396513     2.517500000     5.274424099   0   0   0 # feok
    449      1   2  1.575000     5.813917211     5.035000000     9.847757432   0   0   0 # feok
    450      1   1 -1.050000     5.668569280     1.762250000    19.840490766   0   0   0 # obsk
    451      1   1 -1.050000     8.575527886     1.762250000    24.413824099   0   0   0 # obsk
    452      1   1 -1.129000     7.122048583     4.279750000    28.987157432   0   0   0 # obsk
    453      1   1 -1.050000     4.360437908     4.028000000    19.840490766   0   0   0 # obsk
    454      1   1 -1.050000     7.267396513     4.028000000    24.413824099   0   0   0 # obsk
    455      1   1 -1.050000     5.813917211     6.545500000    28.987157432   0   0   0 # obsk
    456      1   1 -1.050000     7.412744444     4.279750000    19.840490766   0   0   0 # obsk
    457      1   1 -1.050000     5.959265141     1.762250000    24.413824099   0   0   0 # obsk
    458      1   1 -1.050000     4.505785838     4.279750000    28.987157432   0   0   0 # obsk
    459      1   1 -1.050000     7.412744444     0.755250000    26.700490766   0   0   0 # obsk
    460      1   1 -1.050000     5.959265141     3.272750000    17.553824099   0   0   0 # obsk
    461      1   1 -1.050000     4.505785838     5.790250000    22.127157432   0   0   0 # obsk
    462      1   1 -1.050000     4.360437908     6.042000000    26.700490766   0   0   0 # obsk
    463      1   1 -1.050000     7.267396513     1.007000000    17.553824099   0   0   0 # obsk
    464      1   1 -1.050000     5.813917211     3.524500000    22.127157432   0   0   0 # obsk
    465      1   1 -1.050000     5.668569280     3.272750000    26.700490766   0   0   0 # obsk
    466      1   1 -1.050000     8.575527886     3.272750000    17.553824099   0   0   0 # obsk
    467      1   1 -1.050000     7.122048583     5.790250000    22.127157432   0   0   0 # obsk
    468      1   2  1.575000     4.360437908     2.517500000    21.281090766   0   0   0 # feok
    469      1   2  1.575000     7.267396513     2.517500000    25.854424099   0   0   0 # feok
    470      1   2  1.575000     5.813917211     5.035000000    16.707757432   0   0   0 # feok
    471      1   2  1.575000     4.360437908     2.517500000    18.399890766   0   0   0 # feok
    472      1   2  1.575000     7.267396513     2.517500000    22.973224099   0   0   0 # feok
    473      1   2  1.575000     5.813917211     5.035000000    27.546557432   0   0   0 # feok
    474      1   2  1.575000     4.360437908     2.517500000    25.259890766   0   0   0 # feok
    475      1   2  1.575000     5.813917211     5.035000000    20.686557432   0   0   0 # feok
    476      1   2  1.575000     4.360437908     2.517500000    28.141090766   0   0   0 # feok
    477      1   2  1.575000     7.267396513     2.517500000    18.994424099   0   0   0 # feok
    478      1   2  1.575000     5.813917211     5.035000000    23.567757432   0   0   0 # feok
    479      1   1 -1.050000    10.029007189    24.419750000     6.120490766   0   0   0 # obsk
    480      1   1 -1.050000    12.935965794    24.419750000    10.693824099   0   0   0 # obsk
    481      1   1 -1.050000    11.482486491     1.762250000    15.267157432   0   0   0 # obsk
    482      1   1 -1.050000     8.720875816     1.510500000     6.120490766   0   0   0 # obsk
    483      1   1 -1.050000    11.627834421     1.510500000    10.693824099   0   0   0 # obsk
    484      1   1 -1.050000    10.174355119     4.028000000    15.267157432   0   0   0 # obsk
    485      1   1 -1.050000    11.773182352     1.762250000     6.120490766   0   0   0 # obsk
    486      1   1 -1.050000    10.319703049    24.419750000    10.693824099   0   0   0 # obsk
    487      1   1 -1.050000     8.866223746     1.762250000    15.267157432   0   0   0 # obsk
    488      1   1 -1.050000    11.773182352    23.412750000    12.980490766   0   0   0 # obsk
    489      1   1 -1.050000    10.319703049     0.755250000     3.833824099   0   0   0 # obsk
    490      1   1 -1.050000     8.866223746     3.272750000     8.407157432   0   0   0 # obsk
    491      1   1 -1.050000     8.720875816     3.524500000    12.980490766   0   0   0 # obsk
    492      1   1 -1.050000    11.627834421    23.664500000     3.833824099   0   0   0 # obsk
    493      1   1 -1.050000    10.174355119     1.007000000     8.407157432   0   0   0 # obsk
    494      1   1 -1.050000    10.029007189     0.755250000    12.980490766   0   0   0 # obsk
    495      1   1 -1.050000    12.935965794     0.755250000     3.833824099   0   0   0 # obsk
    496      1   1 -1.050000    11.482486491     3.272750000     8.407157432   0   0   0 # obsk
    497      1   2  1.575000     8.720875816     0.000000000     7.561090766   0   0   0 # feok
    498      1   2  1.575000    11.627834421     0.000000000    12.134424099   0   0   0 # feok
    499      1   2  1.575000    10.174355119     2.517500000     2.987757432   0   0   0 # feok
    500      1   2  1.575000     8.720875816     0.000000000     4.679890766   0   0   0 # feok
    501      1   2  1.575000    11.627834421     0.000000000     9.253224099   0   0   0 # feok
    502      1   2  1.575000    10.174355119     2.517500000    13.826557432   0   0   0 # feok
    503      1   2  1.575000     8.720875816     0.000000000    11.539890766   0   0   0 # feok
    504      1   2  1.575000    11.627834421     0.000000000    16.113224099   0   0   0 # feok
    505      1   2  1.575000    10.174355119     2.517500000     6.966557432   0   0   0 # feok
    506      1   2  1.575000     8.720875816     0.000000000    14.421090766   0   0   0 # feok
    507      1   2  1.575000    11.627834421     0.000000000     5.274424099   0   0   0 # feok
    508      1   2  1.575000    10.174355119     2.517500000     9.847757432   0   0   0 # feok
    509      1   1 -1.050000    10.029007189    24.419750000    19.840490766   0   0   0 # obsk
    510      1   1 -1.050000    12.935965794    24.419750000    24.413824099   0   0   0 # obsk
    511      1   1 -1.050000    11.482486491     1.762250000    28.987157432   0   0   0 # obsk
    512      1   1 -1.050000     8.720875816     1.510500000    19.840490766   0   0   0 # obsk
    513      1   1 -1.050000    11.627834421     1.510500000    24.413824099   0   0   0 # obsk
    514      1   1 -1.050000    10.174355119     4.028000000    28.987157432   0   0   0 # obsk
    515      1   1 -1.050000    11.773182352     1.762250000    19.840490766   0   0   0 # obsk
    516      1   1 -1.050000    10.319703049    24.419750000    24.413824099   0   0   0 # obsk
    517      1   1 -1.129000     8.866223746     1.762250000    28.987157432   0   0   0 # obsk
    518      1   1 -1.050000    11.773182352    23.412750000    26.700490766   0   0   0 # obsk
    519      1   1 -1.050000    10.319703049     0.755250000    17.553824099   0   0   0 # obsk
    520      1   1 -1.050000     8.866223746     3.272750000    22.127157432   0   0   0 # obsk
    521      1   1 -1.050000     8.720875816     3.524500000    26.700490766   0   0   0 # obsk
    522      1   1 -1.050000    11.627834421    23.664500000    17.553824099   0   0   0 # obsk
    523      1   1 -1.050000    10.174355119     1.007000000    22.127157432   0   0   0 # obsk
    524      1   1 -1.050000    10.029007189     0.755250000    26.700490766   0   0   0 # obsk
    525      1   1 -1.050000    12.935965794     0.755250000    17.553824099   0   0   0 # obsk
    526      1   1 -1.050000    11.482486491     3.272750000    22.127157432   0   0   0 # obsk
    527      1   2  1.575000     8.720875816     0.000000000    21.281090766   0   0   0 # feok
    528      1   2  1.575000    11.627834421     0.000000000    25.854424099   0   0   0 # feok
    529      1   2  1.575000    10.174355119     2.517500000    16.707757432   0   0   0 # feok
    530      1   2  1.575000     8.720875816     0.000000000    18.399890766   0   0   0 # feok
    531      1   2  1.575000    11.627834421     0.000000000    22.973224099   0   0   0 # feok
    532      1   2  1.575000    10.174355119     2.517500000    27.546557432   0   0   0 # feok
    533      1   2  1.575000     8.720875816     0.000000000    25.259890766   0   0   0 # feok
    534      1   2  1.575000    11.627834421     0.000000000    29.833224099   0   0   0 # feok
    535      1   2  1.575000    10.174355119     2.517500000    20.686557432   0   0   0 # feok
    536      1   2  1.575000     8.720875816     0.000000000    28.141090766   0   0   0 # feok
    537      1   2  1.575000    11.627834421     0.000000000    18.994424099   0   0   0 # feok
    538      1   2  1.575000    10.174355119     2.517500000    23.567757432   0   0   0 # feok
    539      1   1 -1.050000    14.389445097    21.902250000     6.120490766   0   0   0 # obsk
    540      1   1 -1.050000    17.296403702    21.902250000    10.693824099   0   0   0 # obsk
    541      1   1 -1.050000    15.842924399    24.419750000    15.267157432   0   0   0 # obsk
    542      1   1 -1.050000    13.081313724    24.168000000     6.120490766   0   0   0 # obsk
    543      1   1 -1.050000    15.988272330    24.168000000    10.693824099   0   0   0 # obsk
    544      1   1 -1.050000    14.534793027     1.510500000    15.267157432   0   0   0 # obsk
    545      1   1 -1.050000    16.133620260    24.419750000     6.120490766   0   0   0 # obsk
    546      1   1 -1.050000    14.680140957    21.902250000    10.693824099   0   0   0 # obsk
    547      1   1 -1.050000    13.226661654    24.419750000    15.267157432   0   0   0 # obsk
    548      1   1 -1.050000    16.133620260    20.895250000    12.980490766   0   0   0 # obsk
    549      1   1 -1.050000    14.680140957    23.412750000     3.833824099   0   0   0 # obsk
    550      1   1 -1.050000    13.226661654     0.755250000     8.407157432   0   0   0 # obsk
    551      1   1 -1.050000    13.081313724     1.007000000    12.980490766   0   0   0 # obsk
    552      1   1 -1.050000    15.988272330    21.147000000     3.833824099   0   0   0 # obsk
    553      1   1 -1.050000    14.534793027    23.664500000     8.407157432   0   0   0 # obsk
    554      1   1 -1.050000    14.389445097    23.412750000    12.980490766   0   0   0 # obsk
    555      1   1 -1.050000    17.296403702    23.412750000     3.833824099   0   0   0 # obsk
    556      1   1 -1.050000    15.842924399     0.755250000     8.407157432   0   0   0 # obsk
    557      1   2  1.575000    13.081313724    22.657500000     7.561090766   0   0   0 # feok
    558      1   2  1.575000    15.988272330    22.657500000    12.134424099   0   0   0 # feok
    559      1   2  1.575000    14.534793027     0.000000000     2.987757432   0   0   0 # feok
    560      1   2  1.575000    13.081313724    22.657500000     4.679890766   0   0   0 # feok
    561      1   2  1.575000    15.988272330    22.657500000     9.253224099   0   0   0 # feok
    562      1   2  1.575000    14.534793027     0.000000000    13.826557432   0   0   0 # feok
    563      1   2  1.575000    13.081313724    22.657500000    11.539890766   0   0   0 # feok
    564      1   2  1.575000    15.988272330    22.657500000    16.113224099   0   0   0 # feok
    565      1   2  1.575000    14.534793027     0.000000000     6.966557432   0   0   0 # feok
    566      1   2  1.575000    13.081313724    22.657500000    14.421090766   0   0   0 # feok
    567      1   2  1.575000    15.988272330    22.657500000     5.274424099   0   0   0 # feok
    568      1   2  1.575000    14.534793027     0.000000000     9.847757432   0   0   0 # feok
    569      1   1 -1.050000    14.389445097    21.902250000    19.840490766   0   0   0 # obsk
    570      1   1 -1.050000    17.296403702    21.902250000    24.413824099   0   0   0 # obsk
    571      1   1 -1.050000    15.842924399    24.419750000    28.987157432   0   0   0 # obsk
    572      1   1 -1.050000    13.081313724    24.168000000    19.840490766   0   0   0 # obsk
    573      1   1 -1.050000    15.988272330    24.168000000    24.413824099   0   0   0 # obsk
    574      1   1 -1.129000    14.534793027     1.510500000    28.987157432   0   0   0 # obsk
    575      1   1 -1.050000    16.133620260    24.419750000    19.840490766   0   0   0 # obsk
    576      1   1 -1.050000    14.680140957    21.902250000    24.413824099   0   0   0 # obsk
    577      1   1 -1.050000    13.226661654    24.419750000    28.987157432   0   0   0 # obsk
    578      1   1 -1.050000    16.133620260    20.895250000    26.700490766   0   0   0 # obsk
    579      1   1 -1.050000    14.680140957    23.412750000    17.553824099   0   0   0 # obsk
    580      1   1 -1.050000    13.226661654     0.755250000    22.127157432   0   0   0 # obsk
    581      1   1 -1.050000    13.081313724     1.007000000    26.700490766   0   0   0 # obsk
    582      1   1 -1.050000    15.988272330    21.147000000    17.553824099   0   0   0 # obsk
    583      1   1 -1.050000    14.534793027    23.664500000    22.127157432   0   0   0 # obsk
    584      1   1 -1.050000    14.389445097    23.412750000    26.700490766   0   0   0 # obsk
    585      1   1 -1.050000    17.296403702    23.412750000    17.553824099   0   0   0 # obsk
    586      1   1 -1.050000    15.842924399     0.755250000    22.127157432   0   0   0 # obsk
    587      1   2  1.575000    13.081313724    22.657500000    21.281090766   0   0   0 # feok
    588      1   2  1.575000    15.988272330    22.657500000    25.854424099   0   0   0 # feok
    589      1   2  1.575000    14.534793027     0.000000000    16.707757432   0   0   0 # feok
    590      1   2  1.575000    13.081313724    22.657500000    18.399890766   0   0   0 # feok
    591      1   2  1.575000    15.988272330    22.657500000    22.973224099   0   0   0 # feok
    592      1   2  1.575000    14.534793027     0.000000000    27.546557432   0   0   0 # feok
    593      1   2  1.575000    13.081313724    22.657500000    25.259890766   0   0   0 # feok
    594      1   2  1.575000    15.988272330    22.657500000    29.833224099   0   0   0 # feok
    595      1   2  1.575000    14.534793027     0.000000000    20.686557432   0   0   0 # feok
    596      1   2  1.575000    13.081313724    22.657500000    28.141090766   0   0   0 # feok
    597      1   2  1.575000    15.988272330    22.657500000    18.994424099   0   0   0 # feok
    598      1   2  1.575000    14.534793027     0.000000000    23.567757432   0   0   0 # feok
    599      1   1 -1.050000    18.749883005    19.384750000     6.120490766   0   0   0 # obsk
    600      1   1 -1.050000    21.656841610    19.384750000    10.693824099   0   0   0 # obsk
    601      1   1 -1.050000    20.203362307    21.902250000    15.267157432   0   0   0 # obsk
    602      1   1 -1.050000    17.441751632    21.650500000     6.120490766   0   0   0 # obsk
    603      1   1 -1.050000    20.348710238    21.650500000    10.693824099   0   0   0 # obsk
    604      1   1 -1.050000    18.895230935    24.168000000    15.267157432   0   0   0 # obsk
    605      1   1 -1.050000    20.494058168    21.902250000     6.120490766   0   0   0 # obsk
    606      1   1 -1.050000    19.040578865    19.384750000    10.693824099   0   0   0 # obsk
    607      1   1 -1.050000    17.587099562    21.902250000    15.267157432   0   0   0 # obsk
    608      1   1 -1.050000    20.494058168    18.377750000    12.980490766   0   0   0 # obsk
    609      1   1 -1.050000    19.040578865    20.895250000     3.833824099   0   0   0 # obsk
    610      1   1 -1.050000    17.587099562    23.412750000     8.407157432   0   0   0 # obsk
    611      1   1 -1.050000    17.441751632    23.664500000    12.980490766   0   0   0 # obsk
    612      1   1 -1.050000    20.348710238    18.629500000     3.833824099   0   0   0 # obsk
    613      1   1 -1.050000    18.895230935    21.147000000     8.407157432   0   0   0 # obsk
    614      1   1 -1.050000    18.749883005    20.895250000    12.980490766   0   0   0 # obsk
    615      1   1 -1.050000    21.656841610    20.895250000     3.833824099   0   0   0 # obsk
    616      1   1 -1.050000    20.203362307    23.412750000     8.407157432   0   0   0 # obsk
    617      1   2  1.575000    17.441751632    20.140000000     7.561090766   0   0   0 # feok
    618      1   2  1.575000    20.348710238    20.140000000    12.134424099   0   0   0 # feok
    619      1   2  1.575000    18.895230935    22.657500000     2.987757432   0   0   0 # feok
    620      1   2  1.575000    17.441751632    20.140000000     4.679890766   0   0   0 # feok
    621      1   2  1.575000    20.348710238    20.140000000     9.253224099   0   0   0 # feok
    622      1   2  1.575000    18.895230935    22.657500000    13.826557432   0   0   0 # feok
    623      1   2  1.575000    17.441751632    20.140000000    11.539890766   0   0   0 # feok
    624      1   2  1.575000    20.348710238    20.140000000    16.113224099   0   0   0 # feok
    625      1   2  1.575000    18.895230935    22.657500000     6.966557432   0   0   0 # feok
    626      1   2  1.575000    17.441751632    20.140000000    14.421090766   0   0   0 # feok
    627      1   2  1.575000    20.348710238    20.140000000     5.274424099   0   0   0 # feok
    628      1   2  1.575000    18.895230935    22.657500000     9.847757432   0   0   0 # feok
    629      1   1 -1.050000    18.749883005    19.384750000    19.840490766   0   0   0 # obsk
    630      1   1 -1.050000    21.656841610    19.384750000    24.413824099   0   0   0 # obsk
    631      1   1 -1.050000    20.203362307    21.902250000    28.987157432   0   0   0 # obsk
    632      1   1 -1.050000    17.441751632    21.650500000    19.840490766   0   0   0 # obsk
    633      1   1 -1.050000    20.348710238    21.650500000    24.413824099   0   0   0 # obsk
    634      1   1 -1.050000    18.895230935    24.168000000    28.987157432   0   0   0 # obsk
    635      1   1 -1.050000    20.494058168    21.902250000    19.840490766   0   0   0 # obsk
    636      1   1 -1.050000    19.040578865    19.384750000    24.413824099   0   0   0 # obsk
    637      1   1 -1.050000    17.587099562    21.902250000    28.987157432   0   0   0 # obsk
    638      1   1 -1.050000    20.494058168    18.377750000    26.700490766   0   0   0 # obsk
    639      1   1 -1.050000    19.040578865    20.895250000    17.553824099   0   0   0 # obsk
    640      1   1 -1.050000    17.587099562    23.412750000    22.127157432   0   0   0 # obsk
    641      1   1 -1.050000    17.441751632    23.664500000    26.700490766   0   0   0 # obsk
    642      1   1 -1.050000    20.348710238    18.629500000    17.553824099   0   0   0 # obsk
    643      1   1 -1.050000    18.895230935    21.147000000    22.127157432   0   0   0 # obsk
    644      1   1 -1.050000    18.749883005    20.895250000    26.700490766   0   0   0 # obsk
    645      1   1 -1.050000    21.656841610    20.895250000    17.553824099   0   0   0 # obsk
    646      1   1 -1.050000    20.203362307    23.412750000    22.127157432   0   0   0 # obsk
    647      1   2  1.575000    17.441751632    20.140000000    21.281090766   0   0   0 # feok
    648      1   2  1.575000    20.348710238    20.140000000    25.854424099   0   0   0 # feok
    649      1   2  1.575000    18.895230935    22.657500000    16.707757432   0   0   0 # feok
    650      1   2  1.575000    17.441751632    20.140000000    18.399890766   0   0   0 # feok
    651      1   2  1.575000    20.348710238    20.140000000    22.973224099   0   0   0 # feok
    652      1   2  1.575000    18.895230935    22.657500000    27.546557432   0   0   0 # feok
    653      1   2  1.575000    17.441751632    20.140000000    25.259890766   0   0   0 # feok
    654      1   2  1.575000    20.348710238    20.140000000    29.833224099   0   0   0 # feok
    655      1   2  1.575000    18.895230935    22.657500000    20.686557432   0   0   0 # feok
    656      1   2  1.575000    17.441751632    20.140000000    28.141090766   0   0   0 # feok
    657      1   2  1.575000    20.348710238    20.140000000    18.994424099   0   0   0 # feok
    658      1   2  1.575000    18.895230935    22.657500000    23.567757432   0   0   0 # feok
    659      1   1 -1.050000    23.110320913    16.867250000     6.120490766   0   0   0 # obsk
    660      1   1 -1.050000    -0.144620482    16.867250000    10.693824099   1   0   0 # obsk
    661      1   1 -1.050000    24.563800215    19.384750000    15.267157432   0   0   0 # obsk
    662      1   1 -1.050000    21.802189540    19.133000000     6.120490766   0   0   0 # obsk
    663      1   1 -1.050000    24.709148146    19.133000000    10.693824099   0   0   0 # obsk
    664      1   1 -1.050000    23.255668843    21.650500000    15.267157432   0   0   0 # obsk
    665      1   1 -1.050000    24.854496076    19.384750000     6.120490766   0   0   0 # obsk
    666      1   1 -1.050000    23.401016773    16.867250000    10.693824099   0   0   0 # obsk
    667      1   1 -1.050000    21.947537471    19.384750000    15.267157432   0   0   0 # obsk
    668      1   1 -1.050000    24.854496076    15.860250000    12.980490766   0   0   0 # obsk
    669      1   1 -1.050000    23.401016773    18.377750000     3.833824099   0   0   0 # obsk
    670      1   1 -1.050000    21.947537471    20.895250000     8.407157432   0   0   0 # obsk
    671      1   1 -1.050000    21.802189540    21.147000000    12.980490766   0   0   0 # obsk
    672      1   1 -1.050000    24.709148146    16.112000000     3.833824099   0   0   0 # obsk
    673      1   1 -1.050000    23.255668843    18.629500000     8.407157432   0   0   0 # obsk
    674      1   1 -1.050000    23.110320913    18.377750000    12.980490766   0   0   0 # obsk
    675      1   1 -1.050000    -0.144620482    18.377750000     3.833824099   1   0   0 # obsk
    676      1   1 -1.050000    24.563800215    20.895250000     8.407157432   0   0   0 # obsk
    677      1   2  1.575000    21.802189540    17.622500000     7.561090766   0   0   0 # feok
    678      1   2  1.575000    24.709148146    17.622500000    12.134424099   0   0   0 # feok
    679      1   2  1.575000    23.255668843    20.140000000     2.987757432   0   0   0 # feok
    680      1   2  1.575000    21.802189540    17.622500000     4.679890766   0   0   0 # feok
    681      1   2  1.575000    24.709148146    17.622500000     9.253224099   0   0   0 # feok
    682      1   2  1.575000    23.255668843    20.140000000    13.826557432   0   0   0 # feok
    683      1   2  1.575000    21.802189540    17.622500000    11.539890766   0   0   0 # feok
    684      1   2  1.575000    24.709148146    17.622500000    16.113224099   0   0   0 # feok
    685      1   2  1.575000    23.255668843    20.140000000     6.966557432   0   0   0 # feok
    686      1   2  1.575000    21.802189540    17.622500000    14.421090766   0   0   0 # feok
    687      1   2  1.575000    24.709148146    17.622500000     5.274424099   0   0   0 # feok
    688      1   2  1.575000    23.255668843    20.140000000     9.847757432   0   0   0 # feok
    689      1   1 -1.050000    23.110320913    16.867250000    19.840490766   0   0   0 # obsk
    690      1   1 -1.050000    -0.144620482    16.867250000    24.413824099   1   0   0 # obsk
    691      1   1 -1.129000    24.563800215    19.384750000    28.987157432   0   0   0 # obsk
    692      1   1 -1.050000    21.802189540    19.133000000    19.840490766   0   0   0 # obsk
    693      1   1 -1.050000    24.709148146    19.133000000    24.413824099   0   0   0 # obsk
    694      1   1 -1.050000    23.255668843    21.650500000    28.987157432   0   0   0 # obsk
    695      1   1 -1.050000    24.854496076    19.384750000    19.840490766   0   0   0 # obsk
    696      1   1 -1.050000    23.401016773    16.867250000    24.413824099   0   0   0 # obsk
    697      1   1 -1.050000    21.947537471    19.384750000    28.987157432   0   0   0 # obsk
    698      1   1 -1.050000    24.854496076    15.860250000    26.700490766   0   0   0 # obsk
    699      1   1 -1.050000    23.401016773    18.377750000    17.553824099   0   0   0 # obsk
    700      1   1 -1.050000    21.947537471    20.895250000    22.127157432   0   0   0 # obsk
    701      1   1 -1.050000    21.802189540    21.147000000    26.700490766   0   0   0 # obsk
    702      1   1 -1.050000    24.709148146    16.112000000    17.553824099   0   0   0 # obsk
    703      1   1 -1.050000    23.255668843    18.629500000    22.127157432   0   0   0 # obsk
    704      1   1 -1.050000    23.110320913    18.377750000    26.700490766   0   0   0 # obsk
    705      1   1 -1.050000    -0.144620482    18.377750000    17.553824099   1   0   0 # obsk
    706      1   1 -1.050000    24.563800215    20.895250000    22.127157432   0   0   0 # obsk
    707      1   2  1.575000    21.802189540    17.622500000    21.281090766   0   0   0 # feok
    708      1   2  1.575000    24.709148146    17.622500000    25.854424099   0   0   0 # feok
    709      1   2  1.575000    23.255668843    20.140000000    16.707757432   0   0   0 # feok
    710      1   2  1.575000    21.802189540    17.622500000    18.399890766   0   0   0 # feok
    711      1   2  1.575000    24.709148146    17.622500000    22.973224099   0   0   0 # feok
    712      1   2  1.575000    23.255668843    20.140000000    27.546557432   0   0   0 # feok
    713      1   2  1.575000    21.802189540    17.622500000    25.259890766   0   0   0 # feok
    714      1   2  1.575000    23.255668843    20.140000000    20.686557432   0   0   0 # feok
    715      1   2  1.575000    21.802189540    17.622500000    28.141090766   0   0   0 # feok
    716      1   2  1.575000    24.709148146    17.622500000    18.994424099   0   0   0 # feok
    717      1   2  1.575000    23.255668843    20.140000000    23.567757432   0   0   0 # feok
    718      1   1 -1.050000     1.308131372     9.314750000     6.120490766   0   0   0 # obsk
    719      1   1 -1.050000     4.215089978     9.314750000    10.693824099   0   0   0 # obsk
    720      1   1 -1.050000     2.761610675    11.832250000    15.267157432   0   0   0 # obsk
    721      1   1 -1.050000     0.000000000    11.580500000     6.120490766   0   0   0 # obsk
    722      1   1 -1.050000     2.906958605    11.580500000    10.693824099   0   0   0 # obsk
    723      1   1 -1.050000     1.453479303    14.098000000    15.267157432   0   0   0 # obsk
    724      1   1 -1.050000     3.052306536    11.832250000     6.120490766   0   0   0 # obsk
    725      1   1 -1.050000     1.598827233     9.314750000    10.693824099   0   0   0 # obsk
    726      1   1 -1.050000     0.145347930    11.832250000    15.267157432   0   0   0 # obsk
    727      1   1 -1.050000     3.052306536     8.307750000    12.980490766   0   0   0 # obsk
    728      1   1 -1.050000     1.598827233    10.825250000     3.833824099   0   0   0 # obsk
    729      1   1 -1.050000     0.145347930    13.342750000     8.407157432   0   0   0 # obsk
    730      1   1 -1.050000     0.000000000    13.594500000    12.980490766   0   0   0 # obsk
    731      1   1 -1.050000     2.906958605     8.559500000     3.833824099   0   0   0 # obsk
    732      1   1 -1.050000     1.453479303    11.077000000     8.407157432   0   0   0 # obsk
    733      1   1 -1.050000     1.308131372    10.825250000    12.980490766   0   0   0 # obsk
    734      1   1 -1.050000     4.215089978    10.825250000     3.833824099   0   0   0 # obsk
    735      1   1 -1.050000     2.761610675    13.342750000     8.407157432   0   0   0 # obsk
    736      1   2  1.575000     0.000000000    10.070000000     7.561090766   0   0   0 # feok
    737      1   2  1.575000     2.906958605    10.070000000    12.134424099   0   0   0 # feok
    738      1   2  1.575000     1.453479303    12.587500000     2.987757432   0   0   0 # feok
    739      1   2  1.575000     0.000000000    10.070000000     4.679890766   0   0   0 # feok
    740      1   2  1.575000     2.906958605    10.070000000     9.253224099   0   0   0 # feok
    741      1   2  1.575000     1.453479303    12.587500000    13.826557432   0   0   0 # feok
    742      1   2  1.575000     0.000000000    10.070000000    11.539890766   0   0   0 # feok
    743      1   2  1.575000     2.906958605    10.070000000    16.113224099   0   0   0 # feok
    744      1   2  1.575000     1.453479303    12.587500000     6.966557432   0   0   0 # feok
    745      1   2  1.575000     0.000000000    10.070000000    14.421090766   0   0   0 # feok
    746      1   2  1.575000     2.906958605    10.070000000     5.274424099   0   0   0 # feok
    747      1   2  1.575000     1.453479303    12.587500000     9.847757432   0   0   0 # feok
    748      1   1 -1.050000     1.308131372     9.314750000    19.840490766   0   0   0 # obsk
    749      1   1 -1.050000     4.215089978     9.314750000    24.413824099   0   0   0 # obsk
    750      1   1 -1.129000     2.761610675    11.832250000    28.987157432   0   0   0 # obsk
    751      1   1 -1.050000     0.000000000    11.580500000    19.840490766   0   0   0 # obsk
    752      1   1 -1.050000     2.906958605    11.580500000    24.413824099   0   0   0 # obsk
    753      1   1 -1.050000     1.453479303    14.098000000    28.987157432   0   0   0 # obsk
    754      1   1 -1.050000     3.052306536    11.832250000    19.840490766   0   0   0 # obsk
    755      1   1 -1.050000     1.598827233     9.314750000    24.413824099   0   0   0 # obsk
    756      1   1 -1.050000     0.145347930    11.832250000    28.987157432   0   0   0 # obsk
    757      1   1 -1.050000     3.052306536     8.307750000    26.700490766   0   0   0 # obsk
    758      1   1 -1.050000     1.598827233    10.825250000    17.553824099   0   0   0 # obsk
    759      1   1 -1.050000     0.145347930    13.342750000    22.127157432   0   0   0 # obsk
    760      1   1 -1.050000     0.000000000    13.594500000    26.700490766   0   0   0 # obsk
    761      1   1 -1.050000     2.906958605     8.559500000    17.553824099   0   0   0 # obsk
    762      1   1 -1.050000     1.453479303    11.077000000    22.127157432   0   0   0 # obsk
    763      1   1 -1.050000     1.308131372    10.825250000    26.700490766   0   0   0 # obsk
    764      1   1 -1.050000     4.215089978    10.825250000    17.553824099   0   0   0 # obsk
    765      1   1 -1.050000     2.761610675    13.342750000    22.127157432   0   0   0 # obsk
    766      1   2  1.575000     0.000000000    10.070000000    21.281090766   0   0   0 # feok
    767      1   2  1.575000     2.906958605    10.070000000    25.854424099   0   0   0 # feok
    768      1   2  1.575000     1.453479303    12.587500000    16.707757432   0   0   0 # feok
    769      1   2  1.575000     0.000000000    10.070000000    18.399890766   0   0   0 # feok
    770      1   2  1.575000     2.906958605    10.070000000    22.973224099   0   0   0 # feok
    771      1   2  1.575000     1.453479303    12.587500000    27.546557432   0   0   0 # feok
    772      1   2  1.575000     0.000000000    10.070000000    25.259890766   0   0   0 # feok
    773      1   2  1.575000     1.453479303    12.587500000    20.686557432   0   0   0 # feok
    774      1   2  1.575000     0.000000000    10.070000000    28.141090766   0   0   0 # feok
    775      1   2  1.575000     2.906958605    10.070000000    18.994424099   0   0   0 # feok
    776      1   2  1.575000     1.453479303    12.587500000    23.567757432   0   0   0 # feok
    777      1   1 -1.050000     5.668569280     6.797250000     6.120490766   0   0   0 # obsk
    778      1   1 -1.050000     8.575527886     6.797250000    10.693824099   0   0   0 # obsk
    779      1   1 -1.050000     7.122048583     9.314750000    15.267157432   0   0   0 # obsk
    780      1   1 -1.050000     4.360437908     9.063000000     6.120490766   0   0   0 # obsk
    781      1   1 -1.050000     7.267396513     9.063000000    10.693824099   0   0   0 # obsk
    782      1   1 -1.050000     5.813917211    11.580500000    15.267157432   0   0   0 # obsk
    783      1   1 -1.050000     7.412744444     9.314750000     6.120490766   0   0   0 # obsk
    784      1   1 -1.050000     5.959265141     6.797250000    10.693824099   0   0   0 # obsk
    785      1   1 -1.050000     4.505785838     9.314750000    15.267157432   0   0   0 # obsk
    786      1   1 -1.050000     7.412744444     5.790250000    12.980490766   0   0   0 # obsk
    787      1   1 -1.050000     5.959265141     8.307750000     3.833824099   0   0   0 # obsk
    788      1   1 -1.050000     4.505785838    10.825250000     8.407157432   0   0   0 # obsk
    789      1   1 -1.050000     4.360437908    11.077000000    12.980490766   0   0   0 # obsk
    790      1   1 -1.050000     7.267396513     6.042000000     3.833824099   0   0   0 # obsk
    791      1   1 -1.050000     5.813917211     8.559500000     8.407157432   0   0   0 # obsk
    792      1   1 -1.050000     5.668569280     8.307750000    12.980490766   0   0   0 # obsk
    793      1   1 -1.050000     8.575527886     8.307750000     3.833824099   0   0   0 # obsk
    794      1   1 -1.050000     7.122048583    10.825250000     8.407157432   0   0   0 # obsk
    795      1   2  1.575000     4.360437908     7.552500000     7.561090766   0   0   0 # feok
    796      1   2  1.575000     7.267396513     7.552500000    12.134424099   0   0   0 # feok
    797      1   2  1.575000     5.813917211    10.070000000     2.987757432   0   0   0 # feok
    798      1   2  1.575000     4.360437908     7.552500000     4.679890766   0   0   0 # feok
    799      1   2  1.575000     7.267396513     7.552500000     9.253224099   0   0   0 # feok
    800      1   2  1.575000     5.813917211    10.070000000    13.826557432   0   0   0 # feok
    801      1   2  1.575000     4.360437908     7.552500000    11.539890766   0   0   0 # feok
    802      1   2  1.575000     7.267396513     7.552500000    16.113224099   0   0   0 # feok
    803      1   2  1.575000     5.813917211    10.070000000     6.966557432   0   0   0 # feok
    804      1   2  1.575000     4.360437908     7.552500000    14.421090766   0   0   0 # feok
    805      1   2  1.575000     7.267396513     7.552500000     5.274424099   0   0   0 # feok
    806      1   2  1.575000     5.813917211    10.070000000     9.847757432   0   0   0 # feok
    807      1   1 -1.050000     5.668569280     6.797250000    19.840490766   0   0   0 # obsk
    808      1   1 -1.050000     8.575527886     6.797250000    24.413824099   0   0   0 # obsk
    809      1   1 -1.050000     7.122048583     9.314750000    28.987157432   0   0   0 # obsk
    810      1   1 -1.050000     4.360437908     9.063000000    19.840490766   0   0   0 # obsk
    811      1   1 -1.050000     7.267396513     9.063000000    24.413824099   0   0   0 # obsk
    812      1   1 -1.050000     5.813917211    11.580500000    28.987157432   0   0   0 # obsk
    813      1   1 -1.050000     7.412744444     9.314750000    19.840490766   0   0   0 # obsk
    814      1   1 -1.050000     5.959265141     6.797250000    24.413824099   0   0   0 # obsk
    815      1   1 -1.129000     4.505785838     9.314750000    28.987157432   0   0   0 # obsk
    816      1   1 -1.050000     7.412744444     5.790250000    26.700490766   0   0   0 # obsk
    817      1   1 -1.050000     5.959265141     8.307750000    17.553824099   0   0   0 # obsk
    818      1   1 -1.050000     4.505785838    10.825250000    22.127157432   0   0   0 # obsk
    819      1   1 -1.050000     4.360437908    11.077000000    26.700490766   0   0   0 # obsk
    820      1   1 -1.050000     7.267396513     6.042000000    17.553824099   0   0   0 # obsk
    821      1   1 -1.050000     5.813917211     8.559500000    22.127157432   0   0   0 # obsk
    822      1   1 -1.050000     5.668569280     8.307750000    26.700490766   0   0   0 # obsk
    823      1   1 -1.050000     8.575527886     8.307750000    17.553824099   0   0   0 # obsk
    824      1   1 -1.050000     7.122048583    10.825250000    22.127157432   0   0   0 # obsk
    825      1   2  1.575000     4.360437908     7.552500000    21.281090766   0   0   0 # feok
    826      1   2  1.575000     7.267396513     7.552500000    25.854424099   0   0   0 # feok
    827      1   2  1.575000     5.813917211    10.070000000    16.707757432   0   0   0 # feok
    828      1   2  1.575000     4.360437908     7.552500000    18.399890766   0   0   0 # feok
    829      1   2  1.575000     7.267396513     7.552500000    22.973224099   0   0   0 # feok
    830      1   2  1.575000     5.813917211    10.070000000    27.546557432   0   0   0 # feok
    831      1   2  1.575000     4.360437908     7.552500000    25.259890766   0   0   0 # feok
    832      1   2  1.575000     7.267396513     7.552500000    29.833224099   0   0   0 # feok
    833      1   2  1.575000     5.813917211    10.070000000    20.686557432   0   0   0 # feok
    834      1   2  1.575000     4.360437908     7.552500000    28.141090766   0   0   0 # feok
    835      1   2  1.575000     7.267396513     7.552500000    18.994424099   0   0   0 # feok
    836      1   2  1.575000     5.813917211    10.070000000    23.567757432   0   0   0 # feok
    837      1   1 -1.050000    10.029007189     4.279750000     6.120490766   0   0   0 # obsk
    838      1   1 -1.050000    12.935965794     4.279750000    10.693824099   0   0   0 # obsk
    839      1   1 -1.050000    11.482486491     6.797250000    15.267157432   0   0   0 # obsk
    840      1   1 -1.050000     8.720875816     6.545500000     6.120490766   0   0   0 # obsk
    841      1   1 -1.050000    11.627834421     6.545500000    10.693824099   0   0   0 # obsk
    842      1   1 -1.050000    10.174355119     9.063000000    15.267157432   0   0   0 # obsk
    843      1   1 -1.050000    11.773182352     6.797250000     6.120490766   0   0   0 # obsk
    844      1   1 -1.050000    10.319703049     4.279750000    10.693824099   0   0   0 # obsk
    845      1   1 -1.050000     8.866223746     6.797250000    15.267157432   0   0   0 # obsk
    846      1   1 -1.050000    11.773182352     3.272750000    12.980490766   0   0   0 # obsk
    847      1   1 -1.050000    10.319703049     5.790250000     3.833824099   0   0   0 # obsk
    848      1   1 -1.050000     8.866223746     8.307750000     8.407157432   0   0   0 # obsk
    849      1   1 -1.050000     8.720875816     8.559500000    12.980490766   0   0   0 # obsk
    850      1   1 -1.050000    11.627834421     3.524500000     3.833824099   0   0   0 # obsk
    851      1   1 -1.050000    10.174355119     6.042000000     8.407157432   0   0   0 # obsk
    852      1   1 -1.050000    10.029007189     5.790250000    12.980490766   0   0   0 # obsk
    853      1   1 -1.050000    12.935965794     5.790250000     3.833824099   0   0   0 # obsk
    854      1   1 -1.050000    11.482486491     8.307750000     8.407157432   0   0   0 # obsk
    855      1   2  1.575000     8.720875816     5.035000000     7.561090766   0   0   0 # feok
    856      1   2  1.575000    11.627834421     5.035000000    12.134424099   0   0   0 # feok
    857      1   2  1.575000    10.174355119     7.552500000     2.987757432   0   0   0 # feok
    858      1   2  1.575000     8.720875816     5.035000000     4.679890766   0   0   0 # feok
    859      1   2  1.575000    11.627834421     5.035000000     9.253224099   0   0   0 # feok
    860      1   2  1.575000    10.174355119     7.552500000    13.826557432   0   0   0 # feok
    861      1   2  1.575000     8.720875816     5.035000000    11.539890766   0   0   0 # feok
    862      1   2  1.575000    11.627834421     5.035000000    16.113224099   0   0   0 # feok
    863      1   2  1.575000    10.174355119     7.552500000     6.966557432   0   0   0 # feok
    864      1   2  1.575000     8.720875816     5.035000000    14.421090766   0   0   0 # feok
    865      1   2  1.575000    11.627834421     5.035000000     5.274424099   0   0   0 # feok
    866      1   2  1.575000    10.174355119     7.552500000     9.847757432   0   0   0 # feok
    867      1   1 -1.050000    10.029007189     4.279750000    19.840490766   0   0   0 # obsk
    868      1   1 -1.050000    12.935965794     4.279750000    24.413824099   0   0   0 # obsk
    869      1   1 -1.050000    11.482486491     6.797250000    28.987157432   0   0   0 # obsk
    870      1   1 -1.050000     8.720875816     6.545500000    19.840490766   0   0   0 # obsk
    871      1   1 -1.050000    11.627834421     6.545500000    24.413824099   0   0   0 # obsk
    872      1   1 -1.129000    10.174355119     9.063000000    28.987157432   0   0   0 # obsk
    873      1   1 -1.050000    11.773182352     6.797250000    19.840490766   0   0   0 # obsk
    874      1   1 -1.050000    10.319703049     4.279750000    24.413824099   0   0   0 # obsk
    875      1   1 -1.050000     8.866223746     6.797250000    28.987157432   0   0   0 # obsk
    876      1   1 -1.050000    11.773182352     3.272750000    26.700490766   0   0   0 # obsk
    877      1   1 -1.050000    10.319703049     5.790250000    17.553824099   0   0   0 # obsk
    878      1   1 -1.050000     8.866223746     8.307750000    22.127157432   0   0   0 # obsk
    879      1   1 -1.050000     8.720875816     8.559500000    26.700490766   0   0   0 # obsk
    880      1   1 -1.050000    11.627834421     3.524500000    17.553824099   0   0   0 # obsk
    881      1   1 -1.050000    10.174355119     6.042000000    22.127157432   0   0   0 # obsk
    882      1   1 -1.050000    10.029007189     5.790250000    26.700490766   0   0   0 # obsk
    883      1   1 -1.050000    12.935965794     5.790250000    17.553824099   0   0   0 # obsk
    884      1   1 -1.050000    11.482486491     8.307750000    22.127157432   0   0   0 # obsk
    885      1   2  1.575000     8.720875816     5.035000000    21.281090766   0   0   0 # feok
    886      1   2  1.575000    11.627834421     5.035000000    25.854424099   0   0   0 # feok
    887      1   2  1.575000    10.174355119     7.552500000    16.707757432   0   0   0 # feok
    888      1   2  1.575000     8.720875816     5.035000000    18.399890766   0   0   0 # feok
    889      1   2  1.575000    11.627834421     5.035000000    22.973224099   0   0   0 # feok
    890      1   2  1.575000    10.174355119     7.552500000    27.546557432   0   0   0 # feok
    891      1   2  1.575000     8.720875816     5.035000000    25.259890766   0   0   0 # feok
    892      1   2  1.575000    11.627834421     5.035000000    29.833224099   0   0   0 # feok
    893      1   2  1.575000    10.174355119     7.552500000    20.686557432   0   0   0 # feok
    894      1   2  1.575000     8.720875816     5.035000000    28.141090766   0   0   0 # feok
    895      1   2  1.575000    11.627834421     5.035000000    18.994424099   0   0   0 # feok
    896      1   2  1.575000    10.174355119     7.552500000    23.567757432   0   0   0 # feok
    897      1   1 -1.050000    14.389445097     1.762250000     6.120490766   0   0   0 # obsk
    898      1   1 -1.050000    17.296403702     1.762250000    10.693824099   0   0   0 # obsk
    899      1   1 -1.050000    15.842924399     4.279750000    15.267157432   0   0   0 # obsk
    900      1   1 -1.050000    13.081313724     4.028000000     6.120490766   0   0   0 # obsk
    901      1   1 -1.050000    15.988272330     4.028000000    10.693824099   0   0   0 # obsk
    902      1   1 -1.050000    14.534793027     6.545500000    15.267157432   0   0   0 # obsk
    903      1   1 -1.050000    16.133620260     4.279750000     6.120490766   0   0   0 # obsk
    904      1   1 -1.050000    14.680140957     1.762250000    10.693824099   0   0   0 # obsk
    905      1   1 -1.050000    13.226661654     4.279750000    15.267157432   0   0   0 # obsk
    906      1   1 -1.050000    16.133620260     0.755250000    12.980490766   0   0   0 # obsk
    907      1   1 -1.050000    14.680140957     3.272750000     3.833824099   0   0   0 # obsk
    908      1   1 -1.050000    13.226661654     5.790250000     8.407157432   0   0   0 # obsk
    909      1   1 -1.050000    13.081313724     6.042000000    12.980490766   0   0   0 # obsk
    910      1   1 -1.050000    15.988272330     1.007000000     3.833824099   0   0   0 # obsk
    911      1   1 -1.050000    14.534793027     3.524500000     8.407157432   0   0   0 # obsk
    912      1   1 -1.050000    14.389445097     3.272750000    12.980490766   0   0   0 # obsk
    913      1   1 -1.050000    17.296403702     3.272750000     3.833824099   0   0   0 # obsk
    914      1   1 -1.050000    15.842924399     5.790250000     8.407157432   0   0   0 # obsk
    915      1   2  1.575000    13.081313724     2.517500000     7.561090766   0   0   0 # feok
    916      1   2  1.575000    15.988272330     2.517500000    12.134424099   0   0   0 # feok
    917      1   2  1.575000    14.534793027     5.035000000     2.987757432   0   0   0 # feok
    918      1   2  1.575000    13.081313724     2.517500000     4.679890766   0   0   0 # feok
    919      1   2  1.575000    15.988272330     2.517500000     9.253224099   0   0   0 # feok
    920      1   2  1.575000    14.534793027     5.035000000    13.826557432   0   0   0 # feok
    921      1   2  1.575000    13.081313724     2.517500000    11.539890766   0   0   0 # feok
    922      1   2  1.575000    15.988272330     2.517500000    16.113224099   0   0   0 # feok
    923      1   2  1.575000    14.534793027     5.035000000     6.966557432   0   0   0 # feok
    924      1   2  1.575000    13.081313724     2.517500000    14.421090766   0   0   0 # feok
    925      1   2  1.575000    15.988272330     2.517500000     5.274424099   0   0   0 # feok
    926      1   2  1.575000    14.534793027     5.035000000     9.847757432   0   0   0 # feok
    927      1   1 -1.050000    14.389445097     1.762250000    19.840490766   0   0   0 # obsk
    928      1   1 -1.050000    17.296403702     1.762250000    24.413824099   0   0   0 # obsk
    929      1   1 -1.129000    15.842924399     4.279750000    28.987157432   0   0   0 # obsk
    930      1   1 -1.050000    13.081313724     4.028000000    19.840490766   0   0   0 # obsk
    931      1   1 -1.050000    15.988272330     4.028000000    24.413824099   0   0   0 # obsk
    932      1   1 -1.050000    14.534793027     6.545500000    28.987157432   0   0   0 # obsk
    933      1   1 -1.050000    16.133620260     4.279750000    19.840490766   0   0   0 # obsk
    934      1   1 -1.050000    14.680140957     1.762250000    24.413824099   0   0   0 # obsk
    935      1   1 -1.050000    13.226661654     4.279750000    28.987157432   0   0   0 # obsk
    936      1   1 -1.050000    16.133620260     0.755250000    26.700490766   0   0   0 # obsk
    937      1   1 -1.050000    14.680140957     3.272750000    17.553824099   0   0   0 # obsk
    938      1   1 -1.050000    13.226661654     5.790250000    22.127157432   0   0   0 # obsk
    939      1   1 -1.050000    13.081313724     6.042000000    26.700490766   0   0   0 # obsk
    940      1   1 -1.050000    15.988272330     1.007000000    17.553824099   0   0   0 # obsk
    941      1   1 -1.050000    14.534793027     3.524500000    22.127157432   0   0   0 # obsk
    942      1   1 -1.050000    14.389445097     3.272750000    26.700490766   0   0   0 # obsk
    943      1   1 -1.050000    17.296403702     3.272750000    17.553824099   0   0   0 # obsk
    944      1   1 -1.050000    15.842924399     5.790250000    22.127157432   0   0   0 # obsk
    945      1   2  1.575000    13.081313724     2.517500000    21.281090766   0   0   0 # feok
    946      1   2  1.575000    15.988272330     2.517500000    25.854424099   0   0   0 # feok
    947      1   2  1.575000    14.534793027     5.035000000    16.707757432   0   0   0 # feok
    948      1   2  1.575000    13.081313724     2.517500000    18.399890766   0   0   0 # feok
    949      1   2  1.575000    15.988272330     2.517500000    22.973224099   0   0   0 # feok
    950      1   2  1.575000    14.534793027     5.035000000    27.546557432   0   0   0 # feok
    951      1   2  1.575000    13.081313724     2.517500000    25.259890766   0   0   0 # feok
    952      1   2  1.575000    14.534793027     5.035000000    20.686557432   0   0   0 # feok
    953      1   2  1.575000    13.081313724     2.517500000    28.141090766   0   0   0 # feok
    954      1   2  1.575000    15.988272330     2.517500000    18.994424099   0   0   0 # feok
    955      1   2  1.575000    14.534793027     5.035000000    23.567757432   0   0   0 # feok
    956      1   1 -1.050000    18.749883005    24.419750000     6.120490766   0   0   0 # obsk
    957      1   1 -1.050000    21.656841610    24.419750000    10.693824099   0   0   0 # obsk
    958      1   1 -1.050000    20.203362307     1.762250000    15.267157432   0   0   0 # obsk
    959      1   1 -1.050000    17.441751632     1.510500000     6.120490766   0   0   0 # obsk
    960      1   1 -1.050000    20.348710238     1.510500000    10.693824099   0   0   0 # obsk
    961      1   1 -1.050000    18.895230935     4.028000000    15.267157432   0   0   0 # obsk
    962      1   1 -1.050000    20.494058168     1.762250000     6.120490766   0   0   0 # obsk
    963      1   1 -1.050000    19.040578865    24.419750000    10.693824099   0   0   0 # obsk
    964      1   1 -1.050000    17.587099562     1.762250000    15.267157432   0   0   0 # obsk
    965      1   1 -1.050000    20.494058168    23.412750000    12.980490766   0   0   0 # obsk
    966      1   1 -1.050000    19.040578865     0.755250000     3.833824099   0   0   0 # obsk
    967      1   1 -1.050000    17.587099562     3.272750000     8.407157432   0   0   0 # obsk
    968      1   1 -1.050000    17.441751632     3.524500000    12.980490766   0   0   0 # obsk
    969      1   1 -1.050000    20.348710238    23.664500000     3.833824099   0   0   0 # obsk
    970      1   1 -1.050000    18.895230935     1.007000000     8.407157432   0   0   0 # obsk
    971      1   1 -1.050000    18.749883005     0.755250000    12.980490766   0   0   0 # obsk
    972      1   1 -1.050000    21.656841610     0.755250000     3.833824099   0   0   0 # obsk
    973      1   1 -1.050000    20.203362307     3.272750000     8.407157432   0   0   0 # obsk
    974      1   2  1.575000    17.441751632     0.000000000     7.561090766   0   0   0 # feok
    975      1   2  1.575000    20.348710238     0.000000000    12.134424099   0   0   0 # feok
    976      1   2  1.575000    18.895230935     2.517500000     2.987757432   0   0   0 # feok
    977      1   2  1.575000    17.441751632     0.000000000     4.679890766   0   0   0 # feok
    978      1   2  1.575000    20.348710238     0.000000000     9.253224099   0   0   0 # feok
    979      1   2  1.575000    18.895230935     2.517500000    13.826557432   0   0   0 # feok
    980      1   2  1.575000    17.441751632     0.000000000    11.539890766   0   0   0 # feok
    981      1   2  1.575000    20.348710238     0.000000000    16.113224099   0   0   0 # feok
    982      1   2  1.575000    18.895230935     2.517500000     6.966557432   0   0   0 # feok
    983      1   2  1.575000    17.441751632     0.000000000    14.421090766   0   0   0 # feok
    984      1   2  1.575000    20.348710238     0.000000000     5.274424099   0   0   0 # feok
    985      1   2  1.575000    18.895230935     2.517500000     9.847757432   0   0   0 # feok
    986      1   1 -1.050000    18.749883005    24.419750000    19.840490766   0   0   0 # obsk
    987      1   1 -1.050000    21.656841610    24.419750000    24.413824099   0   0   0 # obsk
    988      1   1 -1.050000    20.203362307     1.762250000    28.987157432   0   0   0 # obsk
    989      1   1 -1.050000    17.441751632     1.510500000    19.840490766   0   0   0 # obsk
    990      1   1 -1.050000    20.348710238     1.510500000    24.413824099   0   0   0 # obsk
    991      1   1 -1.050000    18.895230935     4.028000000    28.987157432   0   0   0 # obsk
    992      1   1 -1.050000    20.494058168     1.762250000    19.840490766   0   0   0 # obsk
    993      1   1 -1.050000    19.040578865    24.419750000    24.413824099   0   0   0 # obsk
    994      1   1 -1.129000    17.587099562     1.762250000    28.987157432   0   0   0 # obsk
    995      1   1 -1.050000    20.494058168    23.412750000    26.700490766   0   0   0 # obsk
    996      1   1 -1.050000    19.040578865     0.755250000    17.553824099   0   0   0 # obsk
    997      1   1 -1.050000    17.587099562     3.272750000    22.127157432   0   0   0 # obsk
    998      1   1 -1.050000    17.441751632     3.524500000    26.700490766   0   0   0 # obsk
    999      1   1 -1.050000    20.348710238    23.664500000    17.553824099   0   0   0 # obsk
   1000      1   1 -1.050000    18.895230935     1.007000000    22.127157432   0   0   0 # obsk
   1001      1   1 -1.050000    18.749883005     0.755250000    26.700490766   0   0   0 # obsk
   1002      1   1 -1.050000    21.656841610     0.755250000    17.553824099   0   0   0 # obsk
   1003      1   1 -1.050000    20.203362307     3.272750000    22.127157432   0   0   0 # obsk
   1004      1   2  1.575000    17.441751632     0.000000000    21.281090766   0   0   0 # feok
   1005      1   2  1.575000    20.348710238     0.000000000    25.854424099   0   0   0 # feok
   1006      1   2  1.575000    18.895230935     2.517500000    16.707757432   0   0   0 # feok
   1007      1   2  1.575000    17.441751632     0.000000000    18.399890766   0   0   0 # feok
   1008      1   2  1.575000    20.348710238     0.000000000    22.973224099   0   0   0 # feok
   1009      1   2  1.575000    18.895230935     2.517500000    27.546557432   0   0   0 # feok
   1010      1   2  1.575000    17.441751632     0.000000000    25.259890766   0   0   0 # feok
   1011      1   2  1.575000    20.348710238     0.000000000    29.833224099   0   0   0 # feok
   1012      1   2  1.575000    18.895230935     2.517500000    20.686557432   0   0   0 # feok
   1013      1   2  1.575000    17.441751632     0.000000000    28.141090766   0   0   0 # feok
   1014      1   2  1.575000    20.348710238     0.000000000    18.994424099   0   0   0 # feok
   1015      1   2  1.575000    18.895230935     2.517500000    23.567757432   0   0   0 # feok
   1016      1   1 -1.050000    23.110320913    21.902250000     6.120490766   0   0   0 # obsk
   1017      1   1 -1.050000    -0.144620482    21.902250000    10.693824099   1   0   0 # obsk
   1018      1   1 -1.050000    24.563800215    24.419750000    15.267157432   0   0   0 # obsk
   1019      1   1 -1.050000    21.802189540    24.168000000     6.120490766   0   0   0 # obsk
   1020      1   1 -1.050000    24.709148146    24.168000000    10.693824099   0   0   0 # obsk
   1021      1   1 -1.050000    23.255668843     1.510500000    15.267157432   0   0   0 # obsk
   1022      1   1 -1.050000    24.854496076    24.419750000     6.120490766   0   0   0 # obsk
   1023      1   1 -1.050000    23.401016773    21.902250000    10.693824099   0   0   0 # obsk
   1024      1   1 -1.050000    21.947537471    24.419750000    15.267157432   0   0   0 # obsk
   1025      1   1 -1.050000    24.854496076    20.895250000    12.980490766   0   0   0 # obsk
   1026      1   1 -1.050000    23.401016773    23.412750000     3.833824099   0   0   0 # obsk
   1027      1   1 -1.050000    21.947537471     0.755250000     8.407157432   0   0   0 # obsk
   1028      1   1 -1.050000    21.802189540     1.007000000    12.980490766   0   0   0 # obsk
   1029      1   1 -1.050000    24.709148146    21.147000000     3.833824099   0   0   0 # obsk
   1030      1   1 -1.050000    23.255668843    23.664500000     8.407157432   0   0   0 # obsk
   1031      1   1 -1.050000    23.110320913    23.412750000    12.980490766   0   0   0 # obsk
   1032      1   1 -1.050000    -0.144620482    23.412750000     3.833824099   1   0   0 # obsk
   1033      1   1 -1.050000    24.563800215     0.755250000     8.407157432   0   0   0 # obsk
   1034      1   2  1.575000    21.802189540    22.657500000     7.561090766   0   0   0 # feok
   1035      1   2  1.575000    24.709148146    22.657500000    12.134424099   0   0   0 # feok
   1036      1   2  1.575000    23.255668843     0.000000000     2.987757432   0   0   0 # feok
   1037      1   2  1.575000    21.802189540    22.657500000     4.679890766   0   0   0 # feok
   1038      1   2  1.575000    24.709148146    22.657500000     9.253224099   0   0   0 # feok
   1039      1   2  1.575000    23.255668843     0.000000000    13.826557432   0   0   0 # feok
   1040      1   2  1.575000    21.802189540    22.657500000    11.539890766   0   0   0 # feok
   1041      1   2  1.575000    24.709148146    22.657500000    16.113224099   0   0   0 # feok
   1042      1   2  1.575000    23.255668843     0.000000000     6.966557432   0   0   0 # feok
   1043      1   2  1.575000    21.802189540    22.657500000    14.421090766   0   0   0 # feok
   1044      1   2  1.575000    24.709148146    22.657500000     5.274424099   0   0   0 # feok
   1045      1   2  1.575000    23.255668843     0.000000000     9.847757432   0   0   0 # feok
   1046      1   1 -1.050000    23.110320913    21.902250000    19.840490766   0   0   0 # obsk
   1047      1   1 -1.050000    -0.144620482    21.902250000    24.413824099   1   0   0 # obsk
   1048      1   1 -1.050000    24.563800215    24.419750000    28.987157432   0   0   0 # obsk
   1049      1   1 -1.050000    21.802189540    24.168000000    19.840490766   0   0   0 # obsk
   1050      1   1 -1.050000    24.709148146    24.168000000    24.413824099   0   0   0 # obsk
   1051      1   1 -1.050000    23.255668843     1.510500000    28.987157432   0   0   0 # obsk
   1052      1   1 -1.050000    24.854496076    24.419750000    19.840490766   0   0   0 # obsk
   1053      1   1 -1.050000    23.401016773    21.902250000    24.413824099   0   0   0 # obsk
   1054      1   1 -1.050000    21.947537471    24.419750000    28.987157432   0   0   0 # obsk
   1055      1   1 -1.050000    24.854496076    20.895250000    26.700490766   0   0   0 # obsk
   1056      1   1 -1.050000    23.401016773    23.412750000    17.553824099   0   0   0 # obsk
   1057      1   1 -1.050000    21.947537471     0.755250000    22.127157432   0   0   0 # obsk
   1058      1   1 -1.050000    21.802189540     1.007000000    26.700490766   0   0   0 # obsk
   1059      1   1 -1.050000    24.709148146    21.147000000    17.553824099   0   0   0 # obsk
   1060      1   1 -1.050000    23.255668843    23.664500000    22.127157432   0   0   0 # obsk
   1061      1   1 -1.050000    23.110320913    23.412750000    26.700490766   0   0   0 # obsk
   1062      1   1 -1.050000    -0.144620482    23.412750000    17.553824099   1   0   0 # obsk
   1063      1   1 -1.050000    24.563800215     0.755250000    22.127157432   0   0   0 # obsk
   1064      1   2  1.575000    21.802189540    22.657500000    21.281090766   0   0   0 # feok
   1065      1   2  1.575000    24.709148146    22.657500000    25.854424099   0   0   0 # feok
   1066      1   2  1.575000    23.255668843     0.000000000    16.707757432   0   0   0 # feok
   1067      1   2  1.575000    21.802189540    22.657500000    18.399890766   0   0   0 # feok
   1068      1   2  1.575000    24.709148146    22.657500000    22.973224099   0   0   0 # feok
   1069      1   2  1.575000    23.255668843     0.000000000    27.546557432   0   0   0 # feok
   1070      1   2  1.575000    21.802189540    22.657500000    25.259890766   0   0   0 # feok
   1071      1   2  1.575000    24.709148146    22.657500000    29.833224099   0   0   0 # feok
   1072      1   2  1.575000    23.255668843     0.000000000    20.686557432   0   0   0 # feok
   1073      1   2  1.575000    21.802189540    22.657500000    28.141090766   0   0   0 # feok
   1074      1   2  1.575000    24.709148146    22.657500000    18.994424099   0   0   0 # feok
   1075      1   2  1.575000    23.255668843     0.000000000    23.567757432   0   0   0 # feok
   1076      1   1 -1.050000     1.308131372    14.349750000     6.120490766   0   0   0 # obsk
   1077      1   1 -1.050000     4.215089978    14.349750000    10.693824099   0   0   0 # obsk
   1078      1   1 -1.050000     2.761610675    16.867250000    15.267157432   0   0   0 # obsk
   1079      1   1 -1.050000     0.000000000    16.615500000     6.120490766   0   0   0 # obsk
   1080      1   1 -1.050000     2.906958605    16.615500000    10.693824099   0   0   0 # obsk
   1081      1   1 -1.050000     1.453479303    19.133000000    15.267157432   0   0   0 # obsk
   1082      1   1 -1.050000     3.052306536    16.867250000     6.120490766   0   0   0 # obsk
   1083      1   1 -1.050000     1.598827233    14.349750000    10.693824099   0   0   0 # obsk
   1084      1   1 -1.050000     0.145347930    16.867250000    15.267157432   0   0   0 # obsk
   1085      1   1 -1.050000     3.052306536    13.342750000    12.980490766   0   0   0 # obsk
   1086      1   1 -1.050000     1.598827233    15.860250000     3.833824099   0   0   0 # obsk
   1087      1   1 -1.050000     0.145347930    18.377750000     8.407157432   0   0   0 # obsk
   1088      1   1 -1.050000     0.000000000    18.629500000    12.980490766   0   0   0 # obsk
   1089      1   1 -1.050000     2.906958605    13.594500000     3.833824099   0   0   0 # obsk
   1090      1   1 -1.050000     1.453479303    16.112000000     8.407157432   0   0   0 # obsk
   1091      1   1 -1.050000     1.308131372    15.860250000    12.980490766   0   0   0 # obsk
   1092      1   1 -1.050000     4.215089978    15.860250000     3.833824099   0   0   0 # obsk
   1093      1   1 -1.050000     2.761610675    18.377750000     8.407157432   0   0   0 # obsk
   1094      1   2  1.575000     0.000000000    15.105000000     7.561090766   0   0   0 # feok
   1095      1   2  1.575000     2.906958605    15.105000000    12.134424099   0   0   0 # feok
   1096      1   2  1.575000     1.453479303    17.622500000     2.987757432   0   0   0 # feok
   1097      1   2  1.575000     0.000000000    15.105000000     4.679890766   0   0   0 # feok
   1098      1   2  1.575000     2.906958605    15.105000000     9.253224099   0   0   0 # feok
   1099      1   2  1.575000     1.453479303    17.622500000    13.826557432   0   0   0 # feok
   1100      1   2  1.575000     0.000000000    15.105000000    11.539890766   0   0   0 # feok
   1101      1   2  1.575000     2.906958605    15.105000000    16.113224099   0   0   0 # feok
   1102      1   2  1.575000     1.453479303    17.622500000     6.966557432   0   0   0 # feok
   1103      1   2  1.575000     0.000000000    15.105000000    14.421090766   0   0   0 # feok
   1104      1   2  1.575000     2.906958605    15.105000000     5.274424099   0   0   0 # feok
   1105      1   2  1.575000     1.453479303    17.622500000     9.847757432   0   0   0 # feok
   1106      1   1 -1.050000     1.308131372    14.349750000    19.840490766   0   0   0 # obsk
   1107      1   1 -1.050000     4.215089978    14.349750000    24.413824099   0   0   0 # obsk
   1108      1   1 -1.050000     2.761610675    16.867250000    28.987157432   0   0   0 # obsk
   1109      1   1 -1.050000     0.000000000    16.615500000    19.840490766   0   0   0 # obsk
   1110      1   1 -1.050000     2.906958605    16.615500000    24.413824099   0   0   0 # obsk
   1111      1   1 -1.050000     1.453479303    19.133000000    28.987157432   0   0   0 # obsk
   1112      1   1 -1.050000     3.052306536    16.867250000    19.840490766   0   0   0 # obsk
   1113      1   1 -1.050000     1.598827233    14.349750000    24.413824099   0   0   0 # obsk
   1114      1   1 -1.050000     3.052306536    13.342750000    26.700490766   0   0   0 # obsk
   1115      1   1 -1.050000     1.598827233    15.860250000    17.553824099   0   0   0 # obsk
   1116      1   1 -1.050000     0.145347930    18.377750000    22.127157432   0   0   0 # obsk
   1117      1   1 -1.050000     0.000000000    18.629500000    26.700490766   0   0   0 # obsk
   1118      1   1 -1.050000     2.906958605    13.594500000    17.553824099   0   0   0 # obsk
   1119      1   1 -1.050000     1.453479303    16.112000000    22.127157432   0   0   0 # obsk
   1120      1   1 -1.050000     1.308131372    15.860250000    26.700490766   0   0   0 # obsk
   1121      1   1 -1.050000     4.215089978    15.860250000    17.553824099   0   0   0 # obsk
   1122      1   1 -1.050000     2.761610675    18.377750000    22.127157432   0   0   0 # obsk
   1123      1   2  1.575000     0.000000000    15.105000000    21.281090766   0   0   0 # feok
   1124      1   2  1.575000     2.906958605    15.105000000    25.854424099   0   0   0 # feok
   1125      1   2  1.575000     1.453479303    17.622500000    16.707757432   0   0   0 # feok
   1126      1   2  1.575000     0.000000000    15.105000000    18.399890766   0   0   0 # feok
   1127      1   2  1.575000     2.906958605    15.105000000    22.973224099   0   0   0 # feok
   1128      1   2  1.575000     1.453479303    17.622500000    27.546557432   0   0   0 # feok
   1129      1   2  1.575000     0.000000000    15.105000000    25.259890766   0   0   0 # feok
   1130      1   2  1.575000     2.906958605    15.105000000    29.833224099   0   0   0 # feok
   1131      1   2  1.575000     1.453479303    17.622500000    20.686557432   0   0   0 # feok
   1132      1   2  1.575000     0.000000000    15.105000000    28.141090766   0   0   0 # feok
   1133      1   2  1.575000     2.906958605    15.105000000    18.994424099   0   0   0 # feok
   1134      1   2  1.575000     1.453479303    17.622500000    23.567757432   0   0   0 # feok
   1135      1   1 -1.050000     5.668569280    11.832250000     6.120490766   0   0   0 # obsk
   1136      1   1 -1.050000     8.575527886    11.832250000    10.693824099   0   0   0 # obsk
   1137      1   1 -1.050000     7.122048583    14.349750000    15.267157432   0   0   0 # obsk
   1138      1   1 -1.050000     4.360437908    14.098000000     6.120490766   0   0   0 # obsk
   1139      1   1 -1.050000     7.267396513    14.098000000    10.693824099   0   0   0 # obsk
   1140      1   1 -1.050000     5.813917211    16.615500000    15.267157432   0   0   0 # obsk
   1141      1   1 -1.050000     7.412744444    14.349750000     6.120490766   0   0   0 # obsk
   1142      1   1 -1.050000     5.959265141    11.832250000    10.693824099   0   0   0 # obsk
   1143      1   1 -1.050000     4.505785838    14.349750000    15.267157432   0   0   0 # obsk
   1144      1   1 -1.050000     7.412744444    10.825250000    12.980490766   0   0   0 # obsk
   1145      1   1 -1.050000     5.959265141    13.342750000     3.833824099   0   0   0 # obsk
   1146      1   1 -1.050000     4.505785838    15.860250000     8.407157432   0   0   0 # obsk
   1147      1   1 -1.050000     4.360437908    16.112000000    12.980490766   0   0   0 # obsk
   1148      1   1 -1.050000     7.267396513    11.077000000     3.833824099   0   0   0 # obsk
   1149      1   1 -1.050000     5.813917211    13.594500000     8.407157432   0   0   0 # obsk
   1150      1   1 -1.050000     5.668569280    13.342750000    12.980490766   0   0   0 # obsk
   1151      1   1 -1.050000     8.575527886    13.342750000     3.833824099   0   0   0 # obsk
   1152      1   1 -1.050000     7.122048583    15.860250000     8.407157432   0   0   0 # obsk
   1153      1   2  1.575000     4.360437908    12.587500000     7.561090766   0   0   0 # feok
   1154      1   2  1.575000     7.267396513    12.587500000    12.134424099   0   0   0 # feok
   1155      1   2  1.575000     5.813917211    15.105000000     2.987757432   0   0   0 # feok
   1156      1   2  1.575000     4.360437908    12.587500000     4.679890766   0   0   0 # feok
   1157      1   2  1.575000     7.267396513    12.587500000     9.253224099   0   0   0 # feok
   1158      1   2  1.575000     5.813917211    15.105000000    13.826557432   0   0   0 # feok
   1159      1   2  1.575000     4.360437908    12.587500000    11.539890766   0   0   0 # feok
   1160      1   2  1.575000     7.267396513    12.587500000    16.113224099   0   0   0 # feok
   1161      1   2  1.575000     5.813917211    15.105000000     6.966557432   0   0   0 # feok
   1162      1   2  1.575000     4.360437908    12.587500000    14.421090766   0   0   0 # feok
   1163      1   2  1.575000     7.267396513    12.587500000     5.274424099   0   0   0 # feok
   1164      1   2  1.575000     5.813917211    15.105000000     9.847757432   0   0   0 # feok
   1165      1   1 -1.050000     5.668569280    11.832250000    19.840490766   0   0   0 # obsk
   1166      1   1 -1.050000     8.575527886    11.832250000    24.413824099   0   0   0 # obsk
   1167      1   1 -1.050000     7.122048583    14.349750000    28.987157432   0   0   0 # obsk
   1168      1   1 -1.050000     4.360437908    14.098000000    19.840490766   0   0   0 # obsk
   1169      1   1 -1.050000     7.267396513    14.098000000    24.413824099   0   0   0 # obsk
   1170      1   1 -1.129000     5.813917211    16.615500000    28.987157432   0   0   0 # obsk
   1171      1   1 -1.050000     7.412744444    14.349750000    19.840490766   0   0   0 # obsk
   1172      1   1 -1.050000     5.959265141    11.832250000    24.413824099   0   0   0 # obsk
   1173      1   1 -1.050000     4.505785838    14.349750000    28.987157432   0   0   0 # obsk
   1174      1   1 -1.050000     7.412744444    10.825250000    26.700490766   0   0   0 # obsk
   1175      1   1 -1.050000     5.959265141    13.342750000    17.553824099   0   0   0 # obsk
   1176      1   1 -1.050000     4.505785838    15.860250000    22.127157432   0   0   0 # obsk
   1177      1   1 -1.050000     4.360437908    16.112000000    26.700490766   0   0   0 # obsk
   1178      1   1 -1.050000     7.267396513    11.077000000    17.553824099   0   0   0 # obsk
   1179      1   1 -1.050000     5.813917211    13.594500000    22.127157432   0   0   0 # obsk
   1180      1   1 -1.050000     5.668569280    13.342750000    26.700490766   0   0   0 # obsk
   1181      1   1 -1.050000     8.575527886    13.342750000    17.553824099   0   0   0 # obsk
   1182      1   1 -1.050000     7.122048583    15.860250000    22.127157432   0   0   0 # obsk
   1183      1   2  1.575000     4.360437908    12.587500000    21.281090766   0   0   0 # feok
   1184      1   2  1.575000     7.267396513    12.587500000    25.854424099   0   0   0 # feok
   1185      1   2  1.575000     5.813917211    15.105000000    16.707757432   0   0   0 # feok
   1186      1   2  1.575000     4.360437908    12.587500000    18.399890766   0   0   0 # feok
   1187      1   2  1.575000     7.267396513    12.587500000    22.973224099   0   0   0 # feok
   1188      1   2  1.575000     5.813917211    15.105000000    27.546557432   0   0   0 # feok
   1189      1   2  1.575000     4.360437908    12.587500000    25.259890766   0   0   0 # feok
   1190      1   2  1.575000     7.267396513    12.587500000    29.833224099   0   0   0 # feok
   1191      1   2  1.575000     5.813917211    15.105000000    20.686557432   0   0   0 # feok
   1192      1   2  1.575000     4.360437908    12.587500000    28.141090766   0   0   0 # feok
   1193      1   2  1.575000     7.267396513    12.587500000    18.994424099   0   0   0 # feok
   1194      1   2  1.575000     5.813917211    15.105000000    23.567757432   0   0   0 # feok
   1195      1   1 -1.050000    10.029007189     9.314750000     6.120490766   0   0   0 # obsk
   1196      1   1 -1.050000    12.935965794     9.314750000    10.693824099   0   0   0 # obsk
   1197      1   1 -1.050000    11.482486491    11.832250000    15.267157432   0   0   0 # obsk
   1198      1   1 -1.050000     8.720875816    11.580500000     6.120490766   0   0   0 # obsk
   1199      1   1 -1.050000    11.627834421    11.580500000    10.693824099   0   0   0 # obsk
   1200      1   1 -1.050000    10.174355119    14.098000000    15.267157432   0   0   0 # obsk
   1201      1   1 -1.050000    11.773182352    11.832250000     6.120490766   0   0   0 # obsk
   1202      1   1 -1.050000    10.319703049     9.314750000    10.693824099   0   0   0 # obsk
   1203      1   1 -1.050000     8.866223746    11.832250000    15.267157432   0   0   0 # obsk
   1204      1   1 -1.050000    11.773182352     8.307750000    12.980490766   0   0   0 # obsk
   1205      1   1 -1.050000    10.319703049    10.825250000     3.833824099   0   0   0 # obsk
   1206      1   1 -1.050000     8.866223746    13.342750000     8.407157432   0   0   0 # obsk
   1207      1   1 -1.050000     8.720875816    13.594500000    12.980490766   0   0   0 # obsk
   1208      1   1 -1.050000    11.627834421     8.559500000     3.833824099   0   0   0 # obsk
   1209      1   1 -1.050000    10.174355119    11.077000000     8.407157432   0   0   0 # obsk
   1210      1   1 -1.050000    10.029007189    10.825250000    12.980490766   0   0   0 # obsk
   1211      1   1 -1.050000    12.935965794    10.825250000     3.833824099   0   0   0 # obsk
   1212      1   1 -1.050000    11.482486491    13.342750000     8.407157432   0   0   0 # obsk
   1213      1   2  1.575000     8.720875816    10.070000000     7.561090766   0   0   0 # feok
   1214      1   2  1.575000    11.627834421    10.070000000    12.134424099   0   0   0 # feok
   1215      1   2  1.575000    10.174355119    12.587500000     2.987757432   0   0   0 # feok
   1216      1   2  1.575000     8.720875816    10.070000000     4.679890766   0   0   0 # feok
   1217      1   2  1.575000    11.627834421    10.070000000     9.253224099   0   0   0 # feok
   1218      1   2  1.575000    10.174355119    12.587500000    13.826557432   0   0   0 # feok
   1219      1   2  1.575000     8.720875816    10.070000000    11.539890766   0   0   0 # feok
   1220      1   2  1.575000    11.627834421    10.070000000    16.113224099   0   0   0 # feok
   1221      1   2  1.575000    10.174355119    12.587500000     6.966557432   0   0   0 # feok
   1222      1   2  1.575000     8.720875816    10.070000000    14.421090766   0   0   0 # feok
   1223      1   2  1.575000    11.627834421    10.070000000     5.274424099   0   0   0 # feok
   1224      1   2  1.575000    10.174355119    12.587500000     9.847757432   0   0   0 # feok
   1225      1   1 -1.050000    10.029007189     9.314750000    19.840490766   0   0   0 # obsk
   1226      1   1 -1.050000    12.935965794     9.314750000    24.413824099   0   0   0 # obsk
   1227      1   1 -1.129000    11.482486491    11.832250000    28.987157432   0   0   0 # obsk
   1228      1   1 -1.050000     8.720875816    11.580500000    19.840490766   0   0   0 # obsk
   1229      1   1 -1.050000    11.627834421    11.580500000    24.413824099   0   0   0 # obsk
   1230      1   1 -1.050000    10.174355119    14.098000000    28.987157432   0   0   0 # obsk
   1231      1   1 -1.050000    11.773182352    11.832250000    19.840490766   0   0   0 # obsk
   1232      1   1 -1.050000    10.319703049     9.314750000    24.413824099   0   0   0 # obsk
   1233      1   1 -1.050000     8.866223746    11.832250000    28.987157432   0   0   0 # obsk
   1234      1   1 -1.050000    11.773182352     8.307750000    26.700490766   0   0   0 # obsk
   1235      1   1 -1.050000    10.319703049    10.825250000    17.553824099   0   0   0 # obsk
   1236      1   1 -1.050000     8.866223746    13.342750000    22.127157432   0   0   0 # obsk
   1237      1   1 -1.050000     8.720875816    13.594500000    26.700490766   0   0   0 # obsk
   1238      1   1 -1.050000    11.627834421     8.559500000    17.553824099   0   0   0 # obsk
   1239      1   1 -1.050000    10.174355119    11.077000000    22.127157432   0   0   0 # obsk
   1240      1   1 -1.050000    10.029007189    10.825250000    26.700490766   0   0   0 # obsk
   1241      1   1 -1.050000    12.935965794    10.825250000    17.553824099   0   0   0 # obsk
   1242      1   1 -1.050000    11.482486491    13.342750000    22.127157432   0   0   0 # obsk
   1243      1   2  1.575000     8.720875816    10.070000000    21.281090766   0   0   0 # feok
   1244      1   2  1.575000    11.627834421    10.070000000    25.854424099   0   0   0 # feok
   1245      1   2  1.575000    10.174355119    12.587500000    16.707757432   0   0   0 # feok
   1246      1   2  1.575000     8.720875816    10.070000000    18.399890766   0   0   0 # feok
   1247      1   2  1.575000    11.627834421    10.070000000    22.973224099   0   0   0 # feok
   1248      1   2  1.575000    10.174355119    12.587500000    27.546557432   0   0   0 # feok
   1249      1   2  1.575000     8.720875816    10.070000000    25.259890766   0   0   0 # feok
   1250      1   2  1.575000    10.174355119    12.587500000    20.686557432   0   0   0 # feok
   1251      1   2  1.575000     8.720875816    10.070000000    28.141090766   0   0   0 # feok
   1252      1   2  1.575000    11.627834421    10.070000000    18.994424099   0   0   0 # feok
   1253      1   2  1.575000    10.174355119    12.587500000    23.567757432   0   0   0 # feok
   1254      1   1 -1.050000    14.389445097     6.797250000     6.120490766   0   0   0 # obsk
   1255      1   1 -1.050000    17.296403702     6.797250000    10.693824099   0   0   0 # obsk
   1256      1   1 -1.050000    15.842924399     9.314750000    15.267157432   0   0   0 # obsk
   1257      1   1 -1.050000    13.081313724     9.063000000     6.120490766   0   0   0 # obsk
   1258      1   1 -1.050000    15.988272330     9.063000000    10.693824099   0   0   0 # obsk
   1259      1   1 -1.050000    14.534793027    11.580500000    15.267157432   0   0   0 # obsk
   1260      1   1 -1.050000    16.133620260     9.314750000     6.120490766   0   0   0 # obsk
   1261      1   1 -1.050000    14.680140957     6.797250000    10.693824099   0   0   0 # obsk
   1262      1   1 -1.050000    13.226661654     9.314750000    15.267157432   0   0   0 # obsk
   1263      1   1 -1.050000    16.133620260     5.790250000    12.980490766   0   0   0 # obsk
   1264      1   1 -1.050000    14.680140957     8.307750000     3.833824099   0   0   0 # obsk
   1265      1   1 -1.050000    13.226661654    10.825250000     8.407157432   0   0   0 # obsk
   1266      1   1 -1.050000    13.081313724    11.077000000    12.980490766   0   0   0 # obsk
   1267      1   1 -1.050000    15.988272330     6.042000000     3.833824099   0   0   0 # obsk
   1268      1   1 -1.050000    14.534793027     8.559500000     8.407157432   0   0   0 # obsk
   1269      1   1 -1.050000    14.389445097     8.307750000    12.980490766   0   0   0 # obsk
   1270      1   1 -1.050000    17.296403702     8.307750000     3.833824099   0   0   0 # obsk
   1271      1   1 -1.050000    15.842924399    10.825250000     8.407157432   0   0   0 # obsk
   1272      1   2  1.575000    13.081313724     7.552500000     7.561090766   0   0   0 # feok
   1273      1   2  1.575000    15.988272330     7.552500000    12.134424099   0   0   0 # feok
   1274      1   2  1.575000    14.534793027    10.070000000     2.987757432   0   0   0 # feok
   1275      1   2  1.575000    13.081313724     7.552500000     4.679890766   0   0   0 # feok
   1276      1   2  1.575000    15.988272330     7.552500000     9.253224099   0   0   0 # feok
   1277      1   2  1.575000    14.534793027    10.070000000    13.826557432   0   0   0 # feok
   1278      1   2  1.575000    13.081313724     7.552500000    11.539890766   0   0   0 # feok
   1279      1   2  1.575000    15.988272330     7.552500000    16.113224099   0   0   0 # feok
   1280      1   2  1.575000    14.534793027    10.070000000     6.966557432   0   0   0 # feok
   1281      1   2  1.575000    13.081313724     7.552500000    14.421090766   0   0   0 # feok
   1282      1   2  1.575000    15.988272330     7.552500000     5.274424099   0   0   0 # feok
   1283      1   2  1.575000    14.534793027    10.070000000     9.847757432   0   0   0 # feok
   1284      1   1 -1.050000    14.389445097     6.797250000    19.840490766   0   0   0 # obsk
   1285      1   1 -1.050000    17.296403702     6.797250000    24.413824099   0   0   0 # obsk
   1286      1   1 -1.050000    15.842924399     9.314750000    28.987157432   0   0   0 # obsk
   1287      1   1 -1.050000    13.081313724     9.063000000    19.840490766   0   0   0 # obsk
   1288      1   1 -1.050000    15.988272330     9.063000000    24.413824099   0   0   0 # obsk
   1289      1   1 -1.050000    14.534793027    11.580500000    28.987157432   0   0   0 # obsk
   1290      1   1 -1.050000    16.133620260     9.314750000    19.840490766   0   0   0 # obsk
   1291      1   1 -1.050000    14.680140957     6.797250000    24.413824099   0   0   0 # obsk
   1292      1   1 -1.129000    13.226661654     9.314750000    28.987157432   0   0   0 # obsk
   1293      1   1 -1.050000    16.133620260     5.790250000    26.700490766   0   0   0 # obsk
   1294      1   1 -1.050000    14.680140957     8.307750000    17.553824099   0   0   0 # obsk
   1295      1   1 -1.050000    13.226661654    10.825250000    22.127157432   0   0   0 # obsk
   1296      1   1 -1.050000    13.081313724    11.077000000    26.700490766   0   0   0 # obsk
   1297      1   1 -1.050000    15.988272330     6.042000000    17.553824099   0   0   0 # obsk
   1298      1   1 -1.050000    14.534793027     8.559500000    22.127157432   0   0   0 # obsk
   1299      1   1 -1.050000    14.389445097     8.307750000    26.700490766   0   0   0 # obsk
   1300      1   1 -1.050000    17.296403702     8.307750000    17.553824099   0   0   0 # obsk
   1301      1   1 -1.050000    15.842924399    10.825250000    22.127157432   0   0   0 # obsk
   1302      1   2  1.575000    13.081313724     7.552500000    21.281090766   0   0   0 # feok
   1303      1   2  1.575000    15.988272330     7.552500000    25.854424099   0   0   0 # feok
   1304      1   2  1.575000    14.534793027    10.070000000    16.707757432   0   0   0 # feok
   1305      1   2  1.575000    13.081313724     7.552500000    18.399890766   0   0   0 # feok
   1306      1   2  1.575000    15.988272330     7.552500000    22.973224099   0   0   0 # feok
   1307      1   2  1.575000    14.534793027    10.070000000    27.546557432   0   0   0 # feok
   1308      1   2  1.575000    13.081313724     7.552500000    25.259890766   0   0   0 # feok
   1309      1   2  1.575000    15.988272330     7.552500000    29.833224099   0   0   0 # feok
   1310      1   2  1.575000    14.534793027    10.070000000    20.686557432   0   0   0 # feok
   1311      1   2  1.575000    13.081313724     7.552500000    28.141090766   0   0   0 # feok
   1312      1   2  1.575000    15.988272330     7.552500000    18.994424099   0   0   0 # feok
   1313      1   2  1.575000    14.534793027    10.070000000    23.567757432   0   0   0 # feok
   1314      1   1 -1.050000    18.749883005     4.279750000     6.120490766   0   0   0 # obsk
   1315      1   1 -1.050000    21.656841610     4.279750000    10.693824099   0   0   0 # obsk
   1316      1   1 -1.050000    20.203362307     6.797250000    15.267157432   0   0   0 # obsk
   1317      1   1 -1.050000    17.441751632     6.545500000     6.120490766   0   0   0 # obsk
   1318      1   1 -1.050000    20.348710238     6.545500000    10.693824099   0   0   0 # obsk
   1319      1   1 -1.050000    18.895230935     9.063000000    15.267157432   0   0   0 # obsk
   1320      1   1 -1.050000    20.494058168     6.797250000     6.120490766   0   0   0 # obsk
   1321      1   1 -1.050000    19.040578865     4.279750000    10.693824099   0   0   0 # obsk
   1322      1   1 -1.050000    17.587099562     6.797250000    15.267157432   0   0   0 # obsk
   1323      1   1 -1.050000    20.494058168     3.272750000    12.980490766   0   0   0 # obsk
   1324      1   1 -1.050000    19.040578865     5.790250000     3.833824099   0   0   0 # obsk
   1325      1   1 -1.050000    17.587099562     8.307750000     8.407157432   0   0   0 # obsk
   1326      1   1 -1.050000    17.441751632     8.559500000    12.980490766   0   0   0 # obsk
   1327      1   1 -1.050000    20.348710238     3.524500000     3.833824099   0   0   0 # obsk
   1328      1   1 -1.050000    18.895230935     6.042000000     8.407157432   0   0   0 # obsk
   1329      1   1 -1.050000    18.749883005     5.790250000    12.980490766   0   0   0 # obsk
   1330      1   1 -1.050000    21.656841610     5.790250000     3.833824099   0   0   0 # obsk
   1331      1   1 -1.050000    20.203362307     8.307750000     8.407157432   0   0   0 # obsk
   1332      1   2  1.575000    17.441751632     5.035000000     7.561090766   0   0   0 # feok
   1333      1   2  1.575000    20.348710238     5.035000000    12.134424099   0   0   0 # feok
   1334      1   2  1.575000    18.895230935     7.552500000     2.987757432   0   0   0 # feok
   1335      1   2  1.575000    17.441751632     5.035000000     4.679890766   0   0   0 # feok
   1336      1   2  1.575000    20.348710238     5.035000000     9.253224099   0   0   0 # feok
   1337      1   2  1.575000    18.895230935     7.552500000    13.826557432   0   0   0 # feok
   1338      1   2  1.575000    17.441751632     5.035000000    11.539890766   0   0   0 # feok
   1339      1   2  1.575000    20.348710238     5.035000000    16.113224099   0   0   0 # feok
   1340      1   2  1.575000    18.895230935     7.552500000     6.966557432   0   0   0 # feok
   1341      1   2  1.575000    17.441751632     5.035000000    14.421090766   0   0   0 # feok
   1342      1   2  1.575000    20.348710238     5.035000000     5.274424099   0   0   0 # feok
   1343      1   2  1.575000    18.895230935     7.552500000     9.847757432   0   0   0 # feok
   1344      1   1 -1.050000    18.749883005     4.279750000    19.840490766   0   0   0 # obsk
   1345      1   1 -1.050000    21.656841610     4.279750000    24.413824099   0   0   0 # obsk
   1346      1   1 -1.050000    20.203362307     6.797250000    28.987157432   0   0   0 # obsk
   1347      1   1 -1.050000    17.441751632     6.545500000    19.840490766   0   0   0 # obsk
   1348      1   1 -1.050000    20.348710238     6.545500000    24.413824099   0   0   0 # obsk
   1349      1   1 -1.129000    18.895230935     9.063000000    28.987157432   0   0   0 # obsk
   1350      1   1 -1.050000    20.494058168     6.797250000    19.840490766   0   0   0 # obsk
   1351      1   1 -1.050000    19.040578865     4.279750000    24.413824099   0   0   0 # obsk
   1352      1   1 -1.050000    17.587099562     6.797250000    28.987157432   0   0   0 # obsk
   1353      1   1 -1.050000    20.494058168     3.272750000    26.700490766   0   0   0 # obsk
   1354      1   1 -1.050000    19.040578865     5.790250000    17.553824099   0   0   0 # obsk
   1355      1   1 -1.050000    17.587099562     8.307750000    22.127157432   0   0   0 # obsk
   1356      1   1 -1.050000    17.441751632     8.559500000    26.700490766   0   0   0 # obsk
   1357      1   1 -1.050000    20.348710238     3.524500000    17.553824099   0   0   0 # obsk
   1358      1   1 -1.050000    18.895230935     6.042000000    22.127157432   0   0   0 # obsk
   1359      1   1 -1.050000    18.749883005     5.790250000    26.700490766   0   0   0 # obsk
   1360      1   1 -1.050000    21.656841610     5.790250000    17.553824099   0   0   0 # obsk
   1361      1   1 -1.050000    20.203362307     8.307750000    22.127157432   0   0   0 # obsk
   1362      1   2  1.575000    17.441751632     5.035000000    21.281090766   0   0   0 # feok
   1363      1   2  1.575000    20.348710238     5.035000000    25.854424099   0   0   0 # feok
   1364      1   2  1.575000    18.895230935     7.552500000    16.707757432   0   0   0 # feok
   1365      1   2  1.575000    17.441751632     5.035000000    18.399890766   0   0   0 # feok
   1366      1   2  1.575000    20.348710238     5.035000000    22.973224099   0   0   0 # feok
   1367      1   2  1.575000    18.895230935     7.552500000    27.546557432   0   0   0 # feok
   1368      1   2  1.575000    17.441751632     5.035000000    25.259890766   0   0   0 # feok
   1369      1   2  1.575000    20.348710238     5.035000000    29.833224099   0   0   0 # feok
   1370      1   2  1.575000    18.895230935     7.552500000    20.686557432   0   0   0 # feok
   1371      1   2  1.575000    17.441751632     5.035000000    28.141090766   0   0   0 # feok
   1372      1   2  1.575000    20.348710238     5.035000000    18.994424099   0   0   0 # feok
   1373      1   2  1.575000    18.895230935     7.552500000    23.567757432   0   0   0 # feok
   1374      1   1 -1.050000    23.110320913     1.762250000     6.120490766   0   0   0 # obsk
   1375      1   1 -1.050000    -0.144620482     1.762250000    10.693824099   1   0   0 # obsk
   1376      1   1 -1.050000    24.563800215     4.279750000    15.267157432   0   0   0 # obsk
   1377      1   1 -1.050000    21.802189540     4.028000000     6.120490766   0   0   0 # obsk
   1378      1   1 -1.050000    24.709148146     4.028000000    10.693824099   0   0   0 # obsk
   1379      1   1 -1.050000    23.255668843     6.545500000    15.267157432   0   0   0 # obsk
   1380      1   1 -1.050000    24.854496076     4.279750000     6.120490766   0   0   0 # obsk
   1381      1   1 -1.050000    23.401016773     1.762250000    10.693824099   0   0   0 # obsk
   1382      1   1 -1.050000    21.947537471     4.279750000    15.267157432   0   0   0 # obsk
   1383      1   1 -1.050000    24.854496076     0.755250000    12.980490766   0   0   0 # obsk
   1384      1   1 -1.050000    23.401016773     3.272750000     3.833824099   0   0   0 # obsk
   1385      1   1 -1.050000    21.947537471     5.790250000     8.407157432   0   0   0 # obsk
   1386      1   1 -1.050000    21.802189540     6.042000000    12.980490766   0   0   0 # obsk
   1387      1   1 -1.050000    24.709148146     1.007000000     3.833824099   0   0   0 # obsk
   1388      1   1 -1.050000    23.255668843     3.524500000     8.407157432   0   0   0 # obsk
   1389      1   1 -1.050000    23.110320913     3.272750000    12.980490766   0   0   0 # obsk
   1390      1   1 -1.050000    -0.144620482     3.272750000     3.833824099   1   0   0 # obsk
   1391      1   1 -1.050000    24.563800215     5.790250000     8.407157432   0   0   0 # obsk
   1392      1   2  1.575000    21.802189540     2.517500000     7.561090766   0   0   0 # feok
   1393      1   2  1.575000    24.709148146     2.517500000    12.134424099   0   0   0 # feok
   1394      1   2  1.575000    23.255668843     5.035000000     2.987757432   0   0   0 # feok
   1395      1   2  1.575000    21.802189540     2.517500000     4.679890766   0   0   0 # feok
   1396      1   2  1.575000    24.709148146     2.517500000     9.253224099   0   0   0 # feok
   1397      1   2  1.575000    23.255668843     5.035000000    13.826557432   0   0   0 # feok
   1398      1   2  1.575000    21.802189540     2.517500000    11.539890766   0   0   0 # feok
   1399      1   2  1.575000    24.709148146     2.517500000    16.113224099   0   0   0 # feok
   1400      1   2  1.575000    23.255668843     5.035000000     6.966557432   0   0   0 # feok
   1401      1   2  1.575000    21.802189540     2.517500000    14.421090766   0   0   0 # feok
   1402      1   2  1.575000    24.709148146     2.517500000     5.274424099   0   0   0 # feok
   1403      1   2  1.575000    23.255668843     5.035000000     9.847757432   0   0   0 # feok
   1404      1   1 -1.050000    23.110320913     1.762250000    19.840490766   0   0   0 # obsk
   1405      1   1 -1.050000    -0.144620482     1.762250000    24.413824099   1   0   0 # obsk
   1406      1   1 -1.050000    24.563800215     4.279750000    28.987157432   0   0   0 # obsk
   1407      1   1 -1.050000    21.802189540     4.028000000    19.840490766   0   0   0 # obsk
   1408      1   1 -1.050000    24.709148146     4.028000000    24.413824099   0   0   0 # obsk
   1409      1   1 -1.050000    23.255668843     6.545500000    28.987157432   0   0   0 # obsk
   1410      1   1 -1.050000    24.854496076     4.279750000    19.840490766   0   0   0 # obsk
   1411      1   1 -1.050000    23.401016773     1.762250000    24.413824099   0   0   0 # obsk
   1412      1   1 -1.050000    21.947537471     4.279750000    28.987157432   0   0   0 # obsk
   1413      1   1 -1.050000    24.854496076     0.755250000    26.700490766   0   0   0 # obsk
   1414      1   1 -1.050000    23.401016773     3.272750000    17.553824099   0   0   0 # obsk
   1415      1   1 -1.050000    21.947537471     5.790250000    22.127157432   0   0   0 # obsk
   1416      1   1 -1.050000    21.802189540     6.042000000    26.700490766   0   0   0 # obsk
   1417      1   1 -1.050000    24.709148146     1.007000000    17.553824099   0   0   0 # obsk
   1418      1   1 -1.050000    23.255668843     3.524500000    22.127157432   0   0   0 # obsk
   1419      1   1 -1.050000    23.110320913     3.272750000    26.700490766   0   0   0 # obsk
   1420      1   1 -1.050000    -0.144620482     3.272750000    17.553824099   1   0   0 # obsk
   1421      1   1 -1.050000    24.563800215     5.790250000    22.127157432   0   0   0 # obsk
   1422      1   2  1.575000    21.802189540     2.517500000    21.281090766   0   0   0 # feok
   1423      1   2  1.575000    24.709148146     2.517500000    25.854424099   0   0   0 # feok
   1424      1   2  1.575000    23.255668843     5.035000000    16.707757432   0   0   0 # feok
   1425      1   2  1.575000    21.802189540     2.517500000    18.399890766   0   0   0 # feok
   1426      1   2  1.575000    24.709148146     2.517500000    22.973224099   0   0   0 # feok
   1427      1   2  1.575000    23.255668843     5.035000000    27.546557432   0   0   0 # feok
   1428      1   2  1.575000    21.802189540     2.517500000    25.259890766   0   0   0 # feok
   1429      1   2  1.575000    24.709148146     2.517500000    29.833224099   0   0   0 # feok
   1430      1   2  1.575000    23.255668843     5.035000000    20.686557432   0   0   0 # feok
   1431      1   2  1.575000    21.802189540     2.517500000    28.141090766   0   0   0 # feok
   1432      1   2  1.575000    24.709148146     2.517500000    18.994424099   0   0   0 # feok
   1433      1   2  1.575000    23.255668843     5.035000000    23.567757432   0   0   0 # feok
   1434      1   1 -1.050000     1.308131372    19.384750000     6.120490766   0   0   0 # obsk
   1435      1   1 -1.050000     4.215089978    19.384750000    10.693824099   0   0   0 # obsk
   1436      1   1 -1.050000     2.761610675    21.902250000    15.267157432   0   0   0 # obsk
   1437      1   1 -1.050000     0.000000000    21.650500000     6.120490766   0   0   0 # obsk
   1438      1   1 -1.050000     2.906958605    21.650500000    10.693824099   0   0   0 # obsk
   1439      1   1 -1.050000     1.453479303    24.168000000    15.267157432   0   0   0 # obsk
   1440      1   1 -1.050000     3.052306536    21.902250000     6.120490766   0   0   0 # obsk
   1441      1   1 -1.050000     1.598827233    19.384750000    10.693824099   0   0   0 # obsk
   1442      1   1 -1.050000     0.145347930    21.902250000    15.267157432   0   0   0 # obsk
   1443      1   1 -1.050000     3.052306536    18.377750000    12.980490766   0   0   0 # obsk
   1444      1   1 -1.050000     1.598827233    20.895250000     3.833824099   0   0   0 # obsk
   1445      1   1 -1.050000     0.145347930    23.412750000     8.407157432   0   0   0 # obsk
   1446      1   1 -1.050000     0.000000000    23.664500000    12.980490766   0   0   0 # obsk
   1447      1   1 -1.050000     2.906958605    18.629500000     3.833824099   0   0   0 # obsk
   1448      1   1 -1.050000     1.453479303    21.147000000     8.407157432   0   0   0 # obsk
   1449      1   1 -1.050000     1.308131372    20.895250000    12.980490766   0   0   0 # obsk
   1450      1   1 -1.050000     4.215089978    20.895250000     3.833824099   0   0   0 # obsk
   1451      1   1 -1.050000     2.761610675    23.412750000     8.407157432   0   0   0 # obsk
   1452      1   2  1.575000     0.000000000    20.140000000     7.561090766   0   0   0 # feok
   1453      1   2  1.575000     2.906958605    20.140000000    12.134424099   0   0   0 # feok
   1454      1   2  1.575000     1.453479303    22.657500000     2.987757432   0   0   0 # feok
   1455      1   2  1.575000     0.000000000    20.140000000     4.679890766   0   0   0 # feok
   1456      1   2  1.575000     2.906958605    20.140000000     9.253224099   0   0   0 # feok
   1457      1   2  1.575000     1.453479303    22.657500000    13.826557432   0   0   0 # feok
   1458      1   2  1.575000     0.000000000    20.140000000    11.539890766   0   0   0 # feok
   1459      1   2  1.575000     2.906958605    20.140000000    16.113224099   0   0   0 # feok
   1460      1   2  1.575000     1.453479303    22.657500000     6.966557432   0   0   0 # feok
   1461      1   2  1.575000     0.000000000    20.140000000    14.421090766   0   0   0 # feok
   1462      1   2  1.575000     2.906958605    20.140000000     5.274424099   0   0   0 # feok
   1463      1   2  1.575000     1.453479303    22.657500000     9.847757432   0   0   0 # feok
   1464      1   1 -1.050000     1.308131372    19.384750000    19.840490766   0   0   0 # obsk
   1465      1   1 -1.050000     4.215089978    19.384750000    24.413824099   0   0   0 # obsk
   1466      1   1 -1.050000     2.761610675    21.902250000    28.987157432   0   0   0 # obsk
   1467      1   1 -1.050000     0.000000000    21.650500000    19.840490766   0   0   0 # obsk
   1468      1   1 -1.050000     2.906958605    21.650500000    24.413824099   0   0   0 # obsk
   1469      1   1 -1.050000     1.453479303    24.168000000    28.987157432   0   0   0 # obsk
   1470      1   1 -1.050000     3.052306536    21.902250000    19.840490766   0   0   0 # obsk
   1471      1   1 -1.050000     1.598827233    19.384750000    24.413824099   0   0   0 # obsk
   1472      1   1 -1.050000     0.145347930    21.902250000    28.987157432   0   0   0 # obsk
   1473      1   1 -1.050000     3.052306536    18.377750000    26.700490766   0   0   0 # obsk
   1474      1   1 -1.050000     1.598827233    20.895250000    17.553824099   0   0   0 # obsk
   1475      1   1 -1.050000     0.145347930    23.412750000    22.127157432   0   0   0 # obsk
   1476      1   1 -1.050000     0.000000000    23.664500000    26.700490766   0   0   0 # obsk
   1477      1   1 -1.050000     2.906958605    18.629500000    17.553824099   0   0   0 # obsk
   1478      1   1 -1.050000     1.453479303    21.147000000    22.127157432   0   0   0 # obsk
   1479      1   1 -1.050000     1.308131372    20.895250000    26.700490766   0   0   0 # obsk
   1480      1   1 -1.050000     4.215089978    20.895250000    17.553824099   0   0   0 # obsk
   1481      1   1 -1.050000     2.761610675    23.412750000    22.127157432   0   0   0 # obsk
   1482      1   2  1.575000     0.000000000    20.140000000    21.281090766   0   0   0 # feok
   1483      1   2  1.575000     2.906958605    20.140000000    25.854424099   0   0   0 # feok
   1484      1   2  1.575000     1.453479303    22.657500000    16.707757432   0   0   0 # feok
   1485      1   2  1.575000     0.000000000    20.140000000    18.399890766   0   0   0 # feok
   1486      1   2  1.575000     2.906958605    20.140000000    22.973224099   0   0   0 # feok
   1487      1   2  1.575000     1.453479303    22.657500000    27.546557432   0   0   0 # feok
   1488      1   2  1.575000     0.000000000    20.140000000    25.259890766   0   0   0 # feok
   1489      1   2  1.575000     2.906958605    20.140000000    29.833224099   0   0   0 # feok
   1490      1   2  1.575000     1.453479303    22.657500000    20.686557432   0   0   0 # feok
   1491      1   2  1.575000     0.000000000    20.140000000    28.141090766   0   0   0 # feok
   1492      1   2  1.575000     2.906958605    20.140000000    18.994424099   0   0   0 # feok
   1493      1   2  1.575000     1.453479303    22.657500000    23.567757432   0   0   0 # feok
   1494      1   1 -1.050000     5.668569280    16.867250000     6.120490766   0   0   0 # obsk
   1495      1   1 -1.050000     8.575527886    16.867250000    10.693824099   0   0   0 # obsk
   1496      1   1 -1.050000     7.122048583    19.384750000    15.267157432   0   0   0 # obsk
   1497      1   1 -1.050000     4.360437908    19.133000000     6.120490766   0   0   0 # obsk
   1498      1   1 -1.050000     7.267396513    19.133000000    10.693824099   0   0   0 # obsk
   1499      1   1 -1.050000     5.813917211    21.650500000    15.267157432   0   0   0 # obsk
   1500      1   1 -1.050000     7.412744444    19.384750000     6.120490766   0   0   0 # obsk
   1501      1   1 -1.050000     5.959265141    16.867250000    10.693824099   0   0   0 # obsk
   1502      1   1 -1.050000     4.505785838    19.384750000    15.267157432   0   0   0 # obsk
   1503      1   1 -1.050000     7.412744444    15.860250000    12.980490766   0   0   0 # obsk
   1504      1   1 -1.050000     5.959265141    18.377750000     3.833824099   0   0   0 # obsk
   1505      1   1 -1.050000     4.505785838    20.895250000     8.407157432   0   0   0 # obsk
   1506      1   1 -1.050000     4.360437908    21.147000000    12.980490766   0   0   0 # obsk
   1507      1   1 -1.050000     7.267396513    16.112000000     3.833824099   0   0   0 # obsk
   1508      1   1 -1.050000     5.813917211    18.629500000     8.407157432   0   0   0 # obsk
   1509      1   1 -1.050000     5.668569280    18.377750000    12.980490766   0   0   0 # obsk
   1510      1   1 -1.050000     8.575527886    18.377750000     3.833824099   0   0   0 # obsk
   1511      1   1 -1.050000     7.122048583    20.895250000     8.407157432   0   0   0 # obsk
   1512      1   2  1.575000     4.360437908    17.622500000     7.561090766   0   0   0 # feok
   1513      1   2  1.575000     7.267396513    17.622500000    12.134424099   0   0   0 # feok
   1514      1   2  1.575000     5.813917211    20.140000000     2.987757432   0   0   0 # feok
   1515      1   2  1.575000     4.360437908    17.622500000     4.679890766   0   0   0 # feok
   1516      1   2  1.575000     7.267396513    17.622500000     9.253224099   0   0   0 # feok
   1517      1   2  1.575000     5.813917211    20.140000000    13.826557432   0   0   0 # feok
   1518      1   2  1.575000     4.360437908    17.622500000    11.539890766   0   0   0 # feok
   1519      1   2  1.575000     7.267396513    17.622500000    16.113224099   0   0   0 # feok
   1520      1   2  1.575000     5.813917211    20.140000000     6.966557432   0   0   0 # feok
   1521      1   2  1.575000     4.360437908    17.622500000    14.421090766   0   0   0 # feok
   1522      1   2  1.575000     7.267396513    17.622500000     5.274424099   0   0   0 # feok
   1523      1   2  1.575000     5.813917211    20.140000000     9.847757432   0   0   0 # feok
   1524      1   1 -1.050000     5.668569280    16.867250000    19.840490766   0   0   0 # obsk
   1525      1   1 -1.050000     8.575527886    16.867250000    24.413824099   0   0   0 # obsk
   1526      1   1 -1.129000     7.122048583    19.384750000    28.987157432   0   0   0 # obsk
   1527      1   1 -1.050000     4.360437908    19.133000000    19.840490766   0   0   0 # obsk
   1528      1   1 -1.050000     7.267396513    19.133000000    24.413824099   0   0   0 # obsk
   1529      1   1 -1.050000     5.813917211    21.650500000    28.987157432   0   0   0 # obsk
   1530      1   1 -1.050000     7.412744444    19.384750000    19.840490766   0   0   0 # obsk
   1531      1   1 -1.050000     5.959265141    16.867250000    24.413824099   0   0   0 # obsk
   1532      1   1 -1.050000     4.505785838    19.384750000    28.987157432   0   0   0 # obsk
   1533      1   1 -1.050000     7.412744444    15.860250000    26.700490766   0   0   0 # obsk
   1534      1   1 -1.050000     5.959265141    18.377750000    17.553824099   0   0   0 # obsk
   1535      1   1 -1.050000     4.505785838    20.895250000    22.127157432   0   0   0 # obsk
   1536      1   1 -1.050000     4.360437908    21.147000000    26.700490766   0   0   0 # obsk
   1537      1   1 -1.050000     7.267396513    16.112000000    17.553824099   0   0   0 # obsk
   1538      1   1 -1.050000     5.813917211    18.629500000    22.127157432   0   0   0 # obsk
   1539      1   1 -1.050000     5.668569280    18.377750000    26.700490766   0   0   0 # obsk
   1540      1   1 -1.050000     8.575527886    18.377750000    17.553824099   0   0   0 # obsk
   1541      1   1 -1.050000     7.122048583    20.895250000    22.127157432   0   0   0 # obsk
   1542      1   2  1.575000     4.360437908    17.622500000    21.281090766   0   0   0 # feok
   1543      1   2  1.575000     7.267396513    17.622500000    25.854424099   0   0   0 # feok
   1544      1   2  1.575000     5.813917211    20.140000000    16.707757432   0   0   0 # feok
   1545      1   2  1.575000     4.360437908    17.622500000    18.399890766   0   0   0 # feok
   1546      1   2  1.575000     7.267396513    17.622500000    22.973224099   0   0   0 # feok
   1547      1   2  1.575000     5.813917211    20.140000000    27.546557432   0   0   0 # feok
   1548      1   2  1.575000     4.360437908    17.622500000    25.259890766   0   0   0 # feok
   1549      1   2  1.575000     5.813917211    20.140000000    20.686557432   0   0   0 # feok
   1550      1   2  1.575000     4.360437908    17.622500000    28.141090766   0   0   0 # feok
   1551      1   2  1.575000     7.267396513    17.622500000    18.994424099   0   0   0 # feok
   1552      1   2  1.575000     5.813917211    20.140000000    23.567757432   0   0   0 # feok
   1553      1   1 -1.050000    10.029007189    14.349750000     6.120490766   0   0   0 # obsk
   1554      1   1 -1.050000    12.935965794    14.349750000    10.693824099   0   0   0 # obsk
   1555      1   1 -1.050000    11.482486491    16.867250000    15.267157432   0   0   0 # obsk
   1556      1   1 -1.050000     8.720875816    16.615500000     6.120490766   0   0   0 # obsk
   1557      1   1 -1.050000    11.627834421    16.615500000    10.693824099   0   0   0 # obsk
   1558      1   1 -1.050000    10.174355119    19.133000000    15.267157432   0   0   0 # obsk
   1559      1   1 -1.050000    11.773182352    16.867250000     6.120490766   0   0   0 # obsk
   1560      1   1 -1.050000    10.319703049    14.349750000    10.693824099   0   0   0 # obsk
   1561      1   1 -1.050000     8.866223746    16.867250000    15.267157432   0   0   0 # obsk
   1562      1   1 -1.050000    11.773182352    13.342750000    12.980490766   0   0   0 # obsk
   1563      1   1 -1.050000    10.319703049    15.860250000     3.833824099   0   0   0 # obsk
   1564      1   1 -1.050000     8.866223746    18.377750000     8.407157432   0   0   0 # obsk
   1565      1   1 -1.050000     8.720875816    18.629500000    12.980490766   0   0   0 # obsk
   1566      1   1 -1.050000    11.627834421    13.594500000     3.833824099   0   0   0 # obsk
   1567      1   1 -1.050000    10.174355119    16.112000000     8.407157432   0   0   0 # obsk
   1568      1   1 -1.050000    10.029007189    15.860250000    12.980490766   0   0   0 # obsk
   1569      1   1 -1.050000    12.935965794    15.860250000     3.833824099   0   0   0 # obsk
   1570      1   1 -1.050000    11.482486491    18.377750000     8.407157432   0   0   0 # obsk
   1571      1   2  1.575000     8.720875816    15.105000000     7.561090766   0   0   0 # feok
   1572      1   2  1.575000    11.627834421    15.105000000    12.134424099   0   0   0 # feok
   1573      1   2  1.575000    10.174355119    17.622500000     2.987757432   0   0   0 # feok
   1574      1   2  1.575000     8.720875816    15.105000000     4.679890766   0   0   0 # feok
   1575      1   2  1.575000    11.627834421    15.105000000     9.253224099   0   0   0 # feok
   1576      1   2  1.575000    10.174355119    17.622500000    13.826557432   0   0   0 # feok
   1577      1   2  1.575000     8.720875816    15.105000000    11.539890766   0   0   0 # feok
   1578      1   2  1.575000    11.627834421    15.105000000    16.113224099   0   0   0 # feok
   1579      1   2  1.575000    10.174355119    17.622500000     6.966557432   0   0   0 # feok
   1580      1   2  1.575000     8.720875816    15.105000000    14.421090766   0   0   0 # feok
   1581      1   2  1.575000    11.627834421    15.105000000     5.274424099   0   0   0 # feok
   1582      1   2  1.575000    10.174355119    17.622500000     9.847757432   0   0   0 # feok
   1583      1   1 -1.050000    10.029007189    14.349750000    19.840490766   0   0   0 # obsk
   1584      1   1 -1.050000    12.935965794    14.349750000    24.413824099   0   0   0 # obsk
   1585      1   1 -1.050000    11.482486491    16.867250000    28.987157432   0   0   0 # obsk
   1586      1   1 -1.050000     8.720875816    16.615500000    19.840490766   0   0   0 # obsk
   1587      1   1 -1.050000    11.627834421    16.615500000    24.413824099   0   0   0 # obsk
   1588      1   1 -1.050000    10.174355119    19.133000000    28.987157432   0   0   0 # obsk
   1589      1   1 -1.050000    11.773182352    16.867250000    19.840490766   0   0   0 # obsk
   1590      1   1 -1.050000    10.319703049    14.349750000    24.413824099   0   0   0 # obsk
   1591      1   1 -1.129000     8.866223746    16.867250000    28.987157432   0   0   0 # obsk
   1592      1   1 -1.050000    11.773182352    13.342750000    26.700490766   0   0   0 # obsk
   1593      1   1 -1.050000    10.319703049    15.860250000    17.553824099   0   0   0 # obsk
   1594      1   1 -1.050000     8.866223746    18.377750000    22.127157432   0   0   0 # obsk
   1595      1   1 -1.050000     8.720875816    18.629500000    26.700490766   0   0   0 # obsk
   1596      1   1 -1.050000    11.627834421    13.594500000    17.553824099   0   0   0 # obsk
   1597      1   1 -1.050000    10.174355119    16.112000000    22.127157432   0   0   0 # obsk
   1598      1   1 -1.050000    10.029007189    15.860250000    26.700490766   0   0   0 # obsk
   1599      1   1 -1.050000    12.935965794    15.860250000    17.553824099   0   0   0 # obsk
   1600      1   1 -1.050000    11.482486491    18.377750000    22.127157432   0   0   0 # obsk
   1601      1   2  1.575000     8.720875816    15.105000000    21.281090766   0   0   0 # feok
   1602      1   2  1.575000    11.627834421    15.105000000    25.854424099   0   0   0 # feok
   1603      1   2  1.575000    10.174355119    17.622500000    16.707757432   0   0   0 # feok
   1604      1   2  1.575000     8.720875816    15.105000000    18.399890766   0   0   0 # feok
   1605      1   2  1.575000    11.627834421    15.105000000    22.973224099   0   0   0 # feok
   1606      1   2  1.575000    10.174355119    17.622500000    27.546557432   0   0   0 # feok
   1607      1   2  1.575000     8.720875816    15.105000000    25.259890766   0   0   0 # feok
   1608      1   2  1.575000    11.627834421    15.105000000    29.833224099   0   0   0 # feok
   1609      1   2  1.575000    10.174355119    17.622500000    20.686557432   0   0   0 # feok
   1610      1   2  1.575000     8.720875816    15.105000000    28.141090766   0   0   0 # feok
   1611      1   2  1.575000    11.627834421    15.105000000    18.994424099   0   0   0 # feok
   1612      1   2  1.575000    10.174355119    17.622500000    23.567757432   0   0   0 # feok
   1613      1   1 -1.050000    14.389445097    11.832250000     6.120490766   0   0   0 # obsk
   1614      1   1 -1.050000    17.296403702    11.832250000    10.693824099   0   0   0 # obsk
   1615      1   1 -1.050000    15.842924399    14.349750000    15.267157432   0   0   0 # obsk
   1616      1   1 -1.050000    13.081313724    14.098000000     6.120490766   0   0   0 # obsk
   1617      1   1 -1.050000    15.988272330    14.098000000    10.693824099   0   0   0 # obsk
   1618      1   1 -1.050000    14.534793027    16.615500000    15.267157432   0   0   0 # obsk
   1619      1   1 -1.050000    16.133620260    14.349750000     6.120490766   0   0   0 # obsk
   1620      1   1 -1.050000    14.680140957    11.832250000    10.693824099   0   0   0 # obsk
   1621      1   1 -1.050000    13.226661654    14.349750000    15.267157432   0   0   0 # obsk
   1622      1   1 -1.050000    16.133620260    10.825250000    12.980490766   0   0   0 # obsk
   1623      1   1 -1.050000    14.680140957    13.342750000     3.833824099   0   0   0 # obsk
   1624      1   1 -1.050000    13.226661654    15.860250000     8.407157432   0   0   0 # obsk
   1625      1   1 -1.050000    13.081313724    16.112000000    12.980490766   0   0   0 # obsk
   1626      1   1 -1.050000    15.988272330    11.077000000     3.833824099   0   0   0 # obsk
   1627      1   1 -1.050000    14.534793027    13.594500000     8.407157432   0   0   0 # obsk
   1628      1   1 -1.050000    14.389445097    13.342750000    12.980490766   0   0   0 # obsk
   1629      1   1 -1.050000    17.296403702    13.342750000     3.833824099   0   0   0 # obsk
   1630      1   1 -1.050000    15.842924399    15.860250000     8.407157432   0   0   0 # obsk
   1631      1   2  1.575000    13.081313724    12.587500000     7.561090766   0   0   0 # feok
   1632      1   2  1.575000    15.988272330    12.587500000    12.134424099   0   0   0 # feok
   1633      1   2  1.575000    14.534793027    15.105000000     2.987757432   0   0   0 # feok
   1634      1   2  1.575000    13.081313724    12.587500000     4.679890766   0   0   0 # feok
   1635      1   2  1.575000    15.988272330    12.587500000     9.253224099   0   0   0 # feok
   1636      1   2  1.575000    14.534793027    15.105000000    13.826557432   0   0   0 # feok
   1637      1   2  1.575000    13.081313724    12.587500000    11.539890766   0   0   0 # feok
   1638      1   2  1.575000    15.988272330    12.587500000    16.113224099   0   0   0 # feok
   1639      1   2  1.575000    14.534793027    15.105000000     6.966557432   0   0   0 # feok
   1640      1   2  1.575000    13.081313724    12.587500000    14.421090766   0   0   0 # feok
   1641      1   2  1.575000    15.988272330    12.587500000     5.274424099   0   0   0 # feok
   1642      1   2  1.575000    14.534793027    15.105000000     9.847757432   0   0   0 # feok
   1643      1   1 -1.050000    14.389445097    11.832250000    19.840490766   0   0   0 # obsk
   1644      1   1 -1.050000    17.296403702    11.832250000    24.413824099   0   0   0 # obsk
   1645      1   1 -1.050000    15.842924399    14.349750000    28.987157432   0   0   0 # obsk
   1646      1   1 -1.050000    13.081313724    14.098000000    19.840490766   0   0   0 # obsk
   1647      1   1 -1.050000    15.988272330    14.098000000    24.413824099   0   0   0 # obsk
   1648      1   1 -1.129000    14.534793027    16.615500000    28.987157432   0   0   0 # obsk
   1649      1   1 -1.050000    16.133620260    14.349750000    19.840490766   0   0   0 # obsk
   1650      1   1 -1.050000    14.680140957    11.832250000    24.413824099   0   0   0 # obsk
   1651      1   1 -1.050000    13.226661654    14.349750000    28.987157432   0   0   0 # obsk
   1652      1   1 -1.050000    16.133620260    10.825250000    26.700490766   0   0   0 # obsk
   1653      1   1 -1.050000    14.680140957    13.342750000    17.553824099   0   0   0 # obsk
   1654      1   1 -1.050000    13.226661654    15.860250000    22.127157432   0   0   0 # obsk
   1655      1   1 -1.050000    13.081313724    16.112000000    26.700490766   0   0   0 # obsk
   1656      1   1 -1.050000    15.988272330    11.077000000    17.553824099   0   0   0 # obsk
   1657      1   1 -1.050000    14.534793027    13.594500000    22.127157432   0   0   0 # obsk
   1658      1   1 -1.050000    14.389445097    13.342750000    26.700490766   0   0   0 # obsk
   1659      1   1 -1.050000    17.296403702    13.342750000    17.553824099   0   0   0 # obsk
   1660      1   1 -1.050000    15.842924399    15.860250000    22.127157432   0   0   0 # obsk
   1661      1   2  1.575000    13.081313724    12.587500000    21.281090766   0   0   0 # feok
   1662      1   2  1.575000    15.988272330    12.587500000    25.854424099   0   0   0 # feok
   1663      1   2  1.575000    14.534793027    15.105000000    16.707757432   0   0   0 # feok
   1664      1   2  1.575000    13.081313724    12.587500000    18.399890766   0   0   0 # feok
   1665      1   2  1.575000    15.988272330    12.587500000    22.973224099   0   0   0 # feok
   1666      1   2  1.575000    14.534793027    15.105000000    27.546557432   0   0   0 # feok
   1667      1   2  1.575000    13.081313724    12.587500000    25.259890766   0   0   0 # feok
   1668      1   2  1.575000    15.988272330    12.587500000    29.833224099   0   0   0 # feok
   1669      1   2  1.575000    14.534793027    15.105000000    20.686557432   0   0   0 # feok
   1670      1   2  1.575000    13.081313724    12.587500000    28.141090766   0   0   0 # feok
   1671      1   2  1.575000    15.988272330    12.587500000    18.994424099   0   0   0 # feok
   1672      1   2  1.575000    14.534793027    15.105000000    23.567757432   0   0   0 # feok
   1673      1   1 -1.050000    18.749883005     9.314750000     6.120490766   0   0   0 # obsk
   1674      1   1 -1.050000    21.656841610     9.314750000    10.693824099   0   0   0 # obsk
   1675      1   1 -1.050000    20.203362307    11.832250000    15.267157432   0   0   0 # obsk
   1676      1   1 -1.050000    17.441751632    11.580500000     6.120490766   0   0   0 # obsk
   1677      1   1 -1.050000    20.348710238    11.580500000    10.693824099   0   0   0 # obsk
   1678      1   1 -1.050000    18.895230935    14.098000000    15.267157432   0   0   0 # obsk
   1679      1   1 -1.050000    20.494058168    11.832250000     6.120490766   0   0   0 # obsk
   1680      1   1 -1.050000    19.040578865     9.314750000    10.693824099   0   0   0 # obsk
   1681      1   1 -1.050000    17.587099562    11.832250000    15.267157432   0   0   0 # obsk
   1682      1   1 -1.050000    20.494058168     8.307750000    12.980490766   0   0   0 # obsk
   1683      1   1 -1.050000    19.040578865    10.825250000     3.833824099   0   0   0 # obsk
   1684      1   1 -1.050000    17.587099562    13.342750000     8.407157432   0   0   0 # obsk
   1685      1   1 -1.050000    17.441751632    13.594500000    12.980490766   0   0   0 # obsk
   1686      1   1 -1.050000    20.348710238     8.559500000     3.833824099   0   0   0 # obsk
   1687      1   1 -1.050000    18.895230935    11.077000000     8.407157432   0   0   0 # obsk
   1688      1   1 -1.050000    18.749883005    10.825250000    12.980490766   0   0   0 # obsk
   1689      1   1 -1.050000    21.656841610    10.825250000     3.833824099   0   0   0 # obsk
   1690      1   1 -1.050000    20.203362307    13.342750000     8.407157432   0   0   0 # obsk
   1691      1   2  1.575000    17.441751632    10.070000000     7.561090766   0   0   0 # feok
   1692      1   2  1.575000    20.348710238    10.070000000    12.134424099   0   0   0 # feok
   1693      1   2  1.575000    18.895230935    12.587500000     2.987757432   0   0   0 # feok
   1694      1   2  1.575000    17.441751632    10.070000000     4.679890766   0   0   0 # feok
   1695      1   2  1.575000    20.348710238    10.070000000     9.253224099   0   0   0 # feok
   1696      1   2  1.575000    18.895230935    12.587500000    13.826557432   0   0   0 # feok
   1697      1   2  1.575000    17.441751632    10.070000000    11.539890766   0   0   0 # feok
   1698      1   2  1.575000    20.348710238    10.070000000    16.113224099   0   0   0 # feok
   1699      1   2  1.575000    18.895230935    12.587500000     6.966557432   0   0   0 # feok
   1700      1   2  1.575000    17.441751632    10.070000000    14.421090766   0   0   0 # feok
   1701      1   2  1.575000    20.348710238    10.070000000     5.274424099   0   0   0 # feok
   1702      1   2  1.575000    18.895230935    12.587500000     9.847757432   0   0   0 # feok
   1703      1   1 -1.050000    18.749883005     9.314750000    19.840490766   0   0   0 # obsk
   1704      1   1 -1.050000    21.656841610     9.314750000    24.413824099   0   0   0 # obsk
   1705      1   1 -1.129000    20.203362307    11.832250000    28.987157432   0   0   0 # obsk
   1706      1   1 -1.050000    17.441751632    11.580500000    19.840490766   0   0   0 # obsk
   1707      1   1 -1.050000    20.348710238    11.580500000    24.413824099   0   0   0 # obsk
   1708      1   1 -1.050000    18.895230935    14.098000000    28.987157432   0   0   0 # obsk
   1709      1   1 -1.050000    20.494058168    11.832250000    19.840490766   0   0   0 # obsk
   1710      1   1 -1.050000    19.040578865     9.314750000    24.413824099   0   0   0 # obsk
   1711      1   1 -1.050000    17.587099562    11.832250000    28.987157432   0   0   0 # obsk
   1712      1   1 -1.050000    20.494058168     8.307750000    26.700490766   0   0   0 # obsk
   1713      1   1 -1.050000    19.040578865    10.825250000    17.553824099   0   0   0 # obsk
   1714      1   1 -1.050000    17.587099562    13.342750000    22.127157432   0   0   0 # obsk
   1715      1   1 -1.050000    17.441751632    13.594500000    26.700490766   0   0   0 # obsk
   1716      1   1 -1.050000    20.348710238     8.559500000    17.553824099   0   0   0 # obsk
   1717      1   1 -1.050000    18.895230935    11.077000000    22.127157432   0   0   0 # obsk
   1718      1   1 -1.050000    18.749883005    10.825250000    26.700490766   0   0   0 # obsk
   1719      1   1 -1.050000    21.656841610    10.825250000    17.553824099   0   0   0 # obsk
   1720      1   1 -1.050000    20.203362307    13.342750000    22.127157432   0   0   0 # obsk
   1721      1   2  1.575000    17.441751632    10.070000000    21.281090766   0   0   0 # feok
   1722      1   2  1.575000    20.348710238    10.070000000    25.854424099   0   0   0 # feok
   1723      1   2  1.575000    18.895230935    12.587500000    16.707757432   0   0   0 # feok
   1724      1   2  1.575000    17.441751632    10.070000000    18.399890766   0   0   0 # feok
   1725      1   2  1.575000    20.348710238    10.070000000    22.973224099   0   0   0 # feok
   1726      1   2  1.575000    18.895230935    12.587500000    27.546557432   0   0   0 # feok
   1727      1   2  1.575000    17.441751632    10.070000000    25.259890766   0   0   0 # feok
   1728      1   2  1.575000    18.895230935    12.587500000    20.686557432   0   0   0 # feok
   1729      1   2  1.575000    17.441751632    10.070000000    28.141090766   0   0   0 # feok
   1730      1   2  1.575000    20.348710238    10.070000000    18.994424099   0   0   0 # feok
   1731      1   2  1.575000    18.895230935    12.587500000    23.567757432   0   0   0 # feok
   1732      1   1 -1.050000    23.110320913     6.797250000     6.120490766   0   0   0 # obsk
   1733      1   1 -1.050000    -0.144620482     6.797250000    10.693824099   1   0   0 # obsk
   1734      1   1 -1.050000    24.563800215     9.314750000    15.267157432   0   0   0 # obsk
   1735      1   1 -1.050000    21.802189540     9.063000000     6.120490766   0   0   0 # obsk
   1736      1   1 -1.050000    24.709148146     9.063000000    10.693824099   0   0   0 # obsk
   1737      1   1 -1.050000    23.255668843    11.580500000    15.267157432   0   0   0 # obsk
   1738      1   1 -1.050000    24.854496076     9.314750000     6.120490766   0   0   0 # obsk
   1739      1   1 -1.050000    23.401016773     6.797250000    10.693824099   0   0   0 # obsk
   1740      1   1 -1.050000    21.947537471     9.314750000    15.267157432   0   0   0 # obsk
   1741      1   1 -1.050000    24.854496076     5.790250000    12.980490766   0   0   0 # obsk
   1742      1   1 -1.050000    23.401016773     8.307750000     3.833824099   0   0   0 # obsk
   1743      1   1 -1.050000    21.947537471    10.825250000     8.407157432   0   0   0 # obsk
   1744      1   1 -1.050000    21.802189540    11.077000000    12.980490766   0   0   0 # obsk
   1745      1   1 -1.050000    24.709148146     6.042000000     3.833824099   0   0   0 # obsk
   1746      1   1 -1.050000    23.255668843     8.559500000     8.407157432   0   0   0 # obsk
   1747      1   1 -1.050000    23.110320913     8.307750000    12.980490766   0   0   0 # obsk
   1748      1   1 -1.050000    -0.144620482     8.307750000     3.833824099   1   0   0 # obsk
   1749      1   1 -1.050000    24.563800215    10.825250000     8.407157432   0   0   0 # obsk
   1750      1   2  1.575000    21.802189540     7.552500000     7.561090766   0   0   0 # feok
   1751      1   2  1.575000    24.709148146     7.552500000    12.134424099   0   0   0 # feok
   1752      1   2  1.575000    23.255668843    10.070000000     2.987757432   0   0   0 # feok
   1753      1   2  1.575000    21.802189540     7.552500000     4.679890766   0   0   0 # feok
   1754      1   2  1.575000    24.709148146     7.552500000     9.253224099   0   0   0 # feok
   1755      1   2  1.575000    23.255668843    10.070000000    13.826557432   0   0   0 # feok
   1756      1   2  1.575000    21.802189540     7.552500000    11.539890766   0   0   0 # feok
   1757      1   2  1.575000    24.709148146     7.552500000    16.113224099   0   0   0 # feok
   1758      1   2  1.575000    23.255668843    10.070000000     6.966557432   0   0   0 # feok
   1759      1   2  1.575000    21.802189540     7.552500000    14.421090766   0   0   0 # feok
   1760      1   2  1.575000    24.709148146     7.552500000     5.274424099   0   0   0 # feok
   1761      1   2  1.575000    23.255668843    10.070000000     9.847757432   0   0   0 # feok
   1762      1   1 -1.050000    23.110320913     6.797250000    19.840490766   0   0   0 # obsk
   1763      1   1 -1.050000    -0.144620482     6.797250000    24.413824099   1   0   0 # obsk
   1764      1   1 -1.050000    24.563800215     9.314750000    28.987157432   0   0   0 # obsk
   1765      1   1 -1.050000    21.802189540     9.063000000    19.840490766   0   0   0 # obsk
   1766      1   1 -1.050000    24.709148146     9.063000000    24.413824099   0   0   0 # obsk
   1767      1   1 -1.050000    23.255668843    11.580500000    28.987157432   0   0   0 # obsk
   1768      1   1 -1.050000    24.854496076     9.314750000    19.840490766   0   0   0 # obsk
   1769      1   1 -1.050000    23.401016773     6.797250000    24.413824099   0   0   0 # obsk
   1770      1   1 -1.129000    21.947537471     9.314750000    28.987157432   0   0   0 # obsk
   1771      1   1 -1.050000    24.854496076     5.790250000    26.700490766   0   0   0 # obsk
   1772      1   1 -1.050000    23.401016773     8.307750000    17.553824099   0   0   0 # obsk
   1773      1   1 -1.050000    21.947537471    10.825250000    22.127157432   0   0   0 # obsk
   1774      1   1 -1.050000    21.802189540    11.077000000    26.700490766   0   0   0 # obsk
   1775      1   1 -1.050000    24.709148146     6.042000000    17.553824099   0   0   0 # obsk
   1776      1   1 -1.050000    23.255668843     8.559500000    22.127157432   0   0   0 # obsk
   1777      1   1 -1.050000    23.110320913     8.307750000    26.700490766   0   0   0 # obsk
   1778      1   1 -1.050000    -0.144620482     8.307750000    17.553824099   1   0   0 # obsk
   1779      1   1 -1.050000    24.563800215    10.825250000    22.127157432   0   0   0 # obsk
   1780      1   2  1.575000    21.802189540     7.552500000    21.281090766   0   0   0 # feok
   1781      1   2  1.575000    24.709148146     7.552500000    25.854424099   0   0   0 # feok
   1782      1   2  1.575000    23.255668843    10.070000000    16.707757432   0   0   0 # feok
   1783      1   2  1.575000    21.802189540     7.552500000    18.399890766   0   0   0 # feok
   1784      1   2  1.575000    24.709148146     7.552500000    22.973224099   0   0   0 # feok
   1785      1   2  1.575000    23.255668843    10.070000000    27.546557432   0   0   0 # feok
   1786      1   2  1.575000    21.802189540     7.552500000    25.259890766   0   0   0 # feok
   1787      1   2  1.575000    24.709148146     7.552500000    29.833224099   0   0   0 # feok
   1788      1   2  1.575000    23.255668843    10.070000000    20.686557432   0   0   0 # feok
   1789      1   2  1.575000    21.802189540     7.552500000    28.141090766   0   0   0 # feok
   1790      1   2  1.575000    24.709148146     7.552500000    18.994424099   0   0   0 # feok
   1791      1   2  1.575000    23.255668843    10.070000000    23.567757432   0   0   0 # feok
   1792      1   3 -1.029000     7.345340355     1.510500000    31.041818092   0   0   0 # ohk
   1793      1   3 -1.029000    24.787091987    16.615500000    31.041818092   0   0   0 # ohk
   1794      1   3 -1.029000     2.984902447     9.063000000    31.041818092   0   0   0 # ohk
   1795      1   3 -1.029000    16.066216171     1.510500000    31.041818092   0   0   0 # ohk
   1796      1   3 -1.029000    11.705778263     9.063000000    31.041818092   0   0   0 # ohk
   1797      1   3 -1.029000     7.345340355    16.615500000    31.041818092   0   0   0 # ohk
   1798      1   3 -1.029000    20.426654079     9.063000000    31.041818092   0   0   0 # ohk
   1799      1   3 -1.029000    16.066216171    16.615500000    31.041818092   0   0   0 # ohk
   1800      1   4  0.346000     6.349929633     1.489754771    31.254781667   0   0   0 # hoy
   1801      1   4  0.346000    23.791681265    16.594754771    31.254781667   0   0   0 # hoy
   1802      1   4  0.346000     1.989491725     9.042254771    31.254781667   0   0   0 # hoy
   1803      1   4  0.346000    15.070805449     1.489754771    31.254781667   0   0   0 # hoy
   1804      1   4  0.346000    10.710367541     9.042254771    31.254781667   0   0   0 # hoy
   1805      1   4  0.346000     6.349929633    16.594754771    31.254781667   0   0   0 # hoy
   1806      1   4  0.346000    19.431243357     9.042254771    31.254781667   0   0   0 # hoy
   1807      1   4  0.346000    15.070805449    16.594754771    31.254781667   0   0   0 # hoy
   1808      1   2  1.496000    15.988272330    17.622500000    29.833224099   0   0   0 # feok
   1809      1   2  1.496000     7.267396513     2.517500000    29.833224099   0   0   0 # feok
   1810      1   2  1.496000    24.709148146    17.622500000    29.833224099   0   0   0 # feok
   1811      1   2  1.496000     2.906958605    10.070000000    29.833224099   0   0   0 # feok
   1812      1   2  1.496000    15.988272330     2.517500000    29.833224099   0   0   0 # feok
   1813      1   2  1.496000    11.627834421    10.070000000    29.833224099   0   0   0 # feok
   1814      1   2  1.496000     7.267396513    17.622500000    29.833224099   0   0   0 # feok
   1815      1   2  1.496000    20.348710238    10.070000000    29.833224099   0   0   0 # feok
   1816      1   1 -1.129000     0.145307930    16.867250000    28.987157432   1   0   0 # obsk

Bonds

     1   1   1792   1800
     2   1   1793   1801
     3   1   1794   1802
     4   1   1795   1803
     5   1   1796   1804
     6   1   1797   1805
     7   1   1798   1806
     8   1   1799   1807

Angles

     1   1   1809   1792   1800
     2   1   1810   1793   1801
     3   1   1811   1794   1802
     4   1   1812   1795   1803
     5   1   1813   1796   1804
     6   1   1814   1797   1805
     7   1   1815   1798   1806
     8   1   1808   1799   1807

