LAMMPS data file for hem-d1-0

   1920 atoms
   180 bonds
   360 angles
      0 dihedrals
      0 impropers

   4 atom types
   1 bond types
   1 angle types

    -0.410431847    25.751468153 xlo xhi
    -0.435814931    24.739185069 ylo yhi
   -80.030143284   109.053856716 zlo zhi

Masses

   1  15.999400 # obsk
   2  15.999400 # ohk
   3  55.847000 # feok
   4   1.007940 # hoy

Pair Coeffs # lj/cut/coul/long

   1   0.1554000000   3.1655413253 # obsk
   2   0.1554000000   3.1655413253 # ohk
   3   0.0000090298   4.0722178483 # feok
   4   0.0000000000   0.0000000000 # hoy

Bond Coeffs # harmonic

   1   554.1348     1.0000 # ohk-hoy

Angle Coeffs # harmonic

   1    30.0000   109.4700 # feok-ohk-hoy

Atoms # full

      1      1   1 -1.050000     1.308131372    24.419750000     4.218737098   0   0   0 # obsk
      2      1   1 -1.050000     4.215089978    24.419750000     8.792070431   0   0   0 # obsk
      3      1   1 -1.050000     2.761610675     1.762250000    13.365403764   0   0   0 # obsk
      4      1   1 -1.050000     0.000000000     1.510500000     4.218737098   0   0   0 # obsk
      5      1   1 -1.050000     2.906958605     1.510500000     8.792070431   0   0   0 # obsk
      6      1   1 -1.050000     1.453479303     4.028000000    13.365403764   0   0   0 # obsk
      7      1   1 -1.050000     3.052306536     1.762250000     4.218737098   0   0   0 # obsk
      8      1   1 -1.050000     1.598827233    24.419750000     8.792070431   0   0   0 # obsk
      9      1   1 -1.050000     0.145347930     1.762250000    13.365403764   0   0   0 # obsk
     10      1   1 -1.050000     3.052306536    23.412750000    11.078737098   0   0   0 # obsk
     11      1   2 -0.950000     1.598827233     0.755250000     1.932070431   0   0   0 # ohk
     12      1   1 -1.050000     0.145347930     3.272750000     6.505403764   0   0   0 # obsk
     13      1   1 -1.050000     0.000000000     3.524500000    11.078737098   0   0   0 # obsk
     14      1   2 -0.950000     2.906958605    23.664500000     1.932070431   0   0   0 # ohk
     15      1   1 -1.050000     1.453479303     1.007000000     6.505403764   0   0   0 # obsk
     16      1   1 -1.050000     1.308131372     0.755250000    11.078737098   0   0   0 # obsk
     17      1   2 -0.950000     4.215089978     0.755250000     1.932070431   0   0   0 # ohk
     18      1   1 -1.050000     2.761610675     3.272750000     6.505403764   0   0   0 # obsk
     19      1   3  1.575000     0.000000000     0.000000000     5.659337098   0   0   0 # feok
     20      1   3  1.575000     2.906958605     0.000000000    10.232670431   0   0   0 # feok
     21      1   3  1.575000     0.000000000     0.000000000     2.778137098   0   0   0 # feok
     22      1   3  1.575000     2.906958605     0.000000000     7.351470431   0   0   0 # feok
     23      1   3  1.575000     1.453479303     2.517500000    11.924803764   0   0   0 # feok
     24      1   3  1.575000     0.000000000     0.000000000     9.638137098   0   0   0 # feok
     25      1   3  1.575000     2.906958605     0.000000000    14.211470431   0   0   0 # feok
     26      1   3  1.575000     1.453479303     2.517500000     5.064803764   0   0   0 # feok
     27      1   3  1.575000     0.000000000     0.000000000    12.519337098   0   0   0 # feok
     28      1   3  1.575000     2.906958605     0.000000000     3.372670431   0   0   0 # feok
     29      1   3  1.575000     1.453479303     2.517500000     7.946003764   0   0   0 # feok
     30      1   1 -1.050000     1.308131372    24.419750000    17.938737098   0   0   0 # obsk
     31      1   1 -1.050000     4.215089978    24.419750000    22.512070431   0   0   0 # obsk
     32      1   2 -0.950000     2.761610675     1.762250000    27.085403764   0   0   0 # ohk
     33      1   1 -1.050000     0.000000000     1.510500000    17.938737098   0   0   0 # obsk
     34      1   1 -1.050000     2.906958605     1.510500000    22.512070431   0   0   0 # obsk
     35      1   2 -0.950000     1.453479303     4.028000000    27.085403764   0   0   0 # ohk
     36      1   1 -1.050000     3.052306536     1.762250000    17.938737098   0   0   0 # obsk
     37      1   1 -1.050000     1.598827233    24.419750000    22.512070431   0   0   0 # obsk
     38      1   2 -0.950000     0.145347930     1.762250000    27.085403764   0   0   0 # ohk
     39      1   1 -1.050000     3.052306536    23.412750000    24.798737098   0   0   0 # obsk
     40      1   1 -1.050000     1.598827233     0.755250000    15.652070431   0   0   0 # obsk
     41      1   1 -1.050000     0.145347930     3.272750000    20.225403764   0   0   0 # obsk
     42      1   1 -1.050000     0.000000000     3.524500000    24.798737098   0   0   0 # obsk
     43      1   1 -1.050000     2.906958605    23.664500000    15.652070431   0   0   0 # obsk
     44      1   1 -1.050000     1.453479303     1.007000000    20.225403764   0   0   0 # obsk
     45      1   1 -1.050000     1.308131372     0.755250000    24.798737098   0   0   0 # obsk
     46      1   1 -1.050000     4.215089978     0.755250000    15.652070431   0   0   0 # obsk
     47      1   1 -1.050000     2.761610675     3.272750000    20.225403764   0   0   0 # obsk
     48      1   3  1.575000     0.000000000     0.000000000    19.379337098   0   0   0 # feok
     49      1   3  1.575000     2.906958605     0.000000000    23.952670431   0   0   0 # feok
     50      1   3  1.575000     1.453479303     2.517500000    14.806003764   0   0   0 # feok
     51      1   3  1.575000     0.000000000     0.000000000    16.498137098   0   0   0 # feok
     52      1   3  1.575000     2.906958605     0.000000000    21.071470431   0   0   0 # feok
     53      1   3  1.575000     1.453479303     2.517500000    25.644803764   0   0   0 # feok
     54      1   3  1.575000     0.000000000     0.000000000    23.358137098   0   0   0 # feok
     55      1   3  1.575000     1.453479303     2.517500000    18.784803764   0   0   0 # feok
     56      1   3  1.575000     0.000000000     0.000000000    26.239337098   0   0   0 # feok
     57      1   3  1.575000     2.906958605     0.000000000    17.092670431   0   0   0 # feok
     58      1   3  1.575000     1.453479303     2.517500000    21.666003764   0   0   0 # feok
     59      1   1 -1.050000     5.668569280    21.902250000     4.218737098   0   0   0 # obsk
     60      1   1 -1.050000     8.575527886    21.902250000     8.792070431   0   0   0 # obsk
     61      1   1 -1.050000     7.122048583    24.419750000    13.365403764   0   0   0 # obsk
     62      1   1 -1.050000     4.360437908    24.168000000     4.218737098   0   0   0 # obsk
     63      1   1 -1.050000     7.267396513    24.168000000     8.792070431   0   0   0 # obsk
     64      1   1 -1.050000     5.813917211     1.510500000    13.365403764   0   0   0 # obsk
     65      1   1 -1.050000     7.412744444    24.419750000     4.218737098   0   0   0 # obsk
     66      1   1 -1.050000     5.959265141    21.902250000     8.792070431   0   0   0 # obsk
     67      1   1 -1.050000     4.505785838    24.419750000    13.365403764   0   0   0 # obsk
     68      1   1 -1.050000     7.412744444    20.895250000    11.078737098   0   0   0 # obsk
     69      1   2 -0.950000     5.959265141    23.412750000     1.932070431   0   0   0 # ohk
     70      1   1 -1.050000     4.505785838     0.755250000     6.505403764   0   0   0 # obsk
     71      1   1 -1.050000     4.360437908     1.007000000    11.078737098   0   0   0 # obsk
     72      1   2 -0.950000     7.267396513    21.147000000     1.932070431   0   0   0 # ohk
     73      1   1 -1.050000     5.813917211    23.664500000     6.505403764   0   0   0 # obsk
     74      1   1 -1.050000     5.668569280    23.412750000    11.078737098   0   0   0 # obsk
     75      1   2 -0.950000     8.575527886    23.412750000     1.932070431   0   0   0 # ohk
     76      1   1 -1.050000     7.122048583     0.755250000     6.505403764   0   0   0 # obsk
     77      1   3  1.575000     4.360437908    22.657500000     5.659337098   0   0   0 # feok
     78      1   3  1.575000     7.267396513    22.657500000    10.232670431   0   0   0 # feok
     79      1   3  1.575000     4.360437908    22.657500000     2.778137098   0   0   0 # feok
     80      1   3  1.575000     7.267396513    22.657500000     7.351470431   0   0   0 # feok
     81      1   3  1.575000     5.813917211     0.000000000    11.924803764   0   0   0 # feok
     82      1   3  1.575000     4.360437908    22.657500000     9.638137098   0   0   0 # feok
     83      1   3  1.575000     7.267396513    22.657500000    14.211470431   0   0   0 # feok
     84      1   3  1.575000     5.813917211     0.000000000     5.064803764   0   0   0 # feok
     85      1   3  1.575000     4.360437908    22.657500000    12.519337098   0   0   0 # feok
     86      1   3  1.575000     7.267396513    22.657500000     3.372670431   0   0   0 # feok
     87      1   3  1.575000     5.813917211     0.000000000     7.946003764   0   0   0 # feok
     88      1   1 -1.050000     5.668569280    21.902250000    17.938737098   0   0   0 # obsk
     89      1   1 -1.050000     8.575527886    21.902250000    22.512070431   0   0   0 # obsk
     90      1   2 -0.950000     7.122048583    24.419750000    27.085403764   0   0   0 # ohk
     91      1   1 -1.050000     4.360437908    24.168000000    17.938737098   0   0   0 # obsk
     92      1   1 -1.050000     7.267396513    24.168000000    22.512070431   0   0   0 # obsk
     93      1   2 -0.950000     5.813917211     1.510500000    27.085403764   0   0   0 # ohk
     94      1   1 -1.050000     7.412744444    24.419750000    17.938737098   0   0   0 # obsk
     95      1   1 -1.050000     5.959265141    21.902250000    22.512070431   0   0   0 # obsk
     96      1   2 -0.950000     4.505785838    24.419750000    27.085403764   0   0   0 # ohk
     97      1   1 -1.050000     7.412744444    20.895250000    24.798737098   0   0   0 # obsk
     98      1   1 -1.050000     5.959265141    23.412750000    15.652070431   0   0   0 # obsk
     99      1   1 -1.050000     4.505785838     0.755250000    20.225403764   0   0   0 # obsk
    100      1   1 -1.050000     4.360437908     1.007000000    24.798737098   0   0   0 # obsk
    101      1   1 -1.050000     7.267396513    21.147000000    15.652070431   0   0   0 # obsk
    102      1   1 -1.050000     5.813917211    23.664500000    20.225403764   0   0   0 # obsk
    103      1   1 -1.050000     5.668569280    23.412750000    24.798737098   0   0   0 # obsk
    104      1   1 -1.050000     8.575527886    23.412750000    15.652070431   0   0   0 # obsk
    105      1   1 -1.050000     7.122048583     0.755250000    20.225403764   0   0   0 # obsk
    106      1   3  1.575000     4.360437908    22.657500000    19.379337098   0   0   0 # feok
    107      1   3  1.575000     7.267396513    22.657500000    23.952670431   0   0   0 # feok
    108      1   3  1.575000     5.813917211     0.000000000    14.806003764   0   0   0 # feok
    109      1   3  1.575000     4.360437908    22.657500000    16.498137098   0   0   0 # feok
    110      1   3  1.575000     7.267396513    22.657500000    21.071470431   0   0   0 # feok
    111      1   3  1.575000     5.813917211     0.000000000    25.644803764   0   0   0 # feok
    112      1   3  1.575000     4.360437908    22.657500000    23.358137098   0   0   0 # feok
    113      1   3  1.575000     5.813917211     0.000000000    18.784803764   0   0   0 # feok
    114      1   3  1.575000     4.360437908    22.657500000    26.239337098   0   0   0 # feok
    115      1   3  1.575000     7.267396513    22.657500000    17.092670431   0   0   0 # feok
    116      1   3  1.575000     5.813917211     0.000000000    21.666003764   0   0   0 # feok
    117      1   1 -1.050000    10.029007189    19.384750000     4.218737098   0   0   0 # obsk
    118      1   1 -1.050000    12.935965794    19.384750000     8.792070431   0   0   0 # obsk
    119      1   1 -1.050000    11.482486491    21.902250000    13.365403764   0   0   0 # obsk
    120      1   1 -1.050000     8.720875816    21.650500000     4.218737098   0   0   0 # obsk
    121      1   1 -1.050000    11.627834421    21.650500000     8.792070431   0   0   0 # obsk
    122      1   1 -1.050000    10.174355119    24.168000000    13.365403764   0   0   0 # obsk
    123      1   1 -1.050000    11.773182352    21.902250000     4.218737098   0   0   0 # obsk
    124      1   1 -1.050000    10.319703049    19.384750000     8.792070431   0   0   0 # obsk
    125      1   1 -1.050000     8.866223746    21.902250000    13.365403764   0   0   0 # obsk
    126      1   1 -1.050000    11.773182352    18.377750000    11.078737098   0   0   0 # obsk
    127      1   2 -0.950000    10.319703049    20.895250000     1.932070431   0   0   0 # ohk
    128      1   1 -1.050000     8.866223746    23.412750000     6.505403764   0   0   0 # obsk
    129      1   1 -1.050000     8.720875816    23.664500000    11.078737098   0   0   0 # obsk
    130      1   2 -0.950000    11.627834421    18.629500000     1.932070431   0   0   0 # ohk
    131      1   1 -1.050000    10.174355119    21.147000000     6.505403764   0   0   0 # obsk
    132      1   1 -1.050000    10.029007189    20.895250000    11.078737098   0   0   0 # obsk
    133      1   2 -0.950000    12.935965794    20.895250000     1.932070431   0   0   0 # ohk
    134      1   1 -1.050000    11.482486491    23.412750000     6.505403764   0   0   0 # obsk
    135      1   3  1.575000     8.720875816    20.140000000     5.659337098   0   0   0 # feok
    136      1   3  1.575000    11.627834421    20.140000000    10.232670431   0   0   0 # feok
    137      1   3  1.575000     8.720875816    20.140000000     2.778137098   0   0   0 # feok
    138      1   3  1.575000    11.627834421    20.140000000     7.351470431   0   0   0 # feok
    139      1   3  1.575000    10.174355119    22.657500000    11.924803764   0   0   0 # feok
    140      1   3  1.575000     8.720875816    20.140000000     9.638137098   0   0   0 # feok
    141      1   3  1.575000    11.627834421    20.140000000    14.211470431   0   0   0 # feok
    142      1   3  1.575000    10.174355119    22.657500000     5.064803764   0   0   0 # feok
    143      1   3  1.575000     8.720875816    20.140000000    12.519337098   0   0   0 # feok
    144      1   3  1.575000    11.627834421    20.140000000     3.372670431   0   0   0 # feok
    145      1   3  1.575000    10.174355119    22.657500000     7.946003764   0   0   0 # feok
    146      1   1 -1.050000    10.029007189    19.384750000    17.938737098   0   0   0 # obsk
    147      1   1 -1.050000    12.935965794    19.384750000    22.512070431   0   0   0 # obsk
    148      1   2 -0.950000    11.482486491    21.902250000    27.085403764   0   0   0 # ohk
    149      1   1 -1.050000     8.720875816    21.650500000    17.938737098   0   0   0 # obsk
    150      1   1 -1.050000    11.627834421    21.650500000    22.512070431   0   0   0 # obsk
    151      1   2 -0.950000    10.174355119    24.168000000    27.085403764   0   0   0 # ohk
    152      1   1 -1.050000    11.773182352    21.902250000    17.938737098   0   0   0 # obsk
    153      1   1 -1.050000    10.319703049    19.384750000    22.512070431   0   0   0 # obsk
    154      1   2 -0.950000     8.866223746    21.902250000    27.085403764   0   0   0 # ohk
    155      1   1 -1.050000    11.773182352    18.377750000    24.798737098   0   0   0 # obsk
    156      1   1 -1.050000    10.319703049    20.895250000    15.652070431   0   0   0 # obsk
    157      1   1 -1.050000     8.866223746    23.412750000    20.225403764   0   0   0 # obsk
    158      1   1 -1.050000     8.720875816    23.664500000    24.798737098   0   0   0 # obsk
    159      1   1 -1.050000    11.627834421    18.629500000    15.652070431   0   0   0 # obsk
    160      1   1 -1.050000    10.174355119    21.147000000    20.225403764   0   0   0 # obsk
    161      1   1 -1.050000    10.029007189    20.895250000    24.798737098   0   0   0 # obsk
    162      1   1 -1.050000    12.935965794    20.895250000    15.652070431   0   0   0 # obsk
    163      1   1 -1.050000    11.482486491    23.412750000    20.225403764   0   0   0 # obsk
    164      1   3  1.575000     8.720875816    20.140000000    19.379337098   0   0   0 # feok
    165      1   3  1.575000    11.627834421    20.140000000    23.952670431   0   0   0 # feok
    166      1   3  1.575000    10.174355119    22.657500000    14.806003764   0   0   0 # feok
    167      1   3  1.575000     8.720875816    20.140000000    16.498137098   0   0   0 # feok
    168      1   3  1.575000    11.627834421    20.140000000    21.071470431   0   0   0 # feok
    169      1   3  1.575000    10.174355119    22.657500000    25.644803764   0   0   0 # feok
    170      1   3  1.575000     8.720875816    20.140000000    23.358137098   0   0   0 # feok
    171      1   3  1.575000    10.174355119    22.657500000    18.784803764   0   0   0 # feok
    172      1   3  1.575000     8.720875816    20.140000000    26.239337098   0   0   0 # feok
    173      1   3  1.575000    11.627834421    20.140000000    17.092670431   0   0   0 # feok
    174      1   3  1.575000    10.174355119    22.657500000    21.666003764   0   0   0 # feok
    175      1   1 -1.050000    14.389445097    16.867250000     4.218737098   0   0   0 # obsk
    176      1   1 -1.050000    17.296403702    16.867250000     8.792070431   0   0   0 # obsk
    177      1   1 -1.050000    15.842924399    19.384750000    13.365403764   0   0   0 # obsk
    178      1   1 -1.050000    13.081313724    19.133000000     4.218737098   0   0   0 # obsk
    179      1   1 -1.050000    15.988272330    19.133000000     8.792070431   0   0   0 # obsk
    180      1   1 -1.050000    14.534793027    21.650500000    13.365403764   0   0   0 # obsk
    181      1   1 -1.050000    16.133620260    19.384750000     4.218737098   0   0   0 # obsk
    182      1   1 -1.050000    14.680140957    16.867250000     8.792070431   0   0   0 # obsk
    183      1   1 -1.050000    13.226661654    19.384750000    13.365403764   0   0   0 # obsk
    184      1   1 -1.050000    16.133620260    15.860250000    11.078737098   0   0   0 # obsk
    185      1   2 -0.950000    14.680140957    18.377750000     1.932070431   0   0   0 # ohk
    186      1   1 -1.050000    13.226661654    20.895250000     6.505403764   0   0   0 # obsk
    187      1   1 -1.050000    13.081313724    21.147000000    11.078737098   0   0   0 # obsk
    188      1   2 -0.950000    15.988272330    16.112000000     1.932070431   0   0   0 # ohk
    189      1   1 -1.050000    14.534793027    18.629500000     6.505403764   0   0   0 # obsk
    190      1   1 -1.050000    14.389445097    18.377750000    11.078737098   0   0   0 # obsk
    191      1   2 -0.950000    17.296403702    18.377750000     1.932070431   0   0   0 # ohk
    192      1   1 -1.050000    15.842924399    20.895250000     6.505403764   0   0   0 # obsk
    193      1   3  1.575000    13.081313724    17.622500000     5.659337098   0   0   0 # feok
    194      1   3  1.575000    15.988272330    17.622500000    10.232670431   0   0   0 # feok
    195      1   3  1.575000    13.081313724    17.622500000     2.778137098   0   0   0 # feok
    196      1   3  1.575000    15.988272330    17.622500000     7.351470431   0   0   0 # feok
    197      1   3  1.575000    14.534793027    20.140000000    11.924803764   0   0   0 # feok
    198      1   3  1.575000    13.081313724    17.622500000     9.638137098   0   0   0 # feok
    199      1   3  1.575000    15.988272330    17.622500000    14.211470431   0   0   0 # feok
    200      1   3  1.575000    14.534793027    20.140000000     5.064803764   0   0   0 # feok
    201      1   3  1.575000    13.081313724    17.622500000    12.519337098   0   0   0 # feok
    202      1   3  1.575000    15.988272330    17.622500000     3.372670431   0   0   0 # feok
    203      1   3  1.575000    14.534793027    20.140000000     7.946003764   0   0   0 # feok
    204      1   1 -1.050000    14.389445097    16.867250000    17.938737098   0   0   0 # obsk
    205      1   1 -1.050000    17.296403702    16.867250000    22.512070431   0   0   0 # obsk
    206      1   2 -0.950000    15.842924399    19.384750000    27.085403764   0   0   0 # ohk
    207      1   1 -1.050000    13.081313724    19.133000000    17.938737098   0   0   0 # obsk
    208      1   1 -1.050000    15.988272330    19.133000000    22.512070431   0   0   0 # obsk
    209      1   2 -0.950000    14.534793027    21.650500000    27.085403764   0   0   0 # ohk
    210      1   1 -1.050000    16.133620260    19.384750000    17.938737098   0   0   0 # obsk
    211      1   1 -1.050000    14.680140957    16.867250000    22.512070431   0   0   0 # obsk
    212      1   2 -0.950000    13.226661654    19.384750000    27.085403764   0   0   0 # ohk
    213      1   1 -1.050000    16.133620260    15.860250000    24.798737098   0   0   0 # obsk
    214      1   1 -1.050000    14.680140957    18.377750000    15.652070431   0   0   0 # obsk
    215      1   1 -1.050000    13.226661654    20.895250000    20.225403764   0   0   0 # obsk
    216      1   1 -1.050000    13.081313724    21.147000000    24.798737098   0   0   0 # obsk
    217      1   1 -1.050000    15.988272330    16.112000000    15.652070431   0   0   0 # obsk
    218      1   1 -1.050000    14.534793027    18.629500000    20.225403764   0   0   0 # obsk
    219      1   1 -1.050000    14.389445097    18.377750000    24.798737098   0   0   0 # obsk
    220      1   1 -1.050000    17.296403702    18.377750000    15.652070431   0   0   0 # obsk
    221      1   1 -1.050000    15.842924399    20.895250000    20.225403764   0   0   0 # obsk
    222      1   3  1.575000    13.081313724    17.622500000    19.379337098   0   0   0 # feok
    223      1   3  1.575000    15.988272330    17.622500000    23.952670431   0   0   0 # feok
    224      1   3  1.575000    14.534793027    20.140000000    14.806003764   0   0   0 # feok
    225      1   3  1.575000    13.081313724    17.622500000    16.498137098   0   0   0 # feok
    226      1   3  1.575000    15.988272330    17.622500000    21.071470431   0   0   0 # feok
    227      1   3  1.575000    14.534793027    20.140000000    25.644803764   0   0   0 # feok
    228      1   3  1.575000    13.081313724    17.622500000    23.358137098   0   0   0 # feok
    229      1   3  1.575000    14.534793027    20.140000000    18.784803764   0   0   0 # feok
    230      1   3  1.575000    13.081313724    17.622500000    26.239337098   0   0   0 # feok
    231      1   3  1.575000    15.988272330    17.622500000    17.092670431   0   0   0 # feok
    232      1   3  1.575000    14.534793027    20.140000000    21.666003764   0   0   0 # feok
    233      1   1 -1.050000    18.749883005    14.349750000     4.218737098   0   0   0 # obsk
    234      1   1 -1.050000    21.656841610    14.349750000     8.792070431   0   0   0 # obsk
    235      1   1 -1.050000    20.203362307    16.867250000    13.365403764   0   0   0 # obsk
    236      1   1 -1.050000    17.441751632    16.615500000     4.218737098   0   0   0 # obsk
    237      1   1 -1.050000    20.348710238    16.615500000     8.792070431   0   0   0 # obsk
    238      1   1 -1.050000    18.895230935    19.133000000    13.365403764   0   0   0 # obsk
    239      1   1 -1.050000    20.494058168    16.867250000     4.218737098   0   0   0 # obsk
    240      1   1 -1.050000    19.040578865    14.349750000     8.792070431   0   0   0 # obsk
    241      1   1 -1.050000    17.587099562    16.867250000    13.365403764   0   0   0 # obsk
    242      1   1 -1.050000    20.494058168    13.342750000    11.078737098   0   0   0 # obsk
    243      1   2 -0.950000    19.040578865    15.860250000     1.932070431   0   0   0 # ohk
    244      1   1 -1.050000    17.587099562    18.377750000     6.505403764   0   0   0 # obsk
    245      1   1 -1.050000    17.441751632    18.629500000    11.078737098   0   0   0 # obsk
    246      1   2 -0.950000    20.348710238    13.594500000     1.932070431   0   0   0 # ohk
    247      1   1 -1.050000    18.895230935    16.112000000     6.505403764   0   0   0 # obsk
    248      1   1 -1.050000    18.749883005    15.860250000    11.078737098   0   0   0 # obsk
    249      1   2 -0.950000    21.656841610    15.860250000     1.932070431   0   0   0 # ohk
    250      1   1 -1.050000    20.203362307    18.377750000     6.505403764   0   0   0 # obsk
    251      1   3  1.575000    17.441751632    15.105000000     5.659337098   0   0   0 # feok
    252      1   3  1.575000    20.348710238    15.105000000    10.232670431   0   0   0 # feok
    253      1   3  1.575000    17.441751632    15.105000000     2.778137098   0   0   0 # feok
    254      1   3  1.575000    20.348710238    15.105000000     7.351470431   0   0   0 # feok
    255      1   3  1.575000    18.895230935    17.622500000    11.924803764   0   0   0 # feok
    256      1   3  1.575000    17.441751632    15.105000000     9.638137098   0   0   0 # feok
    257      1   3  1.575000    20.348710238    15.105000000    14.211470431   0   0   0 # feok
    258      1   3  1.575000    18.895230935    17.622500000     5.064803764   0   0   0 # feok
    259      1   3  1.575000    17.441751632    15.105000000    12.519337098   0   0   0 # feok
    260      1   3  1.575000    20.348710238    15.105000000     3.372670431   0   0   0 # feok
    261      1   3  1.575000    18.895230935    17.622500000     7.946003764   0   0   0 # feok
    262      1   1 -1.050000    18.749883005    14.349750000    17.938737098   0   0   0 # obsk
    263      1   1 -1.050000    21.656841610    14.349750000    22.512070431   0   0   0 # obsk
    264      1   2 -0.950000    20.203362307    16.867250000    27.085403764   0   0   0 # ohk
    265      1   1 -1.050000    17.441751632    16.615500000    17.938737098   0   0   0 # obsk
    266      1   1 -1.050000    20.348710238    16.615500000    22.512070431   0   0   0 # obsk
    267      1   2 -0.950000    18.895230935    19.133000000    27.085403764   0   0   0 # ohk
    268      1   1 -1.050000    20.494058168    16.867250000    17.938737098   0   0   0 # obsk
    269      1   1 -1.050000    19.040578865    14.349750000    22.512070431   0   0   0 # obsk
    270      1   2 -0.950000    17.587099562    16.867250000    27.085403764   0   0   0 # ohk
    271      1   1 -1.050000    20.494058168    13.342750000    24.798737098   0   0   0 # obsk
    272      1   1 -1.050000    19.040578865    15.860250000    15.652070431   0   0   0 # obsk
    273      1   1 -1.050000    17.587099562    18.377750000    20.225403764   0   0   0 # obsk
    274      1   1 -1.050000    17.441751632    18.629500000    24.798737098   0   0   0 # obsk
    275      1   1 -1.050000    20.348710238    13.594500000    15.652070431   0   0   0 # obsk
    276      1   1 -1.050000    18.895230935    16.112000000    20.225403764   0   0   0 # obsk
    277      1   1 -1.050000    18.749883005    15.860250000    24.798737098   0   0   0 # obsk
    278      1   1 -1.050000    21.656841610    15.860250000    15.652070431   0   0   0 # obsk
    279      1   1 -1.050000    20.203362307    18.377750000    20.225403764   0   0   0 # obsk
    280      1   3  1.575000    17.441751632    15.105000000    19.379337098   0   0   0 # feok
    281      1   3  1.575000    20.348710238    15.105000000    23.952670431   0   0   0 # feok
    282      1   3  1.575000    18.895230935    17.622500000    14.806003764   0   0   0 # feok
    283      1   3  1.575000    17.441751632    15.105000000    16.498137098   0   0   0 # feok
    284      1   3  1.575000    20.348710238    15.105000000    21.071470431   0   0   0 # feok
    285      1   3  1.575000    18.895230935    17.622500000    25.644803764   0   0   0 # feok
    286      1   3  1.575000    17.441751632    15.105000000    23.358137098   0   0   0 # feok
    287      1   3  1.575000    18.895230935    17.622500000    18.784803764   0   0   0 # feok
    288      1   3  1.575000    17.441751632    15.105000000    26.239337098   0   0   0 # feok
    289      1   3  1.575000    20.348710238    15.105000000    17.092670431   0   0   0 # feok
    290      1   3  1.575000    18.895230935    17.622500000    21.666003764   0   0   0 # feok
    291      1   1 -1.050000    23.110320913    11.832250000     4.218737098   0   0   0 # obsk
    292      1   1 -1.050000    -0.144620482    11.832250000     8.792070431   1   0   0 # obsk
    293      1   1 -1.050000    24.563800215    14.349750000    13.365403764   0   0   0 # obsk
    294      1   1 -1.050000    21.802189540    14.098000000     4.218737098   0   0   0 # obsk
    295      1   1 -1.050000    24.709148146    14.098000000     8.792070431   0   0   0 # obsk
    296      1   1 -1.050000    23.255668843    16.615500000    13.365403764   0   0   0 # obsk
    297      1   1 -1.050000    24.854496076    14.349750000     4.218737098   0   0   0 # obsk
    298      1   1 -1.050000    23.401016773    11.832250000     8.792070431   0   0   0 # obsk
    299      1   1 -1.050000    21.947537471    14.349750000    13.365403764   0   0   0 # obsk
    300      1   1 -1.050000    24.854496076    10.825250000    11.078737098   0   0   0 # obsk
    301      1   2 -0.950000    23.401016773    13.342750000     1.932070431   0   0   0 # ohk
    302      1   1 -1.050000    21.947537471    15.860250000     6.505403764   0   0   0 # obsk
    303      1   1 -1.050000    21.802189540    16.112000000    11.078737098   0   0   0 # obsk
    304      1   2 -0.950000    24.709148146    11.077000000     1.932070431   0   0   0 # ohk
    305      1   1 -1.050000    23.255668843    13.594500000     6.505403764   0   0   0 # obsk
    306      1   1 -1.050000    23.110320913    13.342750000    11.078737098   0   0   0 # obsk
    307      1   2 -0.950000    -0.144620482    13.342750000     1.932070431   1   0   0 # ohk
    308      1   1 -1.050000    24.563800215    15.860250000     6.505403764   0   0   0 # obsk
    309      1   3  1.575000    21.802189540    12.587500000     5.659337098   0   0   0 # feok
    310      1   3  1.575000    24.709148146    12.587500000    10.232670431   0   0   0 # feok
    311      1   3  1.575000    21.802189540    12.587500000     2.778137098   0   0   0 # feok
    312      1   3  1.575000    24.709148146    12.587500000     7.351470431   0   0   0 # feok
    313      1   3  1.575000    23.255668843    15.105000000    11.924803764   0   0   0 # feok
    314      1   3  1.575000    21.802189540    12.587500000     9.638137098   0   0   0 # feok
    315      1   3  1.575000    24.709148146    12.587500000    14.211470431   0   0   0 # feok
    316      1   3  1.575000    23.255668843    15.105000000     5.064803764   0   0   0 # feok
    317      1   3  1.575000    21.802189540    12.587500000    12.519337098   0   0   0 # feok
    318      1   3  1.575000    24.709148146    12.587500000     3.372670431   0   0   0 # feok
    319      1   3  1.575000    23.255668843    15.105000000     7.946003764   0   0   0 # feok
    320      1   1 -1.050000    23.110320913    11.832250000    17.938737098   0   0   0 # obsk
    321      1   1 -1.050000    -0.144620482    11.832250000    22.512070431   1   0   0 # obsk
    322      1   2 -0.950000    24.563800215    14.349750000    27.085403764   0   0   0 # ohk
    323      1   1 -1.050000    21.802189540    14.098000000    17.938737098   0   0   0 # obsk
    324      1   1 -1.050000    24.709148146    14.098000000    22.512070431   0   0   0 # obsk
    325      1   2 -0.950000    23.255668843    16.615500000    27.085403764   0   0   0 # ohk
    326      1   1 -1.050000    24.854496076    14.349750000    17.938737098   0   0   0 # obsk
    327      1   1 -1.050000    23.401016773    11.832250000    22.512070431   0   0   0 # obsk
    328      1   2 -0.950000    21.947537471    14.349750000    27.085403764   0   0   0 # ohk
    329      1   1 -1.050000    24.854496076    10.825250000    24.798737098   0   0   0 # obsk
    330      1   1 -1.050000    23.401016773    13.342750000    15.652070431   0   0   0 # obsk
    331      1   1 -1.050000    21.947537471    15.860250000    20.225403764   0   0   0 # obsk
    332      1   1 -1.050000    21.802189540    16.112000000    24.798737098   0   0   0 # obsk
    333      1   1 -1.050000    24.709148146    11.077000000    15.652070431   0   0   0 # obsk
    334      1   1 -1.050000    23.255668843    13.594500000    20.225403764   0   0   0 # obsk
    335      1   1 -1.050000    23.110320913    13.342750000    24.798737098   0   0   0 # obsk
    336      1   1 -1.050000    -0.144620482    13.342750000    15.652070431   1   0   0 # obsk
    337      1   1 -1.050000    24.563800215    15.860250000    20.225403764   0   0   0 # obsk
    338      1   3  1.575000    21.802189540    12.587500000    19.379337098   0   0   0 # feok
    339      1   3  1.575000    24.709148146    12.587500000    23.952670431   0   0   0 # feok
    340      1   3  1.575000    23.255668843    15.105000000    14.806003764   0   0   0 # feok
    341      1   3  1.575000    21.802189540    12.587500000    16.498137098   0   0   0 # feok
    342      1   3  1.575000    24.709148146    12.587500000    21.071470431   0   0   0 # feok
    343      1   3  1.575000    23.255668843    15.105000000    25.644803764   0   0   0 # feok
    344      1   3  1.575000    21.802189540    12.587500000    23.358137098   0   0   0 # feok
    345      1   3  1.575000    23.255668843    15.105000000    18.784803764   0   0   0 # feok
    346      1   3  1.575000    21.802189540    12.587500000    26.239337098   0   0   0 # feok
    347      1   3  1.575000    24.709148146    12.587500000    17.092670431   0   0   0 # feok
    348      1   3  1.575000    23.255668843    15.105000000    21.666003764   0   0   0 # feok
    349      1   1 -1.050000     1.308131372     4.279750000     4.218737098   0   0   0 # obsk
    350      1   1 -1.050000     4.215089978     4.279750000     8.792070431   0   0   0 # obsk
    351      1   1 -1.050000     2.761610675     6.797250000    13.365403764   0   0   0 # obsk
    352      1   1 -1.050000     0.000000000     6.545500000     4.218737098   0   0   0 # obsk
    353      1   1 -1.050000     2.906958605     6.545500000     8.792070431   0   0   0 # obsk
    354      1   1 -1.050000     1.453479303     9.063000000    13.365403764   0   0   0 # obsk
    355      1   1 -1.050000     3.052306536     6.797250000     4.218737098   0   0   0 # obsk
    356      1   1 -1.050000     1.598827233     4.279750000     8.792070431   0   0   0 # obsk
    357      1   1 -1.050000     0.145347930     6.797250000    13.365403764   0   0   0 # obsk
    358      1   1 -1.050000     3.052306536     3.272750000    11.078737098   0   0   0 # obsk
    359      1   2 -0.950000     1.598827233     5.790250000     1.932070431   0   0   0 # ohk
    360      1   1 -1.050000     0.145347930     8.307750000     6.505403764   0   0   0 # obsk
    361      1   1 -1.050000     0.000000000     8.559500000    11.078737098   0   0   0 # obsk
    362      1   2 -0.950000     2.906958605     3.524500000     1.932070431   0   0   0 # ohk
    363      1   1 -1.050000     1.453479303     6.042000000     6.505403764   0   0   0 # obsk
    364      1   1 -1.050000     1.308131372     5.790250000    11.078737098   0   0   0 # obsk
    365      1   2 -0.950000     4.215089978     5.790250000     1.932070431   0   0   0 # ohk
    366      1   1 -1.050000     2.761610675     8.307750000     6.505403764   0   0   0 # obsk
    367      1   3  1.575000     0.000000000     5.035000000     5.659337098   0   0   0 # feok
    368      1   3  1.575000     2.906958605     5.035000000    10.232670431   0   0   0 # feok
    369      1   3  1.575000     0.000000000     5.035000000     2.778137098   0   0   0 # feok
    370      1   3  1.575000     2.906958605     5.035000000     7.351470431   0   0   0 # feok
    371      1   3  1.575000     1.453479303     7.552500000    11.924803764   0   0   0 # feok
    372      1   3  1.575000     0.000000000     5.035000000     9.638137098   0   0   0 # feok
    373      1   3  1.575000     2.906958605     5.035000000    14.211470431   0   0   0 # feok
    374      1   3  1.575000     1.453479303     7.552500000     5.064803764   0   0   0 # feok
    375      1   3  1.575000     0.000000000     5.035000000    12.519337098   0   0   0 # feok
    376      1   3  1.575000     2.906958605     5.035000000     3.372670431   0   0   0 # feok
    377      1   3  1.575000     1.453479303     7.552500000     7.946003764   0   0   0 # feok
    378      1   1 -1.050000     1.308131372     4.279750000    17.938737098   0   0   0 # obsk
    379      1   1 -1.050000     4.215089978     4.279750000    22.512070431   0   0   0 # obsk
    380      1   2 -0.950000     2.761610675     6.797250000    27.085403764   0   0   0 # ohk
    381      1   1 -1.050000     0.000000000     6.545500000    17.938737098   0   0   0 # obsk
    382      1   1 -1.050000     2.906958605     6.545500000    22.512070431   0   0   0 # obsk
    383      1   2 -0.950000     1.453479303     9.063000000    27.085403764   0   0   0 # ohk
    384      1   1 -1.050000     3.052306536     6.797250000    17.938737098   0   0   0 # obsk
    385      1   1 -1.050000     1.598827233     4.279750000    22.512070431   0   0   0 # obsk
    386      1   2 -0.950000     0.145347930     6.797250000    27.085403764   0   0   0 # ohk
    387      1   1 -1.050000     3.052306536     3.272750000    24.798737098   0   0   0 # obsk
    388      1   1 -1.050000     1.598827233     5.790250000    15.652070431   0   0   0 # obsk
    389      1   1 -1.050000     0.145347930     8.307750000    20.225403764   0   0   0 # obsk
    390      1   1 -1.050000     0.000000000     8.559500000    24.798737098   0   0   0 # obsk
    391      1   1 -1.050000     2.906958605     3.524500000    15.652070431   0   0   0 # obsk
    392      1   1 -1.050000     1.453479303     6.042000000    20.225403764   0   0   0 # obsk
    393      1   1 -1.050000     1.308131372     5.790250000    24.798737098   0   0   0 # obsk
    394      1   1 -1.050000     4.215089978     5.790250000    15.652070431   0   0   0 # obsk
    395      1   1 -1.050000     2.761610675     8.307750000    20.225403764   0   0   0 # obsk
    396      1   3  1.575000     0.000000000     5.035000000    19.379337098   0   0   0 # feok
    397      1   3  1.575000     2.906958605     5.035000000    23.952670431   0   0   0 # feok
    398      1   3  1.575000     1.453479303     7.552500000    14.806003764   0   0   0 # feok
    399      1   3  1.575000     0.000000000     5.035000000    16.498137098   0   0   0 # feok
    400      1   3  1.575000     2.906958605     5.035000000    21.071470431   0   0   0 # feok
    401      1   3  1.575000     1.453479303     7.552500000    25.644803764   0   0   0 # feok
    402      1   3  1.575000     0.000000000     5.035000000    23.358137098   0   0   0 # feok
    403      1   3  1.575000     1.453479303     7.552500000    18.784803764   0   0   0 # feok
    404      1   3  1.575000     0.000000000     5.035000000    26.239337098   0   0   0 # feok
    405      1   3  1.575000     2.906958605     5.035000000    17.092670431   0   0   0 # feok
    406      1   3  1.575000     1.453479303     7.552500000    21.666003764   0   0   0 # feok
    407      1   1 -1.050000     5.668569280     1.762250000     4.218737098   0   0   0 # obsk
    408      1   1 -1.050000     8.575527886     1.762250000     8.792070431   0   0   0 # obsk
    409      1   1 -1.050000     7.122048583     4.279750000    13.365403764   0   0   0 # obsk
    410      1   1 -1.050000     4.360437908     4.028000000     4.218737098   0   0   0 # obsk
    411      1   1 -1.050000     7.267396513     4.028000000     8.792070431   0   0   0 # obsk
    412      1   1 -1.050000     5.813917211     6.545500000    13.365403764   0   0   0 # obsk
    413      1   1 -1.050000     7.412744444     4.279750000     4.218737098   0   0   0 # obsk
    414      1   1 -1.050000     5.959265141     1.762250000     8.792070431   0   0   0 # obsk
    415      1   1 -1.050000     4.505785838     4.279750000    13.365403764   0   0   0 # obsk
    416      1   1 -1.050000     7.412744444     0.755250000    11.078737098   0   0   0 # obsk
    417      1   2 -0.950000     5.959265141     3.272750000     1.932070431   0   0   0 # ohk
    418      1   1 -1.050000     4.505785838     5.790250000     6.505403764   0   0   0 # obsk
    419      1   1 -1.050000     4.360437908     6.042000000    11.078737098   0   0   0 # obsk
    420      1   2 -0.950000     7.267396513     1.007000000     1.932070431   0   0   0 # ohk
    421      1   1 -1.050000     5.813917211     3.524500000     6.505403764   0   0   0 # obsk
    422      1   1 -1.050000     5.668569280     3.272750000    11.078737098   0   0   0 # obsk
    423      1   2 -0.950000     8.575527886     3.272750000     1.932070431   0   0   0 # ohk
    424      1   1 -1.050000     7.122048583     5.790250000     6.505403764   0   0   0 # obsk
    425      1   3  1.575000     4.360437908     2.517500000     5.659337098   0   0   0 # feok
    426      1   3  1.575000     7.267396513     2.517500000    10.232670431   0   0   0 # feok
    427      1   3  1.575000     4.360437908     2.517500000     2.778137098   0   0   0 # feok
    428      1   3  1.575000     7.267396513     2.517500000     7.351470431   0   0   0 # feok
    429      1   3  1.575000     5.813917211     5.035000000    11.924803764   0   0   0 # feok
    430      1   3  1.575000     4.360437908     2.517500000     9.638137098   0   0   0 # feok
    431      1   3  1.575000     7.267396513     2.517500000    14.211470431   0   0   0 # feok
    432      1   3  1.575000     5.813917211     5.035000000     5.064803764   0   0   0 # feok
    433      1   3  1.575000     4.360437908     2.517500000    12.519337098   0   0   0 # feok
    434      1   3  1.575000     7.267396513     2.517500000     3.372670431   0   0   0 # feok
    435      1   3  1.575000     5.813917211     5.035000000     7.946003764   0   0   0 # feok
    436      1   1 -1.050000     5.668569280     1.762250000    17.938737098   0   0   0 # obsk
    437      1   1 -1.050000     8.575527886     1.762250000    22.512070431   0   0   0 # obsk
    438      1   2 -0.950000     7.122048583     4.279750000    27.085403764   0   0   0 # ohk
    439      1   1 -1.050000     4.360437908     4.028000000    17.938737098   0   0   0 # obsk
    440      1   1 -1.050000     7.267396513     4.028000000    22.512070431   0   0   0 # obsk
    441      1   2 -0.950000     5.813917211     6.545500000    27.085403764   0   0   0 # ohk
    442      1   1 -1.050000     7.412744444     4.279750000    17.938737098   0   0   0 # obsk
    443      1   1 -1.050000     5.959265141     1.762250000    22.512070431   0   0   0 # obsk
    444      1   2 -0.950000     4.505785838     4.279750000    27.085403764   0   0   0 # ohk
    445      1   1 -1.050000     7.412744444     0.755250000    24.798737098   0   0   0 # obsk
    446      1   1 -1.050000     5.959265141     3.272750000    15.652070431   0   0   0 # obsk
    447      1   1 -1.050000     4.505785838     5.790250000    20.225403764   0   0   0 # obsk
    448      1   1 -1.050000     4.360437908     6.042000000    24.798737098   0   0   0 # obsk
    449      1   1 -1.050000     7.267396513     1.007000000    15.652070431   0   0   0 # obsk
    450      1   1 -1.050000     5.813917211     3.524500000    20.225403764   0   0   0 # obsk
    451      1   1 -1.050000     5.668569280     3.272750000    24.798737098   0   0   0 # obsk
    452      1   1 -1.050000     8.575527886     3.272750000    15.652070431   0   0   0 # obsk
    453      1   1 -1.050000     7.122048583     5.790250000    20.225403764   0   0   0 # obsk
    454      1   3  1.575000     4.360437908     2.517500000    19.379337098   0   0   0 # feok
    455      1   3  1.575000     7.267396513     2.517500000    23.952670431   0   0   0 # feok
    456      1   3  1.575000     5.813917211     5.035000000    14.806003764   0   0   0 # feok
    457      1   3  1.575000     4.360437908     2.517500000    16.498137098   0   0   0 # feok
    458      1   3  1.575000     7.267396513     2.517500000    21.071470431   0   0   0 # feok
    459      1   3  1.575000     5.813917211     5.035000000    25.644803764   0   0   0 # feok
    460      1   3  1.575000     4.360437908     2.517500000    23.358137098   0   0   0 # feok
    461      1   3  1.575000     5.813917211     5.035000000    18.784803764   0   0   0 # feok
    462      1   3  1.575000     4.360437908     2.517500000    26.239337098   0   0   0 # feok
    463      1   3  1.575000     7.267396513     2.517500000    17.092670431   0   0   0 # feok
    464      1   3  1.575000     5.813917211     5.035000000    21.666003764   0   0   0 # feok
    465      1   1 -1.050000    10.029007189    24.419750000     4.218737098   0   0   0 # obsk
    466      1   1 -1.050000    12.935965794    24.419750000     8.792070431   0   0   0 # obsk
    467      1   1 -1.050000    11.482486491     1.762250000    13.365403764   0   0   0 # obsk
    468      1   1 -1.050000     8.720875816     1.510500000     4.218737098   0   0   0 # obsk
    469      1   1 -1.050000    11.627834421     1.510500000     8.792070431   0   0   0 # obsk
    470      1   1 -1.050000    10.174355119     4.028000000    13.365403764   0   0   0 # obsk
    471      1   1 -1.050000    11.773182352     1.762250000     4.218737098   0   0   0 # obsk
    472      1   1 -1.050000    10.319703049    24.419750000     8.792070431   0   0   0 # obsk
    473      1   1 -1.050000     8.866223746     1.762250000    13.365403764   0   0   0 # obsk
    474      1   1 -1.050000    11.773182352    23.412750000    11.078737098   0   0   0 # obsk
    475      1   2 -0.950000    10.319703049     0.755250000     1.932070431   0   0   0 # ohk
    476      1   1 -1.050000     8.866223746     3.272750000     6.505403764   0   0   0 # obsk
    477      1   1 -1.050000     8.720875816     3.524500000    11.078737098   0   0   0 # obsk
    478      1   2 -0.950000    11.627834421    23.664500000     1.932070431   0   0   0 # ohk
    479      1   1 -1.050000    10.174355119     1.007000000     6.505403764   0   0   0 # obsk
    480      1   1 -1.050000    10.029007189     0.755250000    11.078737098   0   0   0 # obsk
    481      1   2 -0.950000    12.935965794     0.755250000     1.932070431   0   0   0 # ohk
    482      1   1 -1.050000    11.482486491     3.272750000     6.505403764   0   0   0 # obsk
    483      1   3  1.575000     8.720875816     0.000000000     5.659337098   0   0   0 # feok
    484      1   3  1.575000    11.627834421     0.000000000    10.232670431   0   0   0 # feok
    485      1   3  1.575000     8.720875816     0.000000000     2.778137098   0   0   0 # feok
    486      1   3  1.575000    11.627834421     0.000000000     7.351470431   0   0   0 # feok
    487      1   3  1.575000    10.174355119     2.517500000    11.924803764   0   0   0 # feok
    488      1   3  1.575000     8.720875816     0.000000000     9.638137098   0   0   0 # feok
    489      1   3  1.575000    11.627834421     0.000000000    14.211470431   0   0   0 # feok
    490      1   3  1.575000    10.174355119     2.517500000     5.064803764   0   0   0 # feok
    491      1   3  1.575000     8.720875816     0.000000000    12.519337098   0   0   0 # feok
    492      1   3  1.575000    11.627834421     0.000000000     3.372670431   0   0   0 # feok
    493      1   3  1.575000    10.174355119     2.517500000     7.946003764   0   0   0 # feok
    494      1   1 -1.050000    10.029007189    24.419750000    17.938737098   0   0   0 # obsk
    495      1   1 -1.050000    12.935965794    24.419750000    22.512070431   0   0   0 # obsk
    496      1   2 -0.950000    11.482486491     1.762250000    27.085403764   0   0   0 # ohk
    497      1   1 -1.050000     8.720875816     1.510500000    17.938737098   0   0   0 # obsk
    498      1   1 -1.050000    11.627834421     1.510500000    22.512070431   0   0   0 # obsk
    499      1   2 -0.950000    10.174355119     4.028000000    27.085403764   0   0   0 # ohk
    500      1   1 -1.050000    11.773182352     1.762250000    17.938737098   0   0   0 # obsk
    501      1   1 -1.050000    10.319703049    24.419750000    22.512070431   0   0   0 # obsk
    502      1   2 -0.950000     8.866223746     1.762250000    27.085403764   0   0   0 # ohk
    503      1   1 -1.050000    11.773182352    23.412750000    24.798737098   0   0   0 # obsk
    504      1   1 -1.050000    10.319703049     0.755250000    15.652070431   0   0   0 # obsk
    505      1   1 -1.050000     8.866223746     3.272750000    20.225403764   0   0   0 # obsk
    506      1   1 -1.050000     8.720875816     3.524500000    24.798737098   0   0   0 # obsk
    507      1   1 -1.050000    11.627834421    23.664500000    15.652070431   0   0   0 # obsk
    508      1   1 -1.050000    10.174355119     1.007000000    20.225403764   0   0   0 # obsk
    509      1   1 -1.050000    10.029007189     0.755250000    24.798737098   0   0   0 # obsk
    510      1   1 -1.050000    12.935965794     0.755250000    15.652070431   0   0   0 # obsk
    511      1   1 -1.050000    11.482486491     3.272750000    20.225403764   0   0   0 # obsk
    512      1   3  1.575000     8.720875816     0.000000000    19.379337098   0   0   0 # feok
    513      1   3  1.575000    11.627834421     0.000000000    23.952670431   0   0   0 # feok
    514      1   3  1.575000    10.174355119     2.517500000    14.806003764   0   0   0 # feok
    515      1   3  1.575000     8.720875816     0.000000000    16.498137098   0   0   0 # feok
    516      1   3  1.575000    11.627834421     0.000000000    21.071470431   0   0   0 # feok
    517      1   3  1.575000    10.174355119     2.517500000    25.644803764   0   0   0 # feok
    518      1   3  1.575000     8.720875816     0.000000000    23.358137098   0   0   0 # feok
    519      1   3  1.575000    10.174355119     2.517500000    18.784803764   0   0   0 # feok
    520      1   3  1.575000     8.720875816     0.000000000    26.239337098   0   0   0 # feok
    521      1   3  1.575000    11.627834421     0.000000000    17.092670431   0   0   0 # feok
    522      1   3  1.575000    10.174355119     2.517500000    21.666003764   0   0   0 # feok
    523      1   1 -1.050000    14.389445097    21.902250000     4.218737098   0   0   0 # obsk
    524      1   1 -1.050000    17.296403702    21.902250000     8.792070431   0   0   0 # obsk
    525      1   1 -1.050000    15.842924399    24.419750000    13.365403764   0   0   0 # obsk
    526      1   1 -1.050000    13.081313724    24.168000000     4.218737098   0   0   0 # obsk
    527      1   1 -1.050000    15.988272330    24.168000000     8.792070431   0   0   0 # obsk
    528      1   1 -1.050000    14.534793027     1.510500000    13.365403764   0   0   0 # obsk
    529      1   1 -1.050000    16.133620260    24.419750000     4.218737098   0   0   0 # obsk
    530      1   1 -1.050000    14.680140957    21.902250000     8.792070431   0   0   0 # obsk
    531      1   1 -1.050000    13.226661654    24.419750000    13.365403764   0   0   0 # obsk
    532      1   1 -1.050000    16.133620260    20.895250000    11.078737098   0   0   0 # obsk
    533      1   2 -0.950000    14.680140957    23.412750000     1.932070431   0   0   0 # ohk
    534      1   1 -1.050000    13.226661654     0.755250000     6.505403764   0   0   0 # obsk
    535      1   1 -1.050000    13.081313724     1.007000000    11.078737098   0   0   0 # obsk
    536      1   2 -0.950000    15.988272330    21.147000000     1.932070431   0   0   0 # ohk
    537      1   1 -1.050000    14.534793027    23.664500000     6.505403764   0   0   0 # obsk
    538      1   1 -1.050000    14.389445097    23.412750000    11.078737098   0   0   0 # obsk
    539      1   2 -0.950000    17.296403702    23.412750000     1.932070431   0   0   0 # ohk
    540      1   1 -1.050000    15.842924399     0.755250000     6.505403764   0   0   0 # obsk
    541      1   3  1.575000    13.081313724    22.657500000     5.659337098   0   0   0 # feok
    542      1   3  1.575000    15.988272330    22.657500000    10.232670431   0   0   0 # feok
    543      1   3  1.575000    13.081313724    22.657500000     2.778137098   0   0   0 # feok
    544      1   3  1.575000    15.988272330    22.657500000     7.351470431   0   0   0 # feok
    545      1   3  1.575000    14.534793027     0.000000000    11.924803764   0   0   0 # feok
    546      1   3  1.575000    13.081313724    22.657500000     9.638137098   0   0   0 # feok
    547      1   3  1.575000    15.988272330    22.657500000    14.211470431   0   0   0 # feok
    548      1   3  1.575000    14.534793027     0.000000000     5.064803764   0   0   0 # feok
    549      1   3  1.575000    13.081313724    22.657500000    12.519337098   0   0   0 # feok
    550      1   3  1.575000    15.988272330    22.657500000     3.372670431   0   0   0 # feok
    551      1   3  1.575000    14.534793027     0.000000000     7.946003764   0   0   0 # feok
    552      1   1 -1.050000    14.389445097    21.902250000    17.938737098   0   0   0 # obsk
    553      1   1 -1.050000    17.296403702    21.902250000    22.512070431   0   0   0 # obsk
    554      1   2 -0.950000    15.842924399    24.419750000    27.085403764   0   0   0 # ohk
    555      1   1 -1.050000    13.081313724    24.168000000    17.938737098   0   0   0 # obsk
    556      1   1 -1.050000    15.988272330    24.168000000    22.512070431   0   0   0 # obsk
    557      1   2 -0.950000    14.534793027     1.510500000    27.085403764   0   0   0 # ohk
    558      1   1 -1.050000    16.133620260    24.419750000    17.938737098   0   0   0 # obsk
    559      1   1 -1.050000    14.680140957    21.902250000    22.512070431   0   0   0 # obsk
    560      1   2 -0.950000    13.226661654    24.419750000    27.085403764   0   0   0 # ohk
    561      1   1 -1.050000    16.133620260    20.895250000    24.798737098   0   0   0 # obsk
    562      1   1 -1.050000    14.680140957    23.412750000    15.652070431   0   0   0 # obsk
    563      1   1 -1.050000    13.226661654     0.755250000    20.225403764   0   0   0 # obsk
    564      1   1 -1.050000    13.081313724     1.007000000    24.798737098   0   0   0 # obsk
    565      1   1 -1.050000    15.988272330    21.147000000    15.652070431   0   0   0 # obsk
    566      1   1 -1.050000    14.534793027    23.664500000    20.225403764   0   0   0 # obsk
    567      1   1 -1.050000    14.389445097    23.412750000    24.798737098   0   0   0 # obsk
    568      1   1 -1.050000    17.296403702    23.412750000    15.652070431   0   0   0 # obsk
    569      1   1 -1.050000    15.842924399     0.755250000    20.225403764   0   0   0 # obsk
    570      1   3  1.575000    13.081313724    22.657500000    19.379337098   0   0   0 # feok
    571      1   3  1.575000    15.988272330    22.657500000    23.952670431   0   0   0 # feok
    572      1   3  1.575000    14.534793027     0.000000000    14.806003764   0   0   0 # feok
    573      1   3  1.575000    13.081313724    22.657500000    16.498137098   0   0   0 # feok
    574      1   3  1.575000    15.988272330    22.657500000    21.071470431   0   0   0 # feok
    575      1   3  1.575000    14.534793027     0.000000000    25.644803764   0   0   0 # feok
    576      1   3  1.575000    13.081313724    22.657500000    23.358137098   0   0   0 # feok
    577      1   3  1.575000    14.534793027     0.000000000    18.784803764   0   0   0 # feok
    578      1   3  1.575000    13.081313724    22.657500000    26.239337098   0   0   0 # feok
    579      1   3  1.575000    15.988272330    22.657500000    17.092670431   0   0   0 # feok
    580      1   3  1.575000    14.534793027     0.000000000    21.666003764   0   0   0 # feok
    581      1   1 -1.050000    18.749883005    19.384750000     4.218737098   0   0   0 # obsk
    582      1   1 -1.050000    21.656841610    19.384750000     8.792070431   0   0   0 # obsk
    583      1   1 -1.050000    20.203362307    21.902250000    13.365403764   0   0   0 # obsk
    584      1   1 -1.050000    17.441751632    21.650500000     4.218737098   0   0   0 # obsk
    585      1   1 -1.050000    20.348710238    21.650500000     8.792070431   0   0   0 # obsk
    586      1   1 -1.050000    18.895230935    24.168000000    13.365403764   0   0   0 # obsk
    587      1   1 -1.050000    20.494058168    21.902250000     4.218737098   0   0   0 # obsk
    588      1   1 -1.050000    19.040578865    19.384750000     8.792070431   0   0   0 # obsk
    589      1   1 -1.050000    17.587099562    21.902250000    13.365403764   0   0   0 # obsk
    590      1   1 -1.050000    20.494058168    18.377750000    11.078737098   0   0   0 # obsk
    591      1   2 -0.950000    19.040578865    20.895250000     1.932070431   0   0   0 # ohk
    592      1   1 -1.050000    17.587099562    23.412750000     6.505403764   0   0   0 # obsk
    593      1   1 -1.050000    17.441751632    23.664500000    11.078737098   0   0   0 # obsk
    594      1   2 -0.950000    20.348710238    18.629500000     1.932070431   0   0   0 # ohk
    595      1   1 -1.050000    18.895230935    21.147000000     6.505403764   0   0   0 # obsk
    596      1   1 -1.050000    18.749883005    20.895250000    11.078737098   0   0   0 # obsk
    597      1   2 -0.950000    21.656841610    20.895250000     1.932070431   0   0   0 # ohk
    598      1   1 -1.050000    20.203362307    23.412750000     6.505403764   0   0   0 # obsk
    599      1   3  1.575000    17.441751632    20.140000000     5.659337098   0   0   0 # feok
    600      1   3  1.575000    20.348710238    20.140000000    10.232670431   0   0   0 # feok
    601      1   3  1.575000    17.441751632    20.140000000     2.778137098   0   0   0 # feok
    602      1   3  1.575000    20.348710238    20.140000000     7.351470431   0   0   0 # feok
    603      1   3  1.575000    18.895230935    22.657500000    11.924803764   0   0   0 # feok
    604      1   3  1.575000    17.441751632    20.140000000     9.638137098   0   0   0 # feok
    605      1   3  1.575000    20.348710238    20.140000000    14.211470431   0   0   0 # feok
    606      1   3  1.575000    18.895230935    22.657500000     5.064803764   0   0   0 # feok
    607      1   3  1.575000    17.441751632    20.140000000    12.519337098   0   0   0 # feok
    608      1   3  1.575000    20.348710238    20.140000000     3.372670431   0   0   0 # feok
    609      1   3  1.575000    18.895230935    22.657500000     7.946003764   0   0   0 # feok
    610      1   1 -1.050000    18.749883005    19.384750000    17.938737098   0   0   0 # obsk
    611      1   1 -1.050000    21.656841610    19.384750000    22.512070431   0   0   0 # obsk
    612      1   2 -0.950000    20.203362307    21.902250000    27.085403764   0   0   0 # ohk
    613      1   1 -1.050000    17.441751632    21.650500000    17.938737098   0   0   0 # obsk
    614      1   1 -1.050000    20.348710238    21.650500000    22.512070431   0   0   0 # obsk
    615      1   2 -0.950000    18.895230935    24.168000000    27.085403764   0   0   0 # ohk
    616      1   1 -1.050000    20.494058168    21.902250000    17.938737098   0   0   0 # obsk
    617      1   1 -1.050000    19.040578865    19.384750000    22.512070431   0   0   0 # obsk
    618      1   2 -0.950000    17.587099562    21.902250000    27.085403764   0   0   0 # ohk
    619      1   1 -1.050000    20.494058168    18.377750000    24.798737098   0   0   0 # obsk
    620      1   1 -1.050000    19.040578865    20.895250000    15.652070431   0   0   0 # obsk
    621      1   1 -1.050000    17.587099562    23.412750000    20.225403764   0   0   0 # obsk
    622      1   1 -1.050000    17.441751632    23.664500000    24.798737098   0   0   0 # obsk
    623      1   1 -1.050000    20.348710238    18.629500000    15.652070431   0   0   0 # obsk
    624      1   1 -1.050000    18.895230935    21.147000000    20.225403764   0   0   0 # obsk
    625      1   1 -1.050000    18.749883005    20.895250000    24.798737098   0   0   0 # obsk
    626      1   1 -1.050000    21.656841610    20.895250000    15.652070431   0   0   0 # obsk
    627      1   1 -1.050000    20.203362307    23.412750000    20.225403764   0   0   0 # obsk
    628      1   3  1.575000    17.441751632    20.140000000    19.379337098   0   0   0 # feok
    629      1   3  1.575000    20.348710238    20.140000000    23.952670431   0   0   0 # feok
    630      1   3  1.575000    18.895230935    22.657500000    14.806003764   0   0   0 # feok
    631      1   3  1.575000    17.441751632    20.140000000    16.498137098   0   0   0 # feok
    632      1   3  1.575000    20.348710238    20.140000000    21.071470431   0   0   0 # feok
    633      1   3  1.575000    18.895230935    22.657500000    25.644803764   0   0   0 # feok
    634      1   3  1.575000    17.441751632    20.140000000    23.358137098   0   0   0 # feok
    635      1   3  1.575000    18.895230935    22.657500000    18.784803764   0   0   0 # feok
    636      1   3  1.575000    17.441751632    20.140000000    26.239337098   0   0   0 # feok
    637      1   3  1.575000    20.348710238    20.140000000    17.092670431   0   0   0 # feok
    638      1   3  1.575000    18.895230935    22.657500000    21.666003764   0   0   0 # feok
    639      1   1 -1.050000    23.110320913    16.867250000     4.218737098   0   0   0 # obsk
    640      1   1 -1.050000    -0.144620482    16.867250000     8.792070431   1   0   0 # obsk
    641      1   1 -1.050000    24.563800215    19.384750000    13.365403764   0   0   0 # obsk
    642      1   1 -1.050000    21.802189540    19.133000000     4.218737098   0   0   0 # obsk
    643      1   1 -1.050000    24.709148146    19.133000000     8.792070431   0   0   0 # obsk
    644      1   1 -1.050000    23.255668843    21.650500000    13.365403764   0   0   0 # obsk
    645      1   1 -1.050000    24.854496076    19.384750000     4.218737098   0   0   0 # obsk
    646      1   1 -1.050000    23.401016773    16.867250000     8.792070431   0   0   0 # obsk
    647      1   1 -1.050000    21.947537471    19.384750000    13.365403764   0   0   0 # obsk
    648      1   1 -1.050000    24.854496076    15.860250000    11.078737098   0   0   0 # obsk
    649      1   2 -0.950000    23.401016773    18.377750000     1.932070431   0   0   0 # ohk
    650      1   1 -1.050000    21.947537471    20.895250000     6.505403764   0   0   0 # obsk
    651      1   1 -1.050000    21.802189540    21.147000000    11.078737098   0   0   0 # obsk
    652      1   2 -0.950000    24.709148146    16.112000000     1.932070431   0   0   0 # ohk
    653      1   1 -1.050000    23.255668843    18.629500000     6.505403764   0   0   0 # obsk
    654      1   1 -1.050000    23.110320913    18.377750000    11.078737098   0   0   0 # obsk
    655      1   2 -0.950000    -0.144620482    18.377750000     1.932070431   1   0   0 # ohk
    656      1   1 -1.050000    24.563800215    20.895250000     6.505403764   0   0   0 # obsk
    657      1   3  1.575000    21.802189540    17.622500000     5.659337098   0   0   0 # feok
    658      1   3  1.575000    24.709148146    17.622500000    10.232670431   0   0   0 # feok
    659      1   3  1.575000    21.802189540    17.622500000     2.778137098   0   0   0 # feok
    660      1   3  1.575000    24.709148146    17.622500000     7.351470431   0   0   0 # feok
    661      1   3  1.575000    23.255668843    20.140000000    11.924803764   0   0   0 # feok
    662      1   3  1.575000    21.802189540    17.622500000     9.638137098   0   0   0 # feok
    663      1   3  1.575000    24.709148146    17.622500000    14.211470431   0   0   0 # feok
    664      1   3  1.575000    23.255668843    20.140000000     5.064803764   0   0   0 # feok
    665      1   3  1.575000    21.802189540    17.622500000    12.519337098   0   0   0 # feok
    666      1   3  1.575000    24.709148146    17.622500000     3.372670431   0   0   0 # feok
    667      1   3  1.575000    23.255668843    20.140000000     7.946003764   0   0   0 # feok
    668      1   1 -1.050000    23.110320913    16.867250000    17.938737098   0   0   0 # obsk
    669      1   1 -1.050000    -0.144620482    16.867250000    22.512070431   1   0   0 # obsk
    670      1   2 -0.950000    24.563800215    19.384750000    27.085403764   0   0   0 # ohk
    671      1   1 -1.050000    21.802189540    19.133000000    17.938737098   0   0   0 # obsk
    672      1   1 -1.050000    24.709148146    19.133000000    22.512070431   0   0   0 # obsk
    673      1   2 -0.950000    23.255668843    21.650500000    27.085403764   0   0   0 # ohk
    674      1   1 -1.050000    24.854496076    19.384750000    17.938737098   0   0   0 # obsk
    675      1   1 -1.050000    23.401016773    16.867250000    22.512070431   0   0   0 # obsk
    676      1   2 -0.950000    21.947537471    19.384750000    27.085403764   0   0   0 # ohk
    677      1   1 -1.050000    24.854496076    15.860250000    24.798737098   0   0   0 # obsk
    678      1   1 -1.050000    23.401016773    18.377750000    15.652070431   0   0   0 # obsk
    679      1   1 -1.050000    21.947537471    20.895250000    20.225403764   0   0   0 # obsk
    680      1   1 -1.050000    21.802189540    21.147000000    24.798737098   0   0   0 # obsk
    681      1   1 -1.050000    24.709148146    16.112000000    15.652070431   0   0   0 # obsk
    682      1   1 -1.050000    23.255668843    18.629500000    20.225403764   0   0   0 # obsk
    683      1   1 -1.050000    23.110320913    18.377750000    24.798737098   0   0   0 # obsk
    684      1   1 -1.050000    -0.144620482    18.377750000    15.652070431   1   0   0 # obsk
    685      1   1 -1.050000    24.563800215    20.895250000    20.225403764   0   0   0 # obsk
    686      1   3  1.575000    21.802189540    17.622500000    19.379337098   0   0   0 # feok
    687      1   3  1.575000    24.709148146    17.622500000    23.952670431   0   0   0 # feok
    688      1   3  1.575000    23.255668843    20.140000000    14.806003764   0   0   0 # feok
    689      1   3  1.575000    21.802189540    17.622500000    16.498137098   0   0   0 # feok
    690      1   3  1.575000    24.709148146    17.622500000    21.071470431   0   0   0 # feok
    691      1   3  1.575000    23.255668843    20.140000000    25.644803764   0   0   0 # feok
    692      1   3  1.575000    21.802189540    17.622500000    23.358137098   0   0   0 # feok
    693      1   3  1.575000    23.255668843    20.140000000    18.784803764   0   0   0 # feok
    694      1   3  1.575000    21.802189540    17.622500000    26.239337098   0   0   0 # feok
    695      1   3  1.575000    24.709148146    17.622500000    17.092670431   0   0   0 # feok
    696      1   3  1.575000    23.255668843    20.140000000    21.666003764   0   0   0 # feok
    697      1   1 -1.050000     1.308131372     9.314750000     4.218737098   0   0   0 # obsk
    698      1   1 -1.050000     4.215089978     9.314750000     8.792070431   0   0   0 # obsk
    699      1   1 -1.050000     2.761610675    11.832250000    13.365403764   0   0   0 # obsk
    700      1   1 -1.050000     0.000000000    11.580500000     4.218737098   0   0   0 # obsk
    701      1   1 -1.050000     2.906958605    11.580500000     8.792070431   0   0   0 # obsk
    702      1   1 -1.050000     1.453479303    14.098000000    13.365403764   0   0   0 # obsk
    703      1   1 -1.050000     3.052306536    11.832250000     4.218737098   0   0   0 # obsk
    704      1   1 -1.050000     1.598827233     9.314750000     8.792070431   0   0   0 # obsk
    705      1   1 -1.050000     0.145347930    11.832250000    13.365403764   0   0   0 # obsk
    706      1   1 -1.050000     3.052306536     8.307750000    11.078737098   0   0   0 # obsk
    707      1   2 -0.950000     1.598827233    10.825250000     1.932070431   0   0   0 # ohk
    708      1   1 -1.050000     0.145347930    13.342750000     6.505403764   0   0   0 # obsk
    709      1   1 -1.050000     0.000000000    13.594500000    11.078737098   0   0   0 # obsk
    710      1   2 -0.950000     2.906958605     8.559500000     1.932070431   0   0   0 # ohk
    711      1   1 -1.050000     1.453479303    11.077000000     6.505403764   0   0   0 # obsk
    712      1   1 -1.050000     1.308131372    10.825250000    11.078737098   0   0   0 # obsk
    713      1   2 -0.950000     4.215089978    10.825250000     1.932070431   0   0   0 # ohk
    714      1   1 -1.050000     2.761610675    13.342750000     6.505403764   0   0   0 # obsk
    715      1   3  1.575000     0.000000000    10.070000000     5.659337098   0   0   0 # feok
    716      1   3  1.575000     2.906958605    10.070000000    10.232670431   0   0   0 # feok
    717      1   3  1.575000     0.000000000    10.070000000     2.778137098   0   0   0 # feok
    718      1   3  1.575000     2.906958605    10.070000000     7.351470431   0   0   0 # feok
    719      1   3  1.575000     1.453479303    12.587500000    11.924803764   0   0   0 # feok
    720      1   3  1.575000     0.000000000    10.070000000     9.638137098   0   0   0 # feok
    721      1   3  1.575000     2.906958605    10.070000000    14.211470431   0   0   0 # feok
    722      1   3  1.575000     1.453479303    12.587500000     5.064803764   0   0   0 # feok
    723      1   3  1.575000     0.000000000    10.070000000    12.519337098   0   0   0 # feok
    724      1   3  1.575000     2.906958605    10.070000000     3.372670431   0   0   0 # feok
    725      1   3  1.575000     1.453479303    12.587500000     7.946003764   0   0   0 # feok
    726      1   1 -1.050000     1.308131372     9.314750000    17.938737098   0   0   0 # obsk
    727      1   1 -1.050000     4.215089978     9.314750000    22.512070431   0   0   0 # obsk
    728      1   2 -0.950000     2.761610675    11.832250000    27.085403764   0   0   0 # ohk
    729      1   1 -1.050000     0.000000000    11.580500000    17.938737098   0   0   0 # obsk
    730      1   1 -1.050000     2.906958605    11.580500000    22.512070431   0   0   0 # obsk
    731      1   2 -0.950000     1.453479303    14.098000000    27.085403764   0   0   0 # ohk
    732      1   1 -1.050000     3.052306536    11.832250000    17.938737098   0   0   0 # obsk
    733      1   1 -1.050000     1.598827233     9.314750000    22.512070431   0   0   0 # obsk
    734      1   2 -0.950000     0.145347930    11.832250000    27.085403764   0   0   0 # ohk
    735      1   1 -1.050000     3.052306536     8.307750000    24.798737098   0   0   0 # obsk
    736      1   1 -1.050000     1.598827233    10.825250000    15.652070431   0   0   0 # obsk
    737      1   1 -1.050000     0.145347930    13.342750000    20.225403764   0   0   0 # obsk
    738      1   1 -1.050000     0.000000000    13.594500000    24.798737098   0   0   0 # obsk
    739      1   1 -1.050000     2.906958605     8.559500000    15.652070431   0   0   0 # obsk
    740      1   1 -1.050000     1.453479303    11.077000000    20.225403764   0   0   0 # obsk
    741      1   1 -1.050000     1.308131372    10.825250000    24.798737098   0   0   0 # obsk
    742      1   1 -1.050000     4.215089978    10.825250000    15.652070431   0   0   0 # obsk
    743      1   1 -1.050000     2.761610675    13.342750000    20.225403764   0   0   0 # obsk
    744      1   3  1.575000     0.000000000    10.070000000    19.379337098   0   0   0 # feok
    745      1   3  1.575000     2.906958605    10.070000000    23.952670431   0   0   0 # feok
    746      1   3  1.575000     1.453479303    12.587500000    14.806003764   0   0   0 # feok
    747      1   3  1.575000     0.000000000    10.070000000    16.498137098   0   0   0 # feok
    748      1   3  1.575000     2.906958605    10.070000000    21.071470431   0   0   0 # feok
    749      1   3  1.575000     1.453479303    12.587500000    25.644803764   0   0   0 # feok
    750      1   3  1.575000     0.000000000    10.070000000    23.358137098   0   0   0 # feok
    751      1   3  1.575000     1.453479303    12.587500000    18.784803764   0   0   0 # feok
    752      1   3  1.575000     0.000000000    10.070000000    26.239337098   0   0   0 # feok
    753      1   3  1.575000     2.906958605    10.070000000    17.092670431   0   0   0 # feok
    754      1   3  1.575000     1.453479303    12.587500000    21.666003764   0   0   0 # feok
    755      1   1 -1.050000     5.668569280     6.797250000     4.218737098   0   0   0 # obsk
    756      1   1 -1.050000     8.575527886     6.797250000     8.792070431   0   0   0 # obsk
    757      1   1 -1.050000     7.122048583     9.314750000    13.365403764   0   0   0 # obsk
    758      1   1 -1.050000     4.360437908     9.063000000     4.218737098   0   0   0 # obsk
    759      1   1 -1.050000     7.267396513     9.063000000     8.792070431   0   0   0 # obsk
    760      1   1 -1.050000     5.813917211    11.580500000    13.365403764   0   0   0 # obsk
    761      1   1 -1.050000     7.412744444     9.314750000     4.218737098   0   0   0 # obsk
    762      1   1 -1.050000     5.959265141     6.797250000     8.792070431   0   0   0 # obsk
    763      1   1 -1.050000     4.505785838     9.314750000    13.365403764   0   0   0 # obsk
    764      1   1 -1.050000     7.412744444     5.790250000    11.078737098   0   0   0 # obsk
    765      1   2 -0.950000     5.959265141     8.307750000     1.932070431   0   0   0 # ohk
    766      1   1 -1.050000     4.505785838    10.825250000     6.505403764   0   0   0 # obsk
    767      1   1 -1.050000     4.360437908    11.077000000    11.078737098   0   0   0 # obsk
    768      1   2 -0.950000     7.267396513     6.042000000     1.932070431   0   0   0 # ohk
    769      1   1 -1.050000     5.813917211     8.559500000     6.505403764   0   0   0 # obsk
    770      1   1 -1.050000     5.668569280     8.307750000    11.078737098   0   0   0 # obsk
    771      1   2 -0.950000     8.575527886     8.307750000     1.932070431   0   0   0 # ohk
    772      1   1 -1.050000     7.122048583    10.825250000     6.505403764   0   0   0 # obsk
    773      1   3  1.575000     4.360437908     7.552500000     5.659337098   0   0   0 # feok
    774      1   3  1.575000     7.267396513     7.552500000    10.232670431   0   0   0 # feok
    775      1   3  1.575000     4.360437908     7.552500000     2.778137098   0   0   0 # feok
    776      1   3  1.575000     7.267396513     7.552500000     7.351470431   0   0   0 # feok
    777      1   3  1.575000     5.813917211    10.070000000    11.924803764   0   0   0 # feok
    778      1   3  1.575000     4.360437908     7.552500000     9.638137098   0   0   0 # feok
    779      1   3  1.575000     7.267396513     7.552500000    14.211470431   0   0   0 # feok
    780      1   3  1.575000     5.813917211    10.070000000     5.064803764   0   0   0 # feok
    781      1   3  1.575000     4.360437908     7.552500000    12.519337098   0   0   0 # feok
    782      1   3  1.575000     7.267396513     7.552500000     3.372670431   0   0   0 # feok
    783      1   3  1.575000     5.813917211    10.070000000     7.946003764   0   0   0 # feok
    784      1   1 -1.050000     5.668569280     6.797250000    17.938737098   0   0   0 # obsk
    785      1   1 -1.050000     8.575527886     6.797250000    22.512070431   0   0   0 # obsk
    786      1   2 -0.950000     7.122048583     9.314750000    27.085403764   0   0   0 # ohk
    787      1   1 -1.050000     4.360437908     9.063000000    17.938737098   0   0   0 # obsk
    788      1   1 -1.050000     7.267396513     9.063000000    22.512070431   0   0   0 # obsk
    789      1   2 -0.950000     5.813917211    11.580500000    27.085403764   0   0   0 # ohk
    790      1   1 -1.050000     7.412744444     9.314750000    17.938737098   0   0   0 # obsk
    791      1   1 -1.050000     5.959265141     6.797250000    22.512070431   0   0   0 # obsk
    792      1   2 -0.950000     4.505785838     9.314750000    27.085403764   0   0   0 # ohk
    793      1   1 -1.050000     7.412744444     5.790250000    24.798737098   0   0   0 # obsk
    794      1   1 -1.050000     5.959265141     8.307750000    15.652070431   0   0   0 # obsk
    795      1   1 -1.050000     4.505785838    10.825250000    20.225403764   0   0   0 # obsk
    796      1   1 -1.050000     4.360437908    11.077000000    24.798737098   0   0   0 # obsk
    797      1   1 -1.050000     7.267396513     6.042000000    15.652070431   0   0   0 # obsk
    798      1   1 -1.050000     5.813917211     8.559500000    20.225403764   0   0   0 # obsk
    799      1   1 -1.050000     5.668569280     8.307750000    24.798737098   0   0   0 # obsk
    800      1   1 -1.050000     8.575527886     8.307750000    15.652070431   0   0   0 # obsk
    801      1   1 -1.050000     7.122048583    10.825250000    20.225403764   0   0   0 # obsk
    802      1   3  1.575000     4.360437908     7.552500000    19.379337098   0   0   0 # feok
    803      1   3  1.575000     7.267396513     7.552500000    23.952670431   0   0   0 # feok
    804      1   3  1.575000     5.813917211    10.070000000    14.806003764   0   0   0 # feok
    805      1   3  1.575000     4.360437908     7.552500000    16.498137098   0   0   0 # feok
    806      1   3  1.575000     7.267396513     7.552500000    21.071470431   0   0   0 # feok
    807      1   3  1.575000     5.813917211    10.070000000    25.644803764   0   0   0 # feok
    808      1   3  1.575000     4.360437908     7.552500000    23.358137098   0   0   0 # feok
    809      1   3  1.575000     5.813917211    10.070000000    18.784803764   0   0   0 # feok
    810      1   3  1.575000     4.360437908     7.552500000    26.239337098   0   0   0 # feok
    811      1   3  1.575000     7.267396513     7.552500000    17.092670431   0   0   0 # feok
    812      1   3  1.575000     5.813917211    10.070000000    21.666003764   0   0   0 # feok
    813      1   1 -1.050000    10.029007189     4.279750000     4.218737098   0   0   0 # obsk
    814      1   1 -1.050000    12.935965794     4.279750000     8.792070431   0   0   0 # obsk
    815      1   1 -1.050000    11.482486491     6.797250000    13.365403764   0   0   0 # obsk
    816      1   1 -1.050000     8.720875816     6.545500000     4.218737098   0   0   0 # obsk
    817      1   1 -1.050000    11.627834421     6.545500000     8.792070431   0   0   0 # obsk
    818      1   1 -1.050000    10.174355119     9.063000000    13.365403764   0   0   0 # obsk
    819      1   1 -1.050000    11.773182352     6.797250000     4.218737098   0   0   0 # obsk
    820      1   1 -1.050000    10.319703049     4.279750000     8.792070431   0   0   0 # obsk
    821      1   1 -1.050000     8.866223746     6.797250000    13.365403764   0   0   0 # obsk
    822      1   1 -1.050000    11.773182352     3.272750000    11.078737098   0   0   0 # obsk
    823      1   2 -0.950000    10.319703049     5.790250000     1.932070431   0   0   0 # ohk
    824      1   1 -1.050000     8.866223746     8.307750000     6.505403764   0   0   0 # obsk
    825      1   1 -1.050000     8.720875816     8.559500000    11.078737098   0   0   0 # obsk
    826      1   2 -0.950000    11.627834421     3.524500000     1.932070431   0   0   0 # ohk
    827      1   1 -1.050000    10.174355119     6.042000000     6.505403764   0   0   0 # obsk
    828      1   1 -1.050000    10.029007189     5.790250000    11.078737098   0   0   0 # obsk
    829      1   2 -0.950000    12.935965794     5.790250000     1.932070431   0   0   0 # ohk
    830      1   1 -1.050000    11.482486491     8.307750000     6.505403764   0   0   0 # obsk
    831      1   3  1.575000     8.720875816     5.035000000     5.659337098   0   0   0 # feok
    832      1   3  1.575000    11.627834421     5.035000000    10.232670431   0   0   0 # feok
    833      1   3  1.575000     8.720875816     5.035000000     2.778137098   0   0   0 # feok
    834      1   3  1.575000    11.627834421     5.035000000     7.351470431   0   0   0 # feok
    835      1   3  1.575000    10.174355119     7.552500000    11.924803764   0   0   0 # feok
    836      1   3  1.575000     8.720875816     5.035000000     9.638137098   0   0   0 # feok
    837      1   3  1.575000    11.627834421     5.035000000    14.211470431   0   0   0 # feok
    838      1   3  1.575000    10.174355119     7.552500000     5.064803764   0   0   0 # feok
    839      1   3  1.575000     8.720875816     5.035000000    12.519337098   0   0   0 # feok
    840      1   3  1.575000    11.627834421     5.035000000     3.372670431   0   0   0 # feok
    841      1   3  1.575000    10.174355119     7.552500000     7.946003764   0   0   0 # feok
    842      1   1 -1.050000    10.029007189     4.279750000    17.938737098   0   0   0 # obsk
    843      1   1 -1.050000    12.935965794     4.279750000    22.512070431   0   0   0 # obsk
    844      1   2 -0.950000    11.482486491     6.797250000    27.085403764   0   0   0 # ohk
    845      1   1 -1.050000     8.720875816     6.545500000    17.938737098   0   0   0 # obsk
    846      1   1 -1.050000    11.627834421     6.545500000    22.512070431   0   0   0 # obsk
    847      1   2 -0.950000    10.174355119     9.063000000    27.085403764   0   0   0 # ohk
    848      1   1 -1.050000    11.773182352     6.797250000    17.938737098   0   0   0 # obsk
    849      1   1 -1.050000    10.319703049     4.279750000    22.512070431   0   0   0 # obsk
    850      1   2 -0.950000     8.866223746     6.797250000    27.085403764   0   0   0 # ohk
    851      1   1 -1.050000    11.773182352     3.272750000    24.798737098   0   0   0 # obsk
    852      1   1 -1.050000    10.319703049     5.790250000    15.652070431   0   0   0 # obsk
    853      1   1 -1.050000     8.866223746     8.307750000    20.225403764   0   0   0 # obsk
    854      1   1 -1.050000     8.720875816     8.559500000    24.798737098   0   0   0 # obsk
    855      1   1 -1.050000    11.627834421     3.524500000    15.652070431   0   0   0 # obsk
    856      1   1 -1.050000    10.174355119     6.042000000    20.225403764   0   0   0 # obsk
    857      1   1 -1.050000    10.029007189     5.790250000    24.798737098   0   0   0 # obsk
    858      1   1 -1.050000    12.935965794     5.790250000    15.652070431   0   0   0 # obsk
    859      1   1 -1.050000    11.482486491     8.307750000    20.225403764   0   0   0 # obsk
    860      1   3  1.575000     8.720875816     5.035000000    19.379337098   0   0   0 # feok
    861      1   3  1.575000    11.627834421     5.035000000    23.952670431   0   0   0 # feok
    862      1   3  1.575000    10.174355119     7.552500000    14.806003764   0   0   0 # feok
    863      1   3  1.575000     8.720875816     5.035000000    16.498137098   0   0   0 # feok
    864      1   3  1.575000    11.627834421     5.035000000    21.071470431   0   0   0 # feok
    865      1   3  1.575000    10.174355119     7.552500000    25.644803764   0   0   0 # feok
    866      1   3  1.575000     8.720875816     5.035000000    23.358137098   0   0   0 # feok
    867      1   3  1.575000    10.174355119     7.552500000    18.784803764   0   0   0 # feok
    868      1   3  1.575000     8.720875816     5.035000000    26.239337098   0   0   0 # feok
    869      1   3  1.575000    11.627834421     5.035000000    17.092670431   0   0   0 # feok
    870      1   3  1.575000    10.174355119     7.552500000    21.666003764   0   0   0 # feok
    871      1   1 -1.050000    14.389445097     1.762250000     4.218737098   0   0   0 # obsk
    872      1   1 -1.050000    17.296403702     1.762250000     8.792070431   0   0   0 # obsk
    873      1   1 -1.050000    15.842924399     4.279750000    13.365403764   0   0   0 # obsk
    874      1   1 -1.050000    13.081313724     4.028000000     4.218737098   0   0   0 # obsk
    875      1   1 -1.050000    15.988272330     4.028000000     8.792070431   0   0   0 # obsk
    876      1   1 -1.050000    14.534793027     6.545500000    13.365403764   0   0   0 # obsk
    877      1   1 -1.050000    16.133620260     4.279750000     4.218737098   0   0   0 # obsk
    878      1   1 -1.050000    14.680140957     1.762250000     8.792070431   0   0   0 # obsk
    879      1   1 -1.050000    13.226661654     4.279750000    13.365403764   0   0   0 # obsk
    880      1   1 -1.050000    16.133620260     0.755250000    11.078737098   0   0   0 # obsk
    881      1   2 -0.950000    14.680140957     3.272750000     1.932070431   0   0   0 # ohk
    882      1   1 -1.050000    13.226661654     5.790250000     6.505403764   0   0   0 # obsk
    883      1   1 -1.050000    13.081313724     6.042000000    11.078737098   0   0   0 # obsk
    884      1   2 -0.950000    15.988272330     1.007000000     1.932070431   0   0   0 # ohk
    885      1   1 -1.050000    14.534793027     3.524500000     6.505403764   0   0   0 # obsk
    886      1   1 -1.050000    14.389445097     3.272750000    11.078737098   0   0   0 # obsk
    887      1   2 -0.950000    17.296403702     3.272750000     1.932070431   0   0   0 # ohk
    888      1   1 -1.050000    15.842924399     5.790250000     6.505403764   0   0   0 # obsk
    889      1   3  1.575000    13.081313724     2.517500000     5.659337098   0   0   0 # feok
    890      1   3  1.575000    15.988272330     2.517500000    10.232670431   0   0   0 # feok
    891      1   3  1.575000    13.081313724     2.517500000     2.778137098   0   0   0 # feok
    892      1   3  1.575000    15.988272330     2.517500000     7.351470431   0   0   0 # feok
    893      1   3  1.575000    14.534793027     5.035000000    11.924803764   0   0   0 # feok
    894      1   3  1.575000    13.081313724     2.517500000     9.638137098   0   0   0 # feok
    895      1   3  1.575000    15.988272330     2.517500000    14.211470431   0   0   0 # feok
    896      1   3  1.575000    14.534793027     5.035000000     5.064803764   0   0   0 # feok
    897      1   3  1.575000    13.081313724     2.517500000    12.519337098   0   0   0 # feok
    898      1   3  1.575000    15.988272330     2.517500000     3.372670431   0   0   0 # feok
    899      1   3  1.575000    14.534793027     5.035000000     7.946003764   0   0   0 # feok
    900      1   1 -1.050000    14.389445097     1.762250000    17.938737098   0   0   0 # obsk
    901      1   1 -1.050000    17.296403702     1.762250000    22.512070431   0   0   0 # obsk
    902      1   2 -0.950000    15.842924399     4.279750000    27.085403764   0   0   0 # ohk
    903      1   1 -1.050000    13.081313724     4.028000000    17.938737098   0   0   0 # obsk
    904      1   1 -1.050000    15.988272330     4.028000000    22.512070431   0   0   0 # obsk
    905      1   2 -0.950000    14.534793027     6.545500000    27.085403764   0   0   0 # ohk
    906      1   1 -1.050000    16.133620260     4.279750000    17.938737098   0   0   0 # obsk
    907      1   1 -1.050000    14.680140957     1.762250000    22.512070431   0   0   0 # obsk
    908      1   2 -0.950000    13.226661654     4.279750000    27.085403764   0   0   0 # ohk
    909      1   1 -1.050000    16.133620260     0.755250000    24.798737098   0   0   0 # obsk
    910      1   1 -1.050000    14.680140957     3.272750000    15.652070431   0   0   0 # obsk
    911      1   1 -1.050000    13.226661654     5.790250000    20.225403764   0   0   0 # obsk
    912      1   1 -1.050000    13.081313724     6.042000000    24.798737098   0   0   0 # obsk
    913      1   1 -1.050000    15.988272330     1.007000000    15.652070431   0   0   0 # obsk
    914      1   1 -1.050000    14.534793027     3.524500000    20.225403764   0   0   0 # obsk
    915      1   1 -1.050000    14.389445097     3.272750000    24.798737098   0   0   0 # obsk
    916      1   1 -1.050000    17.296403702     3.272750000    15.652070431   0   0   0 # obsk
    917      1   1 -1.050000    15.842924399     5.790250000    20.225403764   0   0   0 # obsk
    918      1   3  1.575000    13.081313724     2.517500000    19.379337098   0   0   0 # feok
    919      1   3  1.575000    15.988272330     2.517500000    23.952670431   0   0   0 # feok
    920      1   3  1.575000    14.534793027     5.035000000    14.806003764   0   0   0 # feok
    921      1   3  1.575000    13.081313724     2.517500000    16.498137098   0   0   0 # feok
    922      1   3  1.575000    15.988272330     2.517500000    21.071470431   0   0   0 # feok
    923      1   3  1.575000    14.534793027     5.035000000    25.644803764   0   0   0 # feok
    924      1   3  1.575000    13.081313724     2.517500000    23.358137098   0   0   0 # feok
    925      1   3  1.575000    14.534793027     5.035000000    18.784803764   0   0   0 # feok
    926      1   3  1.575000    13.081313724     2.517500000    26.239337098   0   0   0 # feok
    927      1   3  1.575000    15.988272330     2.517500000    17.092670431   0   0   0 # feok
    928      1   3  1.575000    14.534793027     5.035000000    21.666003764   0   0   0 # feok
    929      1   1 -1.050000    18.749883005    24.419750000     4.218737098   0   0   0 # obsk
    930      1   1 -1.050000    21.656841610    24.419750000     8.792070431   0   0   0 # obsk
    931      1   1 -1.050000    20.203362307     1.762250000    13.365403764   0   0   0 # obsk
    932      1   1 -1.050000    17.441751632     1.510500000     4.218737098   0   0   0 # obsk
    933      1   1 -1.050000    20.348710238     1.510500000     8.792070431   0   0   0 # obsk
    934      1   1 -1.050000    18.895230935     4.028000000    13.365403764   0   0   0 # obsk
    935      1   1 -1.050000    20.494058168     1.762250000     4.218737098   0   0   0 # obsk
    936      1   1 -1.050000    19.040578865    24.419750000     8.792070431   0   0   0 # obsk
    937      1   1 -1.050000    17.587099562     1.762250000    13.365403764   0   0   0 # obsk
    938      1   1 -1.050000    20.494058168    23.412750000    11.078737098   0   0   0 # obsk
    939      1   2 -0.950000    19.040578865     0.755250000     1.932070431   0   0   0 # ohk
    940      1   1 -1.050000    17.587099562     3.272750000     6.505403764   0   0   0 # obsk
    941      1   1 -1.050000    17.441751632     3.524500000    11.078737098   0   0   0 # obsk
    942      1   2 -0.950000    20.348710238    23.664500000     1.932070431   0   0   0 # ohk
    943      1   1 -1.050000    18.895230935     1.007000000     6.505403764   0   0   0 # obsk
    944      1   1 -1.050000    18.749883005     0.755250000    11.078737098   0   0   0 # obsk
    945      1   2 -0.950000    21.656841610     0.755250000     1.932070431   0   0   0 # ohk
    946      1   1 -1.050000    20.203362307     3.272750000     6.505403764   0   0   0 # obsk
    947      1   3  1.575000    17.441751632     0.000000000     5.659337098   0   0   0 # feok
    948      1   3  1.575000    20.348710238     0.000000000    10.232670431   0   0   0 # feok
    949      1   3  1.575000    17.441751632     0.000000000     2.778137098   0   0   0 # feok
    950      1   3  1.575000    20.348710238     0.000000000     7.351470431   0   0   0 # feok
    951      1   3  1.575000    18.895230935     2.517500000    11.924803764   0   0   0 # feok
    952      1   3  1.575000    17.441751632     0.000000000     9.638137098   0   0   0 # feok
    953      1   3  1.575000    20.348710238     0.000000000    14.211470431   0   0   0 # feok
    954      1   3  1.575000    18.895230935     2.517500000     5.064803764   0   0   0 # feok
    955      1   3  1.575000    17.441751632     0.000000000    12.519337098   0   0   0 # feok
    956      1   3  1.575000    20.348710238     0.000000000     3.372670431   0   0   0 # feok
    957      1   3  1.575000    18.895230935     2.517500000     7.946003764   0   0   0 # feok
    958      1   1 -1.050000    18.749883005    24.419750000    17.938737098   0   0   0 # obsk
    959      1   1 -1.050000    21.656841610    24.419750000    22.512070431   0   0   0 # obsk
    960      1   2 -0.950000    20.203362307     1.762250000    27.085403764   0   0   0 # ohk
    961      1   1 -1.050000    17.441751632     1.510500000    17.938737098   0   0   0 # obsk
    962      1   1 -1.050000    20.348710238     1.510500000    22.512070431   0   0   0 # obsk
    963      1   2 -0.950000    18.895230935     4.028000000    27.085403764   0   0   0 # ohk
    964      1   1 -1.050000    20.494058168     1.762250000    17.938737098   0   0   0 # obsk
    965      1   1 -1.050000    19.040578865    24.419750000    22.512070431   0   0   0 # obsk
    966      1   2 -0.950000    17.587099562     1.762250000    27.085403764   0   0   0 # ohk
    967      1   1 -1.050000    20.494058168    23.412750000    24.798737098   0   0   0 # obsk
    968      1   1 -1.050000    19.040578865     0.755250000    15.652070431   0   0   0 # obsk
    969      1   1 -1.050000    17.587099562     3.272750000    20.225403764   0   0   0 # obsk
    970      1   1 -1.050000    17.441751632     3.524500000    24.798737098   0   0   0 # obsk
    971      1   1 -1.050000    20.348710238    23.664500000    15.652070431   0   0   0 # obsk
    972      1   1 -1.050000    18.895230935     1.007000000    20.225403764   0   0   0 # obsk
    973      1   1 -1.050000    18.749883005     0.755250000    24.798737098   0   0   0 # obsk
    974      1   1 -1.050000    21.656841610     0.755250000    15.652070431   0   0   0 # obsk
    975      1   1 -1.050000    20.203362307     3.272750000    20.225403764   0   0   0 # obsk
    976      1   3  1.575000    17.441751632     0.000000000    19.379337098   0   0   0 # feok
    977      1   3  1.575000    20.348710238     0.000000000    23.952670431   0   0   0 # feok
    978      1   3  1.575000    18.895230935     2.517500000    14.806003764   0   0   0 # feok
    979      1   3  1.575000    17.441751632     0.000000000    16.498137098   0   0   0 # feok
    980      1   3  1.575000    20.348710238     0.000000000    21.071470431   0   0   0 # feok
    981      1   3  1.575000    18.895230935     2.517500000    25.644803764   0   0   0 # feok
    982      1   3  1.575000    17.441751632     0.000000000    23.358137098   0   0   0 # feok
    983      1   3  1.575000    18.895230935     2.517500000    18.784803764   0   0   0 # feok
    984      1   3  1.575000    17.441751632     0.000000000    26.239337098   0   0   0 # feok
    985      1   3  1.575000    20.348710238     0.000000000    17.092670431   0   0   0 # feok
    986      1   3  1.575000    18.895230935     2.517500000    21.666003764   0   0   0 # feok
    987      1   1 -1.050000    23.110320913    21.902250000     4.218737098   0   0   0 # obsk
    988      1   1 -1.050000    -0.144620482    21.902250000     8.792070431   1   0   0 # obsk
    989      1   1 -1.050000    24.563800215    24.419750000    13.365403764   0   0   0 # obsk
    990      1   1 -1.050000    21.802189540    24.168000000     4.218737098   0   0   0 # obsk
    991      1   1 -1.050000    24.709148146    24.168000000     8.792070431   0   0   0 # obsk
    992      1   1 -1.050000    23.255668843     1.510500000    13.365403764   0   0   0 # obsk
    993      1   1 -1.050000    24.854496076    24.419750000     4.218737098   0   0   0 # obsk
    994      1   1 -1.050000    23.401016773    21.902250000     8.792070431   0   0   0 # obsk
    995      1   1 -1.050000    21.947537471    24.419750000    13.365403764   0   0   0 # obsk
    996      1   1 -1.050000    24.854496076    20.895250000    11.078737098   0   0   0 # obsk
    997      1   2 -0.950000    23.401016773    23.412750000     1.932070431   0   0   0 # ohk
    998      1   1 -1.050000    21.947537471     0.755250000     6.505403764   0   0   0 # obsk
    999      1   1 -1.050000    21.802189540     1.007000000    11.078737098   0   0   0 # obsk
   1000      1   2 -0.950000    24.709148146    21.147000000     1.932070431   0   0   0 # ohk
   1001      1   1 -1.050000    23.255668843    23.664500000     6.505403764   0   0   0 # obsk
   1002      1   1 -1.050000    23.110320913    23.412750000    11.078737098   0   0   0 # obsk
   1003      1   2 -0.950000    -0.144620482    23.412750000     1.932070431   1   0   0 # ohk
   1004      1   1 -1.050000    24.563800215     0.755250000     6.505403764   0   0   0 # obsk
   1005      1   3  1.575000    21.802189540    22.657500000     5.659337098   0   0   0 # feok
   1006      1   3  1.575000    24.709148146    22.657500000    10.232670431   0   0   0 # feok
   1007      1   3  1.575000    21.802189540    22.657500000     2.778137098   0   0   0 # feok
   1008      1   3  1.575000    24.709148146    22.657500000     7.351470431   0   0   0 # feok
   1009      1   3  1.575000    23.255668843     0.000000000    11.924803764   0   0   0 # feok
   1010      1   3  1.575000    21.802189540    22.657500000     9.638137098   0   0   0 # feok
   1011      1   3  1.575000    24.709148146    22.657500000    14.211470431   0   0   0 # feok
   1012      1   3  1.575000    23.255668843     0.000000000     5.064803764   0   0   0 # feok
   1013      1   3  1.575000    21.802189540    22.657500000    12.519337098   0   0   0 # feok
   1014      1   3  1.575000    24.709148146    22.657500000     3.372670431   0   0   0 # feok
   1015      1   3  1.575000    23.255668843     0.000000000     7.946003764   0   0   0 # feok
   1016      1   1 -1.050000    23.110320913    21.902250000    17.938737098   0   0   0 # obsk
   1017      1   1 -1.050000    -0.144620482    21.902250000    22.512070431   1   0   0 # obsk
   1018      1   2 -0.950000    24.563800215    24.419750000    27.085403764   0   0   0 # ohk
   1019      1   1 -1.050000    21.802189540    24.168000000    17.938737098   0   0   0 # obsk
   1020      1   1 -1.050000    24.709148146    24.168000000    22.512070431   0   0   0 # obsk
   1021      1   2 -0.950000    23.255668843     1.510500000    27.085403764   0   0   0 # ohk
   1022      1   1 -1.050000    24.854496076    24.419750000    17.938737098   0   0   0 # obsk
   1023      1   1 -1.050000    23.401016773    21.902250000    22.512070431   0   0   0 # obsk
   1024      1   2 -0.950000    21.947537471    24.419750000    27.085403764   0   0   0 # ohk
   1025      1   1 -1.050000    24.854496076    20.895250000    24.798737098   0   0   0 # obsk
   1026      1   1 -1.050000    23.401016773    23.412750000    15.652070431   0   0   0 # obsk
   1027      1   1 -1.050000    21.947537471     0.755250000    20.225403764   0   0   0 # obsk
   1028      1   1 -1.050000    21.802189540     1.007000000    24.798737098   0   0   0 # obsk
   1029      1   1 -1.050000    24.709148146    21.147000000    15.652070431   0   0   0 # obsk
   1030      1   1 -1.050000    23.255668843    23.664500000    20.225403764   0   0   0 # obsk
   1031      1   1 -1.050000    23.110320913    23.412750000    24.798737098   0   0   0 # obsk
   1032      1   1 -1.050000    -0.144620482    23.412750000    15.652070431   1   0   0 # obsk
   1033      1   1 -1.050000    24.563800215     0.755250000    20.225403764   0   0   0 # obsk
   1034      1   3  1.575000    21.802189540    22.657500000    19.379337098   0   0   0 # feok
   1035      1   3  1.575000    24.709148146    22.657500000    23.952670431   0   0   0 # feok
   1036      1   3  1.575000    23.255668843     0.000000000    14.806003764   0   0   0 # feok
   1037      1   3  1.575000    21.802189540    22.657500000    16.498137098   0   0   0 # feok
   1038      1   3  1.575000    24.709148146    22.657500000    21.071470431   0   0   0 # feok
   1039      1   3  1.575000    23.255668843     0.000000000    25.644803764   0   0   0 # feok
   1040      1   3  1.575000    21.802189540    22.657500000    23.358137098   0   0   0 # feok
   1041      1   3  1.575000    23.255668843     0.000000000    18.784803764   0   0   0 # feok
   1042      1   3  1.575000    21.802189540    22.657500000    26.239337098   0   0   0 # feok
   1043      1   3  1.575000    24.709148146    22.657500000    17.092670431   0   0   0 # feok
   1044      1   3  1.575000    23.255668843     0.000000000    21.666003764   0   0   0 # feok
   1045      1   1 -1.050000     1.308131372    14.349750000     4.218737098   0   0   0 # obsk
   1046      1   1 -1.050000     4.215089978    14.349750000     8.792070431   0   0   0 # obsk
   1047      1   1 -1.050000     2.761610675    16.867250000    13.365403764   0   0   0 # obsk
   1048      1   1 -1.050000     0.000000000    16.615500000     4.218737098   0   0   0 # obsk
   1049      1   1 -1.050000     2.906958605    16.615500000     8.792070431   0   0   0 # obsk
   1050      1   1 -1.050000     1.453479303    19.133000000    13.365403764   0   0   0 # obsk
   1051      1   1 -1.050000     3.052306536    16.867250000     4.218737098   0   0   0 # obsk
   1052      1   1 -1.050000     1.598827233    14.349750000     8.792070431   0   0   0 # obsk
   1053      1   1 -1.050000     0.145347930    16.867250000    13.365403764   0   0   0 # obsk
   1054      1   1 -1.050000     3.052306536    13.342750000    11.078737098   0   0   0 # obsk
   1055      1   2 -0.950000     1.598827233    15.860250000     1.932070431   0   0   0 # ohk
   1056      1   1 -1.050000     0.145347930    18.377750000     6.505403764   0   0   0 # obsk
   1057      1   1 -1.050000     0.000000000    18.629500000    11.078737098   0   0   0 # obsk
   1058      1   2 -0.950000     2.906958605    13.594500000     1.932070431   0   0   0 # ohk
   1059      1   1 -1.050000     1.453479303    16.112000000     6.505403764   0   0   0 # obsk
   1060      1   1 -1.050000     1.308131372    15.860250000    11.078737098   0   0   0 # obsk
   1061      1   2 -0.950000     4.215089978    15.860250000     1.932070431   0   0   0 # ohk
   1062      1   1 -1.050000     2.761610675    18.377750000     6.505403764   0   0   0 # obsk
   1063      1   3  1.575000     0.000000000    15.105000000     5.659337098   0   0   0 # feok
   1064      1   3  1.575000     2.906958605    15.105000000    10.232670431   0   0   0 # feok
   1065      1   3  1.575000     0.000000000    15.105000000     2.778137098   0   0   0 # feok
   1066      1   3  1.575000     2.906958605    15.105000000     7.351470431   0   0   0 # feok
   1067      1   3  1.575000     1.453479303    17.622500000    11.924803764   0   0   0 # feok
   1068      1   3  1.575000     0.000000000    15.105000000     9.638137098   0   0   0 # feok
   1069      1   3  1.575000     2.906958605    15.105000000    14.211470431   0   0   0 # feok
   1070      1   3  1.575000     1.453479303    17.622500000     5.064803764   0   0   0 # feok
   1071      1   3  1.575000     0.000000000    15.105000000    12.519337098   0   0   0 # feok
   1072      1   3  1.575000     2.906958605    15.105000000     3.372670431   0   0   0 # feok
   1073      1   3  1.575000     1.453479303    17.622500000     7.946003764   0   0   0 # feok
   1074      1   1 -1.050000     1.308131372    14.349750000    17.938737098   0   0   0 # obsk
   1075      1   1 -1.050000     4.215089978    14.349750000    22.512070431   0   0   0 # obsk
   1076      1   2 -0.950000     2.761610675    16.867250000    27.085403764   0   0   0 # ohk
   1077      1   1 -1.050000     0.000000000    16.615500000    17.938737098   0   0   0 # obsk
   1078      1   1 -1.050000     2.906958605    16.615500000    22.512070431   0   0   0 # obsk
   1079      1   2 -0.950000     1.453479303    19.133000000    27.085403764   0   0   0 # ohk
   1080      1   1 -1.050000     3.052306536    16.867250000    17.938737098   0   0   0 # obsk
   1081      1   1 -1.050000     1.598827233    14.349750000    22.512070431   0   0   0 # obsk
   1082      1   2 -0.950000     0.145347930    16.867250000    27.085403764   0   0   0 # ohk
   1083      1   1 -1.050000     3.052306536    13.342750000    24.798737098   0   0   0 # obsk
   1084      1   1 -1.050000     1.598827233    15.860250000    15.652070431   0   0   0 # obsk
   1085      1   1 -1.050000     0.145347930    18.377750000    20.225403764   0   0   0 # obsk
   1086      1   1 -1.050000     0.000000000    18.629500000    24.798737098   0   0   0 # obsk
   1087      1   1 -1.050000     2.906958605    13.594500000    15.652070431   0   0   0 # obsk
   1088      1   1 -1.050000     1.453479303    16.112000000    20.225403764   0   0   0 # obsk
   1089      1   1 -1.050000     1.308131372    15.860250000    24.798737098   0   0   0 # obsk
   1090      1   1 -1.050000     4.215089978    15.860250000    15.652070431   0   0   0 # obsk
   1091      1   1 -1.050000     2.761610675    18.377750000    20.225403764   0   0   0 # obsk
   1092      1   3  1.575000     0.000000000    15.105000000    19.379337098   0   0   0 # feok
   1093      1   3  1.575000     2.906958605    15.105000000    23.952670431   0   0   0 # feok
   1094      1   3  1.575000     1.453479303    17.622500000    14.806003764   0   0   0 # feok
   1095      1   3  1.575000     0.000000000    15.105000000    16.498137098   0   0   0 # feok
   1096      1   3  1.575000     2.906958605    15.105000000    21.071470431   0   0   0 # feok
   1097      1   3  1.575000     1.453479303    17.622500000    25.644803764   0   0   0 # feok
   1098      1   3  1.575000     0.000000000    15.105000000    23.358137098   0   0   0 # feok
   1099      1   3  1.575000     1.453479303    17.622500000    18.784803764   0   0   0 # feok
   1100      1   3  1.575000     0.000000000    15.105000000    26.239337098   0   0   0 # feok
   1101      1   3  1.575000     2.906958605    15.105000000    17.092670431   0   0   0 # feok
   1102      1   3  1.575000     1.453479303    17.622500000    21.666003764   0   0   0 # feok
   1103      1   1 -1.050000     5.668569280    11.832250000     4.218737098   0   0   0 # obsk
   1104      1   1 -1.050000     8.575527886    11.832250000     8.792070431   0   0   0 # obsk
   1105      1   1 -1.050000     7.122048583    14.349750000    13.365403764   0   0   0 # obsk
   1106      1   1 -1.050000     4.360437908    14.098000000     4.218737098   0   0   0 # obsk
   1107      1   1 -1.050000     7.267396513    14.098000000     8.792070431   0   0   0 # obsk
   1108      1   1 -1.050000     5.813917211    16.615500000    13.365403764   0   0   0 # obsk
   1109      1   1 -1.050000     7.412744444    14.349750000     4.218737098   0   0   0 # obsk
   1110      1   1 -1.050000     5.959265141    11.832250000     8.792070431   0   0   0 # obsk
   1111      1   1 -1.050000     4.505785838    14.349750000    13.365403764   0   0   0 # obsk
   1112      1   1 -1.050000     7.412744444    10.825250000    11.078737098   0   0   0 # obsk
   1113      1   2 -0.950000     5.959265141    13.342750000     1.932070431   0   0   0 # ohk
   1114      1   1 -1.050000     4.505785838    15.860250000     6.505403764   0   0   0 # obsk
   1115      1   1 -1.050000     4.360437908    16.112000000    11.078737098   0   0   0 # obsk
   1116      1   2 -0.950000     7.267396513    11.077000000     1.932070431   0   0   0 # ohk
   1117      1   1 -1.050000     5.813917211    13.594500000     6.505403764   0   0   0 # obsk
   1118      1   1 -1.050000     5.668569280    13.342750000    11.078737098   0   0   0 # obsk
   1119      1   2 -0.950000     8.575527886    13.342750000     1.932070431   0   0   0 # ohk
   1120      1   1 -1.050000     7.122048583    15.860250000     6.505403764   0   0   0 # obsk
   1121      1   3  1.575000     4.360437908    12.587500000     5.659337098   0   0   0 # feok
   1122      1   3  1.575000     7.267396513    12.587500000    10.232670431   0   0   0 # feok
   1123      1   3  1.575000     4.360437908    12.587500000     2.778137098   0   0   0 # feok
   1124      1   3  1.575000     7.267396513    12.587500000     7.351470431   0   0   0 # feok
   1125      1   3  1.575000     5.813917211    15.105000000    11.924803764   0   0   0 # feok
   1126      1   3  1.575000     4.360437908    12.587500000     9.638137098   0   0   0 # feok
   1127      1   3  1.575000     7.267396513    12.587500000    14.211470431   0   0   0 # feok
   1128      1   3  1.575000     5.813917211    15.105000000     5.064803764   0   0   0 # feok
   1129      1   3  1.575000     4.360437908    12.587500000    12.519337098   0   0   0 # feok
   1130      1   3  1.575000     7.267396513    12.587500000     3.372670431   0   0   0 # feok
   1131      1   3  1.575000     5.813917211    15.105000000     7.946003764   0   0   0 # feok
   1132      1   1 -1.050000     5.668569280    11.832250000    17.938737098   0   0   0 # obsk
   1133      1   1 -1.050000     8.575527886    11.832250000    22.512070431   0   0   0 # obsk
   1134      1   2 -0.950000     7.122048583    14.349750000    27.085403764   0   0   0 # ohk
   1135      1   1 -1.050000     4.360437908    14.098000000    17.938737098   0   0   0 # obsk
   1136      1   1 -1.050000     7.267396513    14.098000000    22.512070431   0   0   0 # obsk
   1137      1   2 -0.950000     5.813917211    16.615500000    27.085403764   0   0   0 # ohk
   1138      1   1 -1.050000     7.412744444    14.349750000    17.938737098   0   0   0 # obsk
   1139      1   1 -1.050000     5.959265141    11.832250000    22.512070431   0   0   0 # obsk
   1140      1   2 -0.950000     4.505785838    14.349750000    27.085403764   0   0   0 # ohk
   1141      1   1 -1.050000     7.412744444    10.825250000    24.798737098   0   0   0 # obsk
   1142      1   1 -1.050000     5.959265141    13.342750000    15.652070431   0   0   0 # obsk
   1143      1   1 -1.050000     4.505785838    15.860250000    20.225403764   0   0   0 # obsk
   1144      1   1 -1.050000     4.360437908    16.112000000    24.798737098   0   0   0 # obsk
   1145      1   1 -1.050000     7.267396513    11.077000000    15.652070431   0   0   0 # obsk
   1146      1   1 -1.050000     5.813917211    13.594500000    20.225403764   0   0   0 # obsk
   1147      1   1 -1.050000     5.668569280    13.342750000    24.798737098   0   0   0 # obsk
   1148      1   1 -1.050000     8.575527886    13.342750000    15.652070431   0   0   0 # obsk
   1149      1   1 -1.050000     7.122048583    15.860250000    20.225403764   0   0   0 # obsk
   1150      1   3  1.575000     4.360437908    12.587500000    19.379337098   0   0   0 # feok
   1151      1   3  1.575000     7.267396513    12.587500000    23.952670431   0   0   0 # feok
   1152      1   3  1.575000     5.813917211    15.105000000    14.806003764   0   0   0 # feok
   1153      1   3  1.575000     4.360437908    12.587500000    16.498137098   0   0   0 # feok
   1154      1   3  1.575000     7.267396513    12.587500000    21.071470431   0   0   0 # feok
   1155      1   3  1.575000     5.813917211    15.105000000    25.644803764   0   0   0 # feok
   1156      1   3  1.575000     4.360437908    12.587500000    23.358137098   0   0   0 # feok
   1157      1   3  1.575000     5.813917211    15.105000000    18.784803764   0   0   0 # feok
   1158      1   3  1.575000     4.360437908    12.587500000    26.239337098   0   0   0 # feok
   1159      1   3  1.575000     7.267396513    12.587500000    17.092670431   0   0   0 # feok
   1160      1   3  1.575000     5.813917211    15.105000000    21.666003764   0   0   0 # feok
   1161      1   1 -1.050000    10.029007189     9.314750000     4.218737098   0   0   0 # obsk
   1162      1   1 -1.050000    12.935965794     9.314750000     8.792070431   0   0   0 # obsk
   1163      1   1 -1.050000    11.482486491    11.832250000    13.365403764   0   0   0 # obsk
   1164      1   1 -1.050000     8.720875816    11.580500000     4.218737098   0   0   0 # obsk
   1165      1   1 -1.050000    11.627834421    11.580500000     8.792070431   0   0   0 # obsk
   1166      1   1 -1.050000    10.174355119    14.098000000    13.365403764   0   0   0 # obsk
   1167      1   1 -1.050000    11.773182352    11.832250000     4.218737098   0   0   0 # obsk
   1168      1   1 -1.050000    10.319703049     9.314750000     8.792070431   0   0   0 # obsk
   1169      1   1 -1.050000     8.866223746    11.832250000    13.365403764   0   0   0 # obsk
   1170      1   1 -1.050000    11.773182352     8.307750000    11.078737098   0   0   0 # obsk
   1171      1   2 -0.950000    10.319703049    10.825250000     1.932070431   0   0   0 # ohk
   1172      1   1 -1.050000     8.866223746    13.342750000     6.505403764   0   0   0 # obsk
   1173      1   1 -1.050000     8.720875816    13.594500000    11.078737098   0   0   0 # obsk
   1174      1   2 -0.950000    11.627834421     8.559500000     1.932070431   0   0   0 # ohk
   1175      1   1 -1.050000    10.174355119    11.077000000     6.505403764   0   0   0 # obsk
   1176      1   1 -1.050000    10.029007189    10.825250000    11.078737098   0   0   0 # obsk
   1177      1   2 -0.950000    12.935965794    10.825250000     1.932070431   0   0   0 # ohk
   1178      1   1 -1.050000    11.482486491    13.342750000     6.505403764   0   0   0 # obsk
   1179      1   3  1.575000     8.720875816    10.070000000     5.659337098   0   0   0 # feok
   1180      1   3  1.575000    11.627834421    10.070000000    10.232670431   0   0   0 # feok
   1181      1   3  1.575000     8.720875816    10.070000000     2.778137098   0   0   0 # feok
   1182      1   3  1.575000    11.627834421    10.070000000     7.351470431   0   0   0 # feok
   1183      1   3  1.575000    10.174355119    12.587500000    11.924803764   0   0   0 # feok
   1184      1   3  1.575000     8.720875816    10.070000000     9.638137098   0   0   0 # feok
   1185      1   3  1.575000    11.627834421    10.070000000    14.211470431   0   0   0 # feok
   1186      1   3  1.575000    10.174355119    12.587500000     5.064803764   0   0   0 # feok
   1187      1   3  1.575000     8.720875816    10.070000000    12.519337098   0   0   0 # feok
   1188      1   3  1.575000    11.627834421    10.070000000     3.372670431   0   0   0 # feok
   1189      1   3  1.575000    10.174355119    12.587500000     7.946003764   0   0   0 # feok
   1190      1   1 -1.050000    10.029007189     9.314750000    17.938737098   0   0   0 # obsk
   1191      1   1 -1.050000    12.935965794     9.314750000    22.512070431   0   0   0 # obsk
   1192      1   2 -0.950000    11.482486491    11.832250000    27.085403764   0   0   0 # ohk
   1193      1   1 -1.050000     8.720875816    11.580500000    17.938737098   0   0   0 # obsk
   1194      1   1 -1.050000    11.627834421    11.580500000    22.512070431   0   0   0 # obsk
   1195      1   2 -0.950000    10.174355119    14.098000000    27.085403764   0   0   0 # ohk
   1196      1   1 -1.050000    11.773182352    11.832250000    17.938737098   0   0   0 # obsk
   1197      1   1 -1.050000    10.319703049     9.314750000    22.512070431   0   0   0 # obsk
   1198      1   2 -0.950000     8.866223746    11.832250000    27.085403764   0   0   0 # ohk
   1199      1   1 -1.050000    11.773182352     8.307750000    24.798737098   0   0   0 # obsk
   1200      1   1 -1.050000    10.319703049    10.825250000    15.652070431   0   0   0 # obsk
   1201      1   1 -1.050000     8.866223746    13.342750000    20.225403764   0   0   0 # obsk
   1202      1   1 -1.050000     8.720875816    13.594500000    24.798737098   0   0   0 # obsk
   1203      1   1 -1.050000    11.627834421     8.559500000    15.652070431   0   0   0 # obsk
   1204      1   1 -1.050000    10.174355119    11.077000000    20.225403764   0   0   0 # obsk
   1205      1   1 -1.050000    10.029007189    10.825250000    24.798737098   0   0   0 # obsk
   1206      1   1 -1.050000    12.935965794    10.825250000    15.652070431   0   0   0 # obsk
   1207      1   1 -1.050000    11.482486491    13.342750000    20.225403764   0   0   0 # obsk
   1208      1   3  1.575000     8.720875816    10.070000000    19.379337098   0   0   0 # feok
   1209      1   3  1.575000    11.627834421    10.070000000    23.952670431   0   0   0 # feok
   1210      1   3  1.575000    10.174355119    12.587500000    14.806003764   0   0   0 # feok
   1211      1   3  1.575000     8.720875816    10.070000000    16.498137098   0   0   0 # feok
   1212      1   3  1.575000    11.627834421    10.070000000    21.071470431   0   0   0 # feok
   1213      1   3  1.575000    10.174355119    12.587500000    25.644803764   0   0   0 # feok
   1214      1   3  1.575000     8.720875816    10.070000000    23.358137098   0   0   0 # feok
   1215      1   3  1.575000    10.174355119    12.587500000    18.784803764   0   0   0 # feok
   1216      1   3  1.575000     8.720875816    10.070000000    26.239337098   0   0   0 # feok
   1217      1   3  1.575000    11.627834421    10.070000000    17.092670431   0   0   0 # feok
   1218      1   3  1.575000    10.174355119    12.587500000    21.666003764   0   0   0 # feok
   1219      1   1 -1.050000    14.389445097     6.797250000     4.218737098   0   0   0 # obsk
   1220      1   1 -1.050000    17.296403702     6.797250000     8.792070431   0   0   0 # obsk
   1221      1   1 -1.050000    15.842924399     9.314750000    13.365403764   0   0   0 # obsk
   1222      1   1 -1.050000    13.081313724     9.063000000     4.218737098   0   0   0 # obsk
   1223      1   1 -1.050000    15.988272330     9.063000000     8.792070431   0   0   0 # obsk
   1224      1   1 -1.050000    14.534793027    11.580500000    13.365403764   0   0   0 # obsk
   1225      1   1 -1.050000    16.133620260     9.314750000     4.218737098   0   0   0 # obsk
   1226      1   1 -1.050000    14.680140957     6.797250000     8.792070431   0   0   0 # obsk
   1227      1   1 -1.050000    13.226661654     9.314750000    13.365403764   0   0   0 # obsk
   1228      1   1 -1.050000    16.133620260     5.790250000    11.078737098   0   0   0 # obsk
   1229      1   2 -0.950000    14.680140957     8.307750000     1.932070431   0   0   0 # ohk
   1230      1   1 -1.050000    13.226661654    10.825250000     6.505403764   0   0   0 # obsk
   1231      1   1 -1.050000    13.081313724    11.077000000    11.078737098   0   0   0 # obsk
   1232      1   2 -0.950000    15.988272330     6.042000000     1.932070431   0   0   0 # ohk
   1233      1   1 -1.050000    14.534793027     8.559500000     6.505403764   0   0   0 # obsk
   1234      1   1 -1.050000    14.389445097     8.307750000    11.078737098   0   0   0 # obsk
   1235      1   2 -0.950000    17.296403702     8.307750000     1.932070431   0   0   0 # ohk
   1236      1   1 -1.050000    15.842924399    10.825250000     6.505403764   0   0   0 # obsk
   1237      1   3  1.575000    13.081313724     7.552500000     5.659337098   0   0   0 # feok
   1238      1   3  1.575000    15.988272330     7.552500000    10.232670431   0   0   0 # feok
   1239      1   3  1.575000    13.081313724     7.552500000     2.778137098   0   0   0 # feok
   1240      1   3  1.575000    15.988272330     7.552500000     7.351470431   0   0   0 # feok
   1241      1   3  1.575000    14.534793027    10.070000000    11.924803764   0   0   0 # feok
   1242      1   3  1.575000    13.081313724     7.552500000     9.638137098   0   0   0 # feok
   1243      1   3  1.575000    15.988272330     7.552500000    14.211470431   0   0   0 # feok
   1244      1   3  1.575000    14.534793027    10.070000000     5.064803764   0   0   0 # feok
   1245      1   3  1.575000    13.081313724     7.552500000    12.519337098   0   0   0 # feok
   1246      1   3  1.575000    15.988272330     7.552500000     3.372670431   0   0   0 # feok
   1247      1   3  1.575000    14.534793027    10.070000000     7.946003764   0   0   0 # feok
   1248      1   1 -1.050000    14.389445097     6.797250000    17.938737098   0   0   0 # obsk
   1249      1   1 -1.050000    17.296403702     6.797250000    22.512070431   0   0   0 # obsk
   1250      1   2 -0.950000    15.842924399     9.314750000    27.085403764   0   0   0 # ohk
   1251      1   1 -1.050000    13.081313724     9.063000000    17.938737098   0   0   0 # obsk
   1252      1   1 -1.050000    15.988272330     9.063000000    22.512070431   0   0   0 # obsk
   1253      1   2 -0.950000    14.534793027    11.580500000    27.085403764   0   0   0 # ohk
   1254      1   1 -1.050000    16.133620260     9.314750000    17.938737098   0   0   0 # obsk
   1255      1   1 -1.050000    14.680140957     6.797250000    22.512070431   0   0   0 # obsk
   1256      1   2 -0.950000    13.226661654     9.314750000    27.085403764   0   0   0 # ohk
   1257      1   1 -1.050000    16.133620260     5.790250000    24.798737098   0   0   0 # obsk
   1258      1   1 -1.050000    14.680140957     8.307750000    15.652070431   0   0   0 # obsk
   1259      1   1 -1.050000    13.226661654    10.825250000    20.225403764   0   0   0 # obsk
   1260      1   1 -1.050000    13.081313724    11.077000000    24.798737098   0   0   0 # obsk
   1261      1   1 -1.050000    15.988272330     6.042000000    15.652070431   0   0   0 # obsk
   1262      1   1 -1.050000    14.534793027     8.559500000    20.225403764   0   0   0 # obsk
   1263      1   1 -1.050000    14.389445097     8.307750000    24.798737098   0   0   0 # obsk
   1264      1   1 -1.050000    17.296403702     8.307750000    15.652070431   0   0   0 # obsk
   1265      1   1 -1.050000    15.842924399    10.825250000    20.225403764   0   0   0 # obsk
   1266      1   3  1.575000    13.081313724     7.552500000    19.379337098   0   0   0 # feok
   1267      1   3  1.575000    15.988272330     7.552500000    23.952670431   0   0   0 # feok
   1268      1   3  1.575000    14.534793027    10.070000000    14.806003764   0   0   0 # feok
   1269      1   3  1.575000    13.081313724     7.552500000    16.498137098   0   0   0 # feok
   1270      1   3  1.575000    15.988272330     7.552500000    21.071470431   0   0   0 # feok
   1271      1   3  1.575000    14.534793027    10.070000000    25.644803764   0   0   0 # feok
   1272      1   3  1.575000    13.081313724     7.552500000    23.358137098   0   0   0 # feok
   1273      1   3  1.575000    14.534793027    10.070000000    18.784803764   0   0   0 # feok
   1274      1   3  1.575000    13.081313724     7.552500000    26.239337098   0   0   0 # feok
   1275      1   3  1.575000    15.988272330     7.552500000    17.092670431   0   0   0 # feok
   1276      1   3  1.575000    14.534793027    10.070000000    21.666003764   0   0   0 # feok
   1277      1   1 -1.050000    18.749883005     4.279750000     4.218737098   0   0   0 # obsk
   1278      1   1 -1.050000    21.656841610     4.279750000     8.792070431   0   0   0 # obsk
   1279      1   1 -1.050000    20.203362307     6.797250000    13.365403764   0   0   0 # obsk
   1280      1   1 -1.050000    17.441751632     6.545500000     4.218737098   0   0   0 # obsk
   1281      1   1 -1.050000    20.348710238     6.545500000     8.792070431   0   0   0 # obsk
   1282      1   1 -1.050000    18.895230935     9.063000000    13.365403764   0   0   0 # obsk
   1283      1   1 -1.050000    20.494058168     6.797250000     4.218737098   0   0   0 # obsk
   1284      1   1 -1.050000    19.040578865     4.279750000     8.792070431   0   0   0 # obsk
   1285      1   1 -1.050000    17.587099562     6.797250000    13.365403764   0   0   0 # obsk
   1286      1   1 -1.050000    20.494058168     3.272750000    11.078737098   0   0   0 # obsk
   1287      1   2 -0.950000    19.040578865     5.790250000     1.932070431   0   0   0 # ohk
   1288      1   1 -1.050000    17.587099562     8.307750000     6.505403764   0   0   0 # obsk
   1289      1   1 -1.050000    17.441751632     8.559500000    11.078737098   0   0   0 # obsk
   1290      1   2 -0.950000    20.348710238     3.524500000     1.932070431   0   0   0 # ohk
   1291      1   1 -1.050000    18.895230935     6.042000000     6.505403764   0   0   0 # obsk
   1292      1   1 -1.050000    18.749883005     5.790250000    11.078737098   0   0   0 # obsk
   1293      1   2 -0.950000    21.656841610     5.790250000     1.932070431   0   0   0 # ohk
   1294      1   1 -1.050000    20.203362307     8.307750000     6.505403764   0   0   0 # obsk
   1295      1   3  1.575000    17.441751632     5.035000000     5.659337098   0   0   0 # feok
   1296      1   3  1.575000    20.348710238     5.035000000    10.232670431   0   0   0 # feok
   1297      1   3  1.575000    17.441751632     5.035000000     2.778137098   0   0   0 # feok
   1298      1   3  1.575000    20.348710238     5.035000000     7.351470431   0   0   0 # feok
   1299      1   3  1.575000    18.895230935     7.552500000    11.924803764   0   0   0 # feok
   1300      1   3  1.575000    17.441751632     5.035000000     9.638137098   0   0   0 # feok
   1301      1   3  1.575000    20.348710238     5.035000000    14.211470431   0   0   0 # feok
   1302      1   3  1.575000    18.895230935     7.552500000     5.064803764   0   0   0 # feok
   1303      1   3  1.575000    17.441751632     5.035000000    12.519337098   0   0   0 # feok
   1304      1   3  1.575000    20.348710238     5.035000000     3.372670431   0   0   0 # feok
   1305      1   3  1.575000    18.895230935     7.552500000     7.946003764   0   0   0 # feok
   1306      1   1 -1.050000    18.749883005     4.279750000    17.938737098   0   0   0 # obsk
   1307      1   1 -1.050000    21.656841610     4.279750000    22.512070431   0   0   0 # obsk
   1308      1   2 -0.950000    20.203362307     6.797250000    27.085403764   0   0   0 # ohk
   1309      1   1 -1.050000    17.441751632     6.545500000    17.938737098   0   0   0 # obsk
   1310      1   1 -1.050000    20.348710238     6.545500000    22.512070431   0   0   0 # obsk
   1311      1   2 -0.950000    18.895230935     9.063000000    27.085403764   0   0   0 # ohk
   1312      1   1 -1.050000    20.494058168     6.797250000    17.938737098   0   0   0 # obsk
   1313      1   1 -1.050000    19.040578865     4.279750000    22.512070431   0   0   0 # obsk
   1314      1   2 -0.950000    17.587099562     6.797250000    27.085403764   0   0   0 # ohk
   1315      1   1 -1.050000    20.494058168     3.272750000    24.798737098   0   0   0 # obsk
   1316      1   1 -1.050000    19.040578865     5.790250000    15.652070431   0   0   0 # obsk
   1317      1   1 -1.050000    17.587099562     8.307750000    20.225403764   0   0   0 # obsk
   1318      1   1 -1.050000    17.441751632     8.559500000    24.798737098   0   0   0 # obsk
   1319      1   1 -1.050000    20.348710238     3.524500000    15.652070431   0   0   0 # obsk
   1320      1   1 -1.050000    18.895230935     6.042000000    20.225403764   0   0   0 # obsk
   1321      1   1 -1.050000    18.749883005     5.790250000    24.798737098   0   0   0 # obsk
   1322      1   1 -1.050000    21.656841610     5.790250000    15.652070431   0   0   0 # obsk
   1323      1   1 -1.050000    20.203362307     8.307750000    20.225403764   0   0   0 # obsk
   1324      1   3  1.575000    17.441751632     5.035000000    19.379337098   0   0   0 # feok
   1325      1   3  1.575000    20.348710238     5.035000000    23.952670431   0   0   0 # feok
   1326      1   3  1.575000    18.895230935     7.552500000    14.806003764   0   0   0 # feok
   1327      1   3  1.575000    17.441751632     5.035000000    16.498137098   0   0   0 # feok
   1328      1   3  1.575000    20.348710238     5.035000000    21.071470431   0   0   0 # feok
   1329      1   3  1.575000    18.895230935     7.552500000    25.644803764   0   0   0 # feok
   1330      1   3  1.575000    17.441751632     5.035000000    23.358137098   0   0   0 # feok
   1331      1   3  1.575000    18.895230935     7.552500000    18.784803764   0   0   0 # feok
   1332      1   3  1.575000    17.441751632     5.035000000    26.239337098   0   0   0 # feok
   1333      1   3  1.575000    20.348710238     5.035000000    17.092670431   0   0   0 # feok
   1334      1   3  1.575000    18.895230935     7.552500000    21.666003764   0   0   0 # feok
   1335      1   1 -1.050000    23.110320913     1.762250000     4.218737098   0   0   0 # obsk
   1336      1   1 -1.050000    -0.144620482     1.762250000     8.792070431   1   0   0 # obsk
   1337      1   1 -1.050000    24.563800215     4.279750000    13.365403764   0   0   0 # obsk
   1338      1   1 -1.050000    21.802189540     4.028000000     4.218737098   0   0   0 # obsk
   1339      1   1 -1.050000    24.709148146     4.028000000     8.792070431   0   0   0 # obsk
   1340      1   1 -1.050000    23.255668843     6.545500000    13.365403764   0   0   0 # obsk
   1341      1   1 -1.050000    24.854496076     4.279750000     4.218737098   0   0   0 # obsk
   1342      1   1 -1.050000    23.401016773     1.762250000     8.792070431   0   0   0 # obsk
   1343      1   1 -1.050000    21.947537471     4.279750000    13.365403764   0   0   0 # obsk
   1344      1   1 -1.050000    24.854496076     0.755250000    11.078737098   0   0   0 # obsk
   1345      1   2 -0.950000    23.401016773     3.272750000     1.932070431   0   0   0 # ohk
   1346      1   1 -1.050000    21.947537471     5.790250000     6.505403764   0   0   0 # obsk
   1347      1   1 -1.050000    21.802189540     6.042000000    11.078737098   0   0   0 # obsk
   1348      1   2 -0.950000    24.709148146     1.007000000     1.932070431   0   0   0 # ohk
   1349      1   1 -1.050000    23.255668843     3.524500000     6.505403764   0   0   0 # obsk
   1350      1   1 -1.050000    23.110320913     3.272750000    11.078737098   0   0   0 # obsk
   1351      1   2 -0.950000    -0.144620482     3.272750000     1.932070431   1   0   0 # ohk
   1352      1   1 -1.050000    24.563800215     5.790250000     6.505403764   0   0   0 # obsk
   1353      1   3  1.575000    21.802189540     2.517500000     5.659337098   0   0   0 # feok
   1354      1   3  1.575000    24.709148146     2.517500000    10.232670431   0   0   0 # feok
   1355      1   3  1.575000    21.802189540     2.517500000     2.778137098   0   0   0 # feok
   1356      1   3  1.575000    24.709148146     2.517500000     7.351470431   0   0   0 # feok
   1357      1   3  1.575000    23.255668843     5.035000000    11.924803764   0   0   0 # feok
   1358      1   3  1.575000    21.802189540     2.517500000     9.638137098   0   0   0 # feok
   1359      1   3  1.575000    24.709148146     2.517500000    14.211470431   0   0   0 # feok
   1360      1   3  1.575000    23.255668843     5.035000000     5.064803764   0   0   0 # feok
   1361      1   3  1.575000    21.802189540     2.517500000    12.519337098   0   0   0 # feok
   1362      1   3  1.575000    24.709148146     2.517500000     3.372670431   0   0   0 # feok
   1363      1   3  1.575000    23.255668843     5.035000000     7.946003764   0   0   0 # feok
   1364      1   1 -1.050000    23.110320913     1.762250000    17.938737098   0   0   0 # obsk
   1365      1   1 -1.050000    -0.144620482     1.762250000    22.512070431   1   0   0 # obsk
   1366      1   2 -0.950000    24.563800215     4.279750000    27.085403764   0   0   0 # ohk
   1367      1   1 -1.050000    21.802189540     4.028000000    17.938737098   0   0   0 # obsk
   1368      1   1 -1.050000    24.709148146     4.028000000    22.512070431   0   0   0 # obsk
   1369      1   2 -0.950000    23.255668843     6.545500000    27.085403764   0   0   0 # ohk
   1370      1   1 -1.050000    24.854496076     4.279750000    17.938737098   0   0   0 # obsk
   1371      1   1 -1.050000    23.401016773     1.762250000    22.512070431   0   0   0 # obsk
   1372      1   2 -0.950000    21.947537471     4.279750000    27.085403764   0   0   0 # ohk
   1373      1   1 -1.050000    24.854496076     0.755250000    24.798737098   0   0   0 # obsk
   1374      1   1 -1.050000    23.401016773     3.272750000    15.652070431   0   0   0 # obsk
   1375      1   1 -1.050000    21.947537471     5.790250000    20.225403764   0   0   0 # obsk
   1376      1   1 -1.050000    21.802189540     6.042000000    24.798737098   0   0   0 # obsk
   1377      1   1 -1.050000    24.709148146     1.007000000    15.652070431   0   0   0 # obsk
   1378      1   1 -1.050000    23.255668843     3.524500000    20.225403764   0   0   0 # obsk
   1379      1   1 -1.050000    23.110320913     3.272750000    24.798737098   0   0   0 # obsk
   1380      1   1 -1.050000    -0.144620482     3.272750000    15.652070431   1   0   0 # obsk
   1381      1   1 -1.050000    24.563800215     5.790250000    20.225403764   0   0   0 # obsk
   1382      1   3  1.575000    21.802189540     2.517500000    19.379337098   0   0   0 # feok
   1383      1   3  1.575000    24.709148146     2.517500000    23.952670431   0   0   0 # feok
   1384      1   3  1.575000    23.255668843     5.035000000    14.806003764   0   0   0 # feok
   1385      1   3  1.575000    21.802189540     2.517500000    16.498137098   0   0   0 # feok
   1386      1   3  1.575000    24.709148146     2.517500000    21.071470431   0   0   0 # feok
   1387      1   3  1.575000    23.255668843     5.035000000    25.644803764   0   0   0 # feok
   1388      1   3  1.575000    21.802189540     2.517500000    23.358137098   0   0   0 # feok
   1389      1   3  1.575000    23.255668843     5.035000000    18.784803764   0   0   0 # feok
   1390      1   3  1.575000    21.802189540     2.517500000    26.239337098   0   0   0 # feok
   1391      1   3  1.575000    24.709148146     2.517500000    17.092670431   0   0   0 # feok
   1392      1   3  1.575000    23.255668843     5.035000000    21.666003764   0   0   0 # feok
   1393      1   1 -1.050000     1.308131372    19.384750000     4.218737098   0   0   0 # obsk
   1394      1   1 -1.050000     4.215089978    19.384750000     8.792070431   0   0   0 # obsk
   1395      1   1 -1.050000     2.761610675    21.902250000    13.365403764   0   0   0 # obsk
   1396      1   1 -1.050000     0.000000000    21.650500000     4.218737098   0   0   0 # obsk
   1397      1   1 -1.050000     2.906958605    21.650500000     8.792070431   0   0   0 # obsk
   1398      1   1 -1.050000     1.453479303    24.168000000    13.365403764   0   0   0 # obsk
   1399      1   1 -1.050000     3.052306536    21.902250000     4.218737098   0   0   0 # obsk
   1400      1   1 -1.050000     1.598827233    19.384750000     8.792070431   0   0   0 # obsk
   1401      1   1 -1.050000     0.145347930    21.902250000    13.365403764   0   0   0 # obsk
   1402      1   1 -1.050000     3.052306536    18.377750000    11.078737098   0   0   0 # obsk
   1403      1   2 -0.950000     1.598827233    20.895250000     1.932070431   0   0   0 # ohk
   1404      1   1 -1.050000     0.145347930    23.412750000     6.505403764   0   0   0 # obsk
   1405      1   1 -1.050000     0.000000000    23.664500000    11.078737098   0   0   0 # obsk
   1406      1   2 -0.950000     2.906958605    18.629500000     1.932070431   0   0   0 # ohk
   1407      1   1 -1.050000     1.453479303    21.147000000     6.505403764   0   0   0 # obsk
   1408      1   1 -1.050000     1.308131372    20.895250000    11.078737098   0   0   0 # obsk
   1409      1   2 -0.950000     4.215089978    20.895250000     1.932070431   0   0   0 # ohk
   1410      1   1 -1.050000     2.761610675    23.412750000     6.505403764   0   0   0 # obsk
   1411      1   3  1.575000     0.000000000    20.140000000     5.659337098   0   0   0 # feok
   1412      1   3  1.575000     2.906958605    20.140000000    10.232670431   0   0   0 # feok
   1413      1   3  1.575000     0.000000000    20.140000000     2.778137098   0   0   0 # feok
   1414      1   3  1.575000     2.906958605    20.140000000     7.351470431   0   0   0 # feok
   1415      1   3  1.575000     1.453479303    22.657500000    11.924803764   0   0   0 # feok
   1416      1   3  1.575000     0.000000000    20.140000000     9.638137098   0   0   0 # feok
   1417      1   3  1.575000     2.906958605    20.140000000    14.211470431   0   0   0 # feok
   1418      1   3  1.575000     1.453479303    22.657500000     5.064803764   0   0   0 # feok
   1419      1   3  1.575000     0.000000000    20.140000000    12.519337098   0   0   0 # feok
   1420      1   3  1.575000     2.906958605    20.140000000     3.372670431   0   0   0 # feok
   1421      1   3  1.575000     1.453479303    22.657500000     7.946003764   0   0   0 # feok
   1422      1   1 -1.050000     1.308131372    19.384750000    17.938737098   0   0   0 # obsk
   1423      1   1 -1.050000     4.215089978    19.384750000    22.512070431   0   0   0 # obsk
   1424      1   2 -0.950000     2.761610675    21.902250000    27.085403764   0   0   0 # ohk
   1425      1   1 -1.050000     0.000000000    21.650500000    17.938737098   0   0   0 # obsk
   1426      1   1 -1.050000     2.906958605    21.650500000    22.512070431   0   0   0 # obsk
   1427      1   2 -0.950000     1.453479303    24.168000000    27.085403764   0   0   0 # ohk
   1428      1   1 -1.050000     3.052306536    21.902250000    17.938737098   0   0   0 # obsk
   1429      1   1 -1.050000     1.598827233    19.384750000    22.512070431   0   0   0 # obsk
   1430      1   2 -0.950000     0.145347930    21.902250000    27.085403764   0   0   0 # ohk
   1431      1   1 -1.050000     3.052306536    18.377750000    24.798737098   0   0   0 # obsk
   1432      1   1 -1.050000     1.598827233    20.895250000    15.652070431   0   0   0 # obsk
   1433      1   1 -1.050000     0.145347930    23.412750000    20.225403764   0   0   0 # obsk
   1434      1   1 -1.050000     0.000000000    23.664500000    24.798737098   0   0   0 # obsk
   1435      1   1 -1.050000     2.906958605    18.629500000    15.652070431   0   0   0 # obsk
   1436      1   1 -1.050000     1.453479303    21.147000000    20.225403764   0   0   0 # obsk
   1437      1   1 -1.050000     1.308131372    20.895250000    24.798737098   0   0   0 # obsk
   1438      1   1 -1.050000     4.215089978    20.895250000    15.652070431   0   0   0 # obsk
   1439      1   1 -1.050000     2.761610675    23.412750000    20.225403764   0   0   0 # obsk
   1440      1   3  1.575000     0.000000000    20.140000000    19.379337098   0   0   0 # feok
   1441      1   3  1.575000     2.906958605    20.140000000    23.952670431   0   0   0 # feok
   1442      1   3  1.575000     1.453479303    22.657500000    14.806003764   0   0   0 # feok
   1443      1   3  1.575000     0.000000000    20.140000000    16.498137098   0   0   0 # feok
   1444      1   3  1.575000     2.906958605    20.140000000    21.071470431   0   0   0 # feok
   1445      1   3  1.575000     1.453479303    22.657500000    25.644803764   0   0   0 # feok
   1446      1   3  1.575000     0.000000000    20.140000000    23.358137098   0   0   0 # feok
   1447      1   3  1.575000     1.453479303    22.657500000    18.784803764   0   0   0 # feok
   1448      1   3  1.575000     0.000000000    20.140000000    26.239337098   0   0   0 # feok
   1449      1   3  1.575000     2.906958605    20.140000000    17.092670431   0   0   0 # feok
   1450      1   3  1.575000     1.453479303    22.657500000    21.666003764   0   0   0 # feok
   1451      1   1 -1.050000     5.668569280    16.867250000     4.218737098   0   0   0 # obsk
   1452      1   1 -1.050000     8.575527886    16.867250000     8.792070431   0   0   0 # obsk
   1453      1   1 -1.050000     7.122048583    19.384750000    13.365403764   0   0   0 # obsk
   1454      1   1 -1.050000     4.360437908    19.133000000     4.218737098   0   0   0 # obsk
   1455      1   1 -1.050000     7.267396513    19.133000000     8.792070431   0   0   0 # obsk
   1456      1   1 -1.050000     5.813917211    21.650500000    13.365403764   0   0   0 # obsk
   1457      1   1 -1.050000     7.412744444    19.384750000     4.218737098   0   0   0 # obsk
   1458      1   1 -1.050000     5.959265141    16.867250000     8.792070431   0   0   0 # obsk
   1459      1   1 -1.050000     4.505785838    19.384750000    13.365403764   0   0   0 # obsk
   1460      1   1 -1.050000     7.412744444    15.860250000    11.078737098   0   0   0 # obsk
   1461      1   2 -0.950000     5.959265141    18.377750000     1.932070431   0   0   0 # ohk
   1462      1   1 -1.050000     4.505785838    20.895250000     6.505403764   0   0   0 # obsk
   1463      1   1 -1.050000     4.360437908    21.147000000    11.078737098   0   0   0 # obsk
   1464      1   2 -0.950000     7.267396513    16.112000000     1.932070431   0   0   0 # ohk
   1465      1   1 -1.050000     5.813917211    18.629500000     6.505403764   0   0   0 # obsk
   1466      1   1 -1.050000     5.668569280    18.377750000    11.078737098   0   0   0 # obsk
   1467      1   2 -0.950000     8.575527886    18.377750000     1.932070431   0   0   0 # ohk
   1468      1   1 -1.050000     7.122048583    20.895250000     6.505403764   0   0   0 # obsk
   1469      1   3  1.575000     4.360437908    17.622500000     5.659337098   0   0   0 # feok
   1470      1   3  1.575000     7.267396513    17.622500000    10.232670431   0   0   0 # feok
   1471      1   3  1.575000     4.360437908    17.622500000     2.778137098   0   0   0 # feok
   1472      1   3  1.575000     7.267396513    17.622500000     7.351470431   0   0   0 # feok
   1473      1   3  1.575000     5.813917211    20.140000000    11.924803764   0   0   0 # feok
   1474      1   3  1.575000     4.360437908    17.622500000     9.638137098   0   0   0 # feok
   1475      1   3  1.575000     7.267396513    17.622500000    14.211470431   0   0   0 # feok
   1476      1   3  1.575000     5.813917211    20.140000000     5.064803764   0   0   0 # feok
   1477      1   3  1.575000     4.360437908    17.622500000    12.519337098   0   0   0 # feok
   1478      1   3  1.575000     7.267396513    17.622500000     3.372670431   0   0   0 # feok
   1479      1   3  1.575000     5.813917211    20.140000000     7.946003764   0   0   0 # feok
   1480      1   1 -1.050000     5.668569280    16.867250000    17.938737098   0   0   0 # obsk
   1481      1   1 -1.050000     8.575527886    16.867250000    22.512070431   0   0   0 # obsk
   1482      1   2 -0.950000     7.122048583    19.384750000    27.085403764   0   0   0 # ohk
   1483      1   1 -1.050000     4.360437908    19.133000000    17.938737098   0   0   0 # obsk
   1484      1   1 -1.050000     7.267396513    19.133000000    22.512070431   0   0   0 # obsk
   1485      1   2 -0.950000     5.813917211    21.650500000    27.085403764   0   0   0 # ohk
   1486      1   1 -1.050000     7.412744444    19.384750000    17.938737098   0   0   0 # obsk
   1487      1   1 -1.050000     5.959265141    16.867250000    22.512070431   0   0   0 # obsk
   1488      1   2 -0.950000     4.505785838    19.384750000    27.085403764   0   0   0 # ohk
   1489      1   1 -1.050000     7.412744444    15.860250000    24.798737098   0   0   0 # obsk
   1490      1   1 -1.050000     5.959265141    18.377750000    15.652070431   0   0   0 # obsk
   1491      1   1 -1.050000     4.505785838    20.895250000    20.225403764   0   0   0 # obsk
   1492      1   1 -1.050000     4.360437908    21.147000000    24.798737098   0   0   0 # obsk
   1493      1   1 -1.050000     7.267396513    16.112000000    15.652070431   0   0   0 # obsk
   1494      1   1 -1.050000     5.813917211    18.629500000    20.225403764   0   0   0 # obsk
   1495      1   1 -1.050000     5.668569280    18.377750000    24.798737098   0   0   0 # obsk
   1496      1   1 -1.050000     8.575527886    18.377750000    15.652070431   0   0   0 # obsk
   1497      1   1 -1.050000     7.122048583    20.895250000    20.225403764   0   0   0 # obsk
   1498      1   3  1.575000     4.360437908    17.622500000    19.379337098   0   0   0 # feok
   1499      1   3  1.575000     7.267396513    17.622500000    23.952670431   0   0   0 # feok
   1500      1   3  1.575000     5.813917211    20.140000000    14.806003764   0   0   0 # feok
   1501      1   3  1.575000     4.360437908    17.622500000    16.498137098   0   0   0 # feok
   1502      1   3  1.575000     7.267396513    17.622500000    21.071470431   0   0   0 # feok
   1503      1   3  1.575000     5.813917211    20.140000000    25.644803764   0   0   0 # feok
   1504      1   3  1.575000     4.360437908    17.622500000    23.358137098   0   0   0 # feok
   1505      1   3  1.575000     5.813917211    20.140000000    18.784803764   0   0   0 # feok
   1506      1   3  1.575000     4.360437908    17.622500000    26.239337098   0   0   0 # feok
   1507      1   3  1.575000     7.267396513    17.622500000    17.092670431   0   0   0 # feok
   1508      1   3  1.575000     5.813917211    20.140000000    21.666003764   0   0   0 # feok
   1509      1   1 -1.050000    10.029007189    14.349750000     4.218737098   0   0   0 # obsk
   1510      1   1 -1.050000    12.935965794    14.349750000     8.792070431   0   0   0 # obsk
   1511      1   1 -1.050000    11.482486491    16.867250000    13.365403764   0   0   0 # obsk
   1512      1   1 -1.050000     8.720875816    16.615500000     4.218737098   0   0   0 # obsk
   1513      1   1 -1.050000    11.627834421    16.615500000     8.792070431   0   0   0 # obsk
   1514      1   1 -1.050000    10.174355119    19.133000000    13.365403764   0   0   0 # obsk
   1515      1   1 -1.050000    11.773182352    16.867250000     4.218737098   0   0   0 # obsk
   1516      1   1 -1.050000    10.319703049    14.349750000     8.792070431   0   0   0 # obsk
   1517      1   1 -1.050000     8.866223746    16.867250000    13.365403764   0   0   0 # obsk
   1518      1   1 -1.050000    11.773182352    13.342750000    11.078737098   0   0   0 # obsk
   1519      1   2 -0.950000    10.319703049    15.860250000     1.932070431   0   0   0 # ohk
   1520      1   1 -1.050000     8.866223746    18.377750000     6.505403764   0   0   0 # obsk
   1521      1   1 -1.050000     8.720875816    18.629500000    11.078737098   0   0   0 # obsk
   1522      1   2 -0.950000    11.627834421    13.594500000     1.932070431   0   0   0 # ohk
   1523      1   1 -1.050000    10.174355119    16.112000000     6.505403764   0   0   0 # obsk
   1524      1   1 -1.050000    10.029007189    15.860250000    11.078737098   0   0   0 # obsk
   1525      1   2 -0.950000    12.935965794    15.860250000     1.932070431   0   0   0 # ohk
   1526      1   1 -1.050000    11.482486491    18.377750000     6.505403764   0   0   0 # obsk
   1527      1   3  1.575000     8.720875816    15.105000000     5.659337098   0   0   0 # feok
   1528      1   3  1.575000    11.627834421    15.105000000    10.232670431   0   0   0 # feok
   1529      1   3  1.575000     8.720875816    15.105000000     2.778137098   0   0   0 # feok
   1530      1   3  1.575000    11.627834421    15.105000000     7.351470431   0   0   0 # feok
   1531      1   3  1.575000    10.174355119    17.622500000    11.924803764   0   0   0 # feok
   1532      1   3  1.575000     8.720875816    15.105000000     9.638137098   0   0   0 # feok
   1533      1   3  1.575000    11.627834421    15.105000000    14.211470431   0   0   0 # feok
   1534      1   3  1.575000    10.174355119    17.622500000     5.064803764   0   0   0 # feok
   1535      1   3  1.575000     8.720875816    15.105000000    12.519337098   0   0   0 # feok
   1536      1   3  1.575000    11.627834421    15.105000000     3.372670431   0   0   0 # feok
   1537      1   3  1.575000    10.174355119    17.622500000     7.946003764   0   0   0 # feok
   1538      1   1 -1.050000    10.029007189    14.349750000    17.938737098   0   0   0 # obsk
   1539      1   1 -1.050000    12.935965794    14.349750000    22.512070431   0   0   0 # obsk
   1540      1   2 -0.950000    11.482486491    16.867250000    27.085403764   0   0   0 # ohk
   1541      1   1 -1.050000     8.720875816    16.615500000    17.938737098   0   0   0 # obsk
   1542      1   1 -1.050000    11.627834421    16.615500000    22.512070431   0   0   0 # obsk
   1543      1   2 -0.950000    10.174355119    19.133000000    27.085403764   0   0   0 # ohk
   1544      1   1 -1.050000    11.773182352    16.867250000    17.938737098   0   0   0 # obsk
   1545      1   1 -1.050000    10.319703049    14.349750000    22.512070431   0   0   0 # obsk
   1546      1   2 -0.950000     8.866223746    16.867250000    27.085403764   0   0   0 # ohk
   1547      1   1 -1.050000    11.773182352    13.342750000    24.798737098   0   0   0 # obsk
   1548      1   1 -1.050000    10.319703049    15.860250000    15.652070431   0   0   0 # obsk
   1549      1   1 -1.050000     8.866223746    18.377750000    20.225403764   0   0   0 # obsk
   1550      1   1 -1.050000     8.720875816    18.629500000    24.798737098   0   0   0 # obsk
   1551      1   1 -1.050000    11.627834421    13.594500000    15.652070431   0   0   0 # obsk
   1552      1   1 -1.050000    10.174355119    16.112000000    20.225403764   0   0   0 # obsk
   1553      1   1 -1.050000    10.029007189    15.860250000    24.798737098   0   0   0 # obsk
   1554      1   1 -1.050000    12.935965794    15.860250000    15.652070431   0   0   0 # obsk
   1555      1   1 -1.050000    11.482486491    18.377750000    20.225403764   0   0   0 # obsk
   1556      1   3  1.575000     8.720875816    15.105000000    19.379337098   0   0   0 # feok
   1557      1   3  1.575000    11.627834421    15.105000000    23.952670431   0   0   0 # feok
   1558      1   3  1.575000    10.174355119    17.622500000    14.806003764   0   0   0 # feok
   1559      1   3  1.575000     8.720875816    15.105000000    16.498137098   0   0   0 # feok
   1560      1   3  1.575000    11.627834421    15.105000000    21.071470431   0   0   0 # feok
   1561      1   3  1.575000    10.174355119    17.622500000    25.644803764   0   0   0 # feok
   1562      1   3  1.575000     8.720875816    15.105000000    23.358137098   0   0   0 # feok
   1563      1   3  1.575000    10.174355119    17.622500000    18.784803764   0   0   0 # feok
   1564      1   3  1.575000     8.720875816    15.105000000    26.239337098   0   0   0 # feok
   1565      1   3  1.575000    11.627834421    15.105000000    17.092670431   0   0   0 # feok
   1566      1   3  1.575000    10.174355119    17.622500000    21.666003764   0   0   0 # feok
   1567      1   1 -1.050000    14.389445097    11.832250000     4.218737098   0   0   0 # obsk
   1568      1   1 -1.050000    17.296403702    11.832250000     8.792070431   0   0   0 # obsk
   1569      1   1 -1.050000    15.842924399    14.349750000    13.365403764   0   0   0 # obsk
   1570      1   1 -1.050000    13.081313724    14.098000000     4.218737098   0   0   0 # obsk
   1571      1   1 -1.050000    15.988272330    14.098000000     8.792070431   0   0   0 # obsk
   1572      1   1 -1.050000    14.534793027    16.615500000    13.365403764   0   0   0 # obsk
   1573      1   1 -1.050000    16.133620260    14.349750000     4.218737098   0   0   0 # obsk
   1574      1   1 -1.050000    14.680140957    11.832250000     8.792070431   0   0   0 # obsk
   1575      1   1 -1.050000    13.226661654    14.349750000    13.365403764   0   0   0 # obsk
   1576      1   1 -1.050000    16.133620260    10.825250000    11.078737098   0   0   0 # obsk
   1577      1   2 -0.950000    14.680140957    13.342750000     1.932070431   0   0   0 # ohk
   1578      1   1 -1.050000    13.226661654    15.860250000     6.505403764   0   0   0 # obsk
   1579      1   1 -1.050000    13.081313724    16.112000000    11.078737098   0   0   0 # obsk
   1580      1   2 -0.950000    15.988272330    11.077000000     1.932070431   0   0   0 # ohk
   1581      1   1 -1.050000    14.534793027    13.594500000     6.505403764   0   0   0 # obsk
   1582      1   1 -1.050000    14.389445097    13.342750000    11.078737098   0   0   0 # obsk
   1583      1   2 -0.950000    17.296403702    13.342750000     1.932070431   0   0   0 # ohk
   1584      1   1 -1.050000    15.842924399    15.860250000     6.505403764   0   0   0 # obsk
   1585      1   3  1.575000    13.081313724    12.587500000     5.659337098   0   0   0 # feok
   1586      1   3  1.575000    15.988272330    12.587500000    10.232670431   0   0   0 # feok
   1587      1   3  1.575000    13.081313724    12.587500000     2.778137098   0   0   0 # feok
   1588      1   3  1.575000    15.988272330    12.587500000     7.351470431   0   0   0 # feok
   1589      1   3  1.575000    14.534793027    15.105000000    11.924803764   0   0   0 # feok
   1590      1   3  1.575000    13.081313724    12.587500000     9.638137098   0   0   0 # feok
   1591      1   3  1.575000    15.988272330    12.587500000    14.211470431   0   0   0 # feok
   1592      1   3  1.575000    14.534793027    15.105000000     5.064803764   0   0   0 # feok
   1593      1   3  1.575000    13.081313724    12.587500000    12.519337098   0   0   0 # feok
   1594      1   3  1.575000    15.988272330    12.587500000     3.372670431   0   0   0 # feok
   1595      1   3  1.575000    14.534793027    15.105000000     7.946003764   0   0   0 # feok
   1596      1   1 -1.050000    14.389445097    11.832250000    17.938737098   0   0   0 # obsk
   1597      1   1 -1.050000    17.296403702    11.832250000    22.512070431   0   0   0 # obsk
   1598      1   2 -0.950000    15.842924399    14.349750000    27.085403764   0   0   0 # ohk
   1599      1   1 -1.050000    13.081313724    14.098000000    17.938737098   0   0   0 # obsk
   1600      1   1 -1.050000    15.988272330    14.098000000    22.512070431   0   0   0 # obsk
   1601      1   2 -0.950000    14.534793027    16.615500000    27.085403764   0   0   0 # ohk
   1602      1   1 -1.050000    16.133620260    14.349750000    17.938737098   0   0   0 # obsk
   1603      1   1 -1.050000    14.680140957    11.832250000    22.512070431   0   0   0 # obsk
   1604      1   2 -0.950000    13.226661654    14.349750000    27.085403764   0   0   0 # ohk
   1605      1   1 -1.050000    16.133620260    10.825250000    24.798737098   0   0   0 # obsk
   1606      1   1 -1.050000    14.680140957    13.342750000    15.652070431   0   0   0 # obsk
   1607      1   1 -1.050000    13.226661654    15.860250000    20.225403764   0   0   0 # obsk
   1608      1   1 -1.050000    13.081313724    16.112000000    24.798737098   0   0   0 # obsk
   1609      1   1 -1.050000    15.988272330    11.077000000    15.652070431   0   0   0 # obsk
   1610      1   1 -1.050000    14.534793027    13.594500000    20.225403764   0   0   0 # obsk
   1611      1   1 -1.050000    14.389445097    13.342750000    24.798737098   0   0   0 # obsk
   1612      1   1 -1.050000    17.296403702    13.342750000    15.652070431   0   0   0 # obsk
   1613      1   1 -1.050000    15.842924399    15.860250000    20.225403764   0   0   0 # obsk
   1614      1   3  1.575000    13.081313724    12.587500000    19.379337098   0   0   0 # feok
   1615      1   3  1.575000    15.988272330    12.587500000    23.952670431   0   0   0 # feok
   1616      1   3  1.575000    14.534793027    15.105000000    14.806003764   0   0   0 # feok
   1617      1   3  1.575000    13.081313724    12.587500000    16.498137098   0   0   0 # feok
   1618      1   3  1.575000    15.988272330    12.587500000    21.071470431   0   0   0 # feok
   1619      1   3  1.575000    14.534793027    15.105000000    25.644803764   0   0   0 # feok
   1620      1   3  1.575000    13.081313724    12.587500000    23.358137098   0   0   0 # feok
   1621      1   3  1.575000    14.534793027    15.105000000    18.784803764   0   0   0 # feok
   1622      1   3  1.575000    13.081313724    12.587500000    26.239337098   0   0   0 # feok
   1623      1   3  1.575000    15.988272330    12.587500000    17.092670431   0   0   0 # feok
   1624      1   3  1.575000    14.534793027    15.105000000    21.666003764   0   0   0 # feok
   1625      1   1 -1.050000    18.749883005     9.314750000     4.218737098   0   0   0 # obsk
   1626      1   1 -1.050000    21.656841610     9.314750000     8.792070431   0   0   0 # obsk
   1627      1   1 -1.050000    20.203362307    11.832250000    13.365403764   0   0   0 # obsk
   1628      1   1 -1.050000    17.441751632    11.580500000     4.218737098   0   0   0 # obsk
   1629      1   1 -1.050000    20.348710238    11.580500000     8.792070431   0   0   0 # obsk
   1630      1   1 -1.050000    18.895230935    14.098000000    13.365403764   0   0   0 # obsk
   1631      1   1 -1.050000    20.494058168    11.832250000     4.218737098   0   0   0 # obsk
   1632      1   1 -1.050000    19.040578865     9.314750000     8.792070431   0   0   0 # obsk
   1633      1   1 -1.050000    17.587099562    11.832250000    13.365403764   0   0   0 # obsk
   1634      1   1 -1.050000    20.494058168     8.307750000    11.078737098   0   0   0 # obsk
   1635      1   2 -0.950000    19.040578865    10.825250000     1.932070431   0   0   0 # ohk
   1636      1   1 -1.050000    17.587099562    13.342750000     6.505403764   0   0   0 # obsk
   1637      1   1 -1.050000    17.441751632    13.594500000    11.078737098   0   0   0 # obsk
   1638      1   2 -0.950000    20.348710238     8.559500000     1.932070431   0   0   0 # ohk
   1639      1   1 -1.050000    18.895230935    11.077000000     6.505403764   0   0   0 # obsk
   1640      1   1 -1.050000    18.749883005    10.825250000    11.078737098   0   0   0 # obsk
   1641      1   2 -0.950000    21.656841610    10.825250000     1.932070431   0   0   0 # ohk
   1642      1   1 -1.050000    20.203362307    13.342750000     6.505403764   0   0   0 # obsk
   1643      1   3  1.575000    17.441751632    10.070000000     5.659337098   0   0   0 # feok
   1644      1   3  1.575000    20.348710238    10.070000000    10.232670431   0   0   0 # feok
   1645      1   3  1.575000    17.441751632    10.070000000     2.778137098   0   0   0 # feok
   1646      1   3  1.575000    20.348710238    10.070000000     7.351470431   0   0   0 # feok
   1647      1   3  1.575000    18.895230935    12.587500000    11.924803764   0   0   0 # feok
   1648      1   3  1.575000    17.441751632    10.070000000     9.638137098   0   0   0 # feok
   1649      1   3  1.575000    20.348710238    10.070000000    14.211470431   0   0   0 # feok
   1650      1   3  1.575000    18.895230935    12.587500000     5.064803764   0   0   0 # feok
   1651      1   3  1.575000    17.441751632    10.070000000    12.519337098   0   0   0 # feok
   1652      1   3  1.575000    20.348710238    10.070000000     3.372670431   0   0   0 # feok
   1653      1   3  1.575000    18.895230935    12.587500000     7.946003764   0   0   0 # feok
   1654      1   1 -1.050000    18.749883005     9.314750000    17.938737098   0   0   0 # obsk
   1655      1   1 -1.050000    21.656841610     9.314750000    22.512070431   0   0   0 # obsk
   1656      1   2 -0.950000    20.203362307    11.832250000    27.085403764   0   0   0 # ohk
   1657      1   1 -1.050000    17.441751632    11.580500000    17.938737098   0   0   0 # obsk
   1658      1   1 -1.050000    20.348710238    11.580500000    22.512070431   0   0   0 # obsk
   1659      1   2 -0.950000    18.895230935    14.098000000    27.085403764   0   0   0 # ohk
   1660      1   1 -1.050000    20.494058168    11.832250000    17.938737098   0   0   0 # obsk
   1661      1   1 -1.050000    19.040578865     9.314750000    22.512070431   0   0   0 # obsk
   1662      1   2 -0.950000    17.587099562    11.832250000    27.085403764   0   0   0 # ohk
   1663      1   1 -1.050000    20.494058168     8.307750000    24.798737098   0   0   0 # obsk
   1664      1   1 -1.050000    19.040578865    10.825250000    15.652070431   0   0   0 # obsk
   1665      1   1 -1.050000    17.587099562    13.342750000    20.225403764   0   0   0 # obsk
   1666      1   1 -1.050000    17.441751632    13.594500000    24.798737098   0   0   0 # obsk
   1667      1   1 -1.050000    20.348710238     8.559500000    15.652070431   0   0   0 # obsk
   1668      1   1 -1.050000    18.895230935    11.077000000    20.225403764   0   0   0 # obsk
   1669      1   1 -1.050000    18.749883005    10.825250000    24.798737098   0   0   0 # obsk
   1670      1   1 -1.050000    21.656841610    10.825250000    15.652070431   0   0   0 # obsk
   1671      1   1 -1.050000    20.203362307    13.342750000    20.225403764   0   0   0 # obsk
   1672      1   3  1.575000    17.441751632    10.070000000    19.379337098   0   0   0 # feok
   1673      1   3  1.575000    20.348710238    10.070000000    23.952670431   0   0   0 # feok
   1674      1   3  1.575000    18.895230935    12.587500000    14.806003764   0   0   0 # feok
   1675      1   3  1.575000    17.441751632    10.070000000    16.498137098   0   0   0 # feok
   1676      1   3  1.575000    20.348710238    10.070000000    21.071470431   0   0   0 # feok
   1677      1   3  1.575000    18.895230935    12.587500000    25.644803764   0   0   0 # feok
   1678      1   3  1.575000    17.441751632    10.070000000    23.358137098   0   0   0 # feok
   1679      1   3  1.575000    18.895230935    12.587500000    18.784803764   0   0   0 # feok
   1680      1   3  1.575000    17.441751632    10.070000000    26.239337098   0   0   0 # feok
   1681      1   3  1.575000    20.348710238    10.070000000    17.092670431   0   0   0 # feok
   1682      1   3  1.575000    18.895230935    12.587500000    21.666003764   0   0   0 # feok
   1683      1   1 -1.050000    23.110320913     6.797250000     4.218737098   0   0   0 # obsk
   1684      1   1 -1.050000    -0.144620482     6.797250000     8.792070431   1   0   0 # obsk
   1685      1   1 -1.050000    24.563800215     9.314750000    13.365403764   0   0   0 # obsk
   1686      1   1 -1.050000    21.802189540     9.063000000     4.218737098   0   0   0 # obsk
   1687      1   1 -1.050000    24.709148146     9.063000000     8.792070431   0   0   0 # obsk
   1688      1   1 -1.050000    23.255668843    11.580500000    13.365403764   0   0   0 # obsk
   1689      1   1 -1.050000    24.854496076     9.314750000     4.218737098   0   0   0 # obsk
   1690      1   1 -1.050000    23.401016773     6.797250000     8.792070431   0   0   0 # obsk
   1691      1   1 -1.050000    21.947537471     9.314750000    13.365403764   0   0   0 # obsk
   1692      1   1 -1.050000    24.854496076     5.790250000    11.078737098   0   0   0 # obsk
   1693      1   2 -0.950000    23.401016773     8.307750000     1.932070431   0   0   0 # ohk
   1694      1   1 -1.050000    21.947537471    10.825250000     6.505403764   0   0   0 # obsk
   1695      1   1 -1.050000    21.802189540    11.077000000    11.078737098   0   0   0 # obsk
   1696      1   2 -0.950000    24.709148146     6.042000000     1.932070431   0   0   0 # ohk
   1697      1   1 -1.050000    23.255668843     8.559500000     6.505403764   0   0   0 # obsk
   1698      1   1 -1.050000    23.110320913     8.307750000    11.078737098   0   0   0 # obsk
   1699      1   2 -0.950000    -0.144620482     8.307750000     1.932070431   1   0   0 # ohk
   1700      1   1 -1.050000    24.563800215    10.825250000     6.505403764   0   0   0 # obsk
   1701      1   3  1.575000    21.802189540     7.552500000     5.659337098   0   0   0 # feok
   1702      1   3  1.575000    24.709148146     7.552500000    10.232670431   0   0   0 # feok
   1703      1   3  1.575000    21.802189540     7.552500000     2.778137098   0   0   0 # feok
   1704      1   3  1.575000    24.709148146     7.552500000     7.351470431   0   0   0 # feok
   1705      1   3  1.575000    23.255668843    10.070000000    11.924803764   0   0   0 # feok
   1706      1   3  1.575000    21.802189540     7.552500000     9.638137098   0   0   0 # feok
   1707      1   3  1.575000    24.709148146     7.552500000    14.211470431   0   0   0 # feok
   1708      1   3  1.575000    23.255668843    10.070000000     5.064803764   0   0   0 # feok
   1709      1   3  1.575000    21.802189540     7.552500000    12.519337098   0   0   0 # feok
   1710      1   3  1.575000    24.709148146     7.552500000     3.372670431   0   0   0 # feok
   1711      1   3  1.575000    23.255668843    10.070000000     7.946003764   0   0   0 # feok
   1712      1   1 -1.050000    23.110320913     6.797250000    17.938737098   0   0   0 # obsk
   1713      1   1 -1.050000    -0.144620482     6.797250000    22.512070431   1   0   0 # obsk
   1714      1   2 -0.950000    24.563800215     9.314750000    27.085403764   0   0   0 # ohk
   1715      1   1 -1.050000    21.802189540     9.063000000    17.938737098   0   0   0 # obsk
   1716      1   1 -1.050000    24.709148146     9.063000000    22.512070431   0   0   0 # obsk
   1717      1   2 -0.950000    23.255668843    11.580500000    27.085403764   0   0   0 # ohk
   1718      1   1 -1.050000    24.854496076     9.314750000    17.938737098   0   0   0 # obsk
   1719      1   1 -1.050000    23.401016773     6.797250000    22.512070431   0   0   0 # obsk
   1720      1   2 -0.950000    21.947537471     9.314750000    27.085403764   0   0   0 # ohk
   1721      1   1 -1.050000    24.854496076     5.790250000    24.798737098   0   0   0 # obsk
   1722      1   1 -1.050000    23.401016773     8.307750000    15.652070431   0   0   0 # obsk
   1723      1   1 -1.050000    21.947537471    10.825250000    20.225403764   0   0   0 # obsk
   1724      1   1 -1.050000    21.802189540    11.077000000    24.798737098   0   0   0 # obsk
   1725      1   1 -1.050000    24.709148146     6.042000000    15.652070431   0   0   0 # obsk
   1726      1   1 -1.050000    23.255668843     8.559500000    20.225403764   0   0   0 # obsk
   1727      1   1 -1.050000    23.110320913     8.307750000    24.798737098   0   0   0 # obsk
   1728      1   1 -1.050000    -0.144620482     8.307750000    15.652070431   1   0   0 # obsk
   1729      1   1 -1.050000    24.563800215    10.825250000    20.225403764   0   0   0 # obsk
   1730      1   3  1.575000    21.802189540     7.552500000    19.379337098   0   0   0 # feok
   1731      1   3  1.575000    24.709148146     7.552500000    23.952670431   0   0   0 # feok
   1732      1   3  1.575000    23.255668843    10.070000000    14.806003764   0   0   0 # feok
   1733      1   3  1.575000    21.802189540     7.552500000    16.498137098   0   0   0 # feok
   1734      1   3  1.575000    24.709148146     7.552500000    21.071470431   0   0   0 # feok
   1735      1   3  1.575000    23.255668843    10.070000000    25.644803764   0   0   0 # feok
   1736      1   3  1.575000    21.802189540     7.552500000    23.358137098   0   0   0 # feok
   1737      1   3  1.575000    23.255668843    10.070000000    18.784803764   0   0   0 # feok
   1738      1   3  1.575000    21.802189540     7.552500000    26.239337098   0   0   0 # feok
   1739      1   3  1.575000    24.709148146     7.552500000    17.092670431   0   0   0 # feok
   1740      1   3  1.575000    23.255668843    10.070000000    21.666003764   0   0   0 # feok
   1741      1   4  0.425000     1.510893863     0.755250000     1.200000048   0   0   0 # hoy
   1742      1   4  0.425000     2.819025236    23.664500000     1.200000048   0   0   0 # hoy
   1743      1   4  0.425000     4.127156608     0.755250000     1.200000048   0   0   0 # hoy
   1744      1   4  0.425000     2.806781014     1.695698146    27.884026001   0   0   0 # hoy
   1745      1   4  0.425000     1.498649642     3.961448146    27.884026001   0   0   0 # hoy
   1746      1   4  0.425000     0.190518269     1.695698146    27.884026001   0   0   0 # hoy
   1747      1   4  0.425000     5.871331771    23.412750000     1.200000048   0   0   0 # hoy
   1748      1   4  0.425000     7.179463144    21.147000000     1.200000048   0   0   0 # hoy
   1749      1   4  0.425000     8.487594516    23.412750000     1.200000048   0   0   0 # hoy
   1750      1   4  0.425000     7.167218922    24.353198146    27.884026001   0   0   0 # hoy
   1751      1   4  0.425000     5.859087550     1.443948146    27.884026001   0   0   0 # hoy
   1752      1   4  0.425000     4.550956178    24.353198146    27.884026001   0   0   0 # hoy
   1753      1   4  0.425000    10.231769679    20.895250000     1.200000048   0   0   0 # hoy
   1754      1   4  0.425000    11.539901052    18.629500000     1.200000048   0   0   0 # hoy
   1755      1   4  0.425000    12.848032424    20.895250000     1.200000048   0   0   0 # hoy
   1756      1   4  0.425000    11.527656830    21.835698146    27.884026001   0   0   0 # hoy
   1757      1   4  0.425000    10.219525458    24.101448146    27.884026001   0   0   0 # hoy
   1758      1   4  0.425000     8.911394086    21.835698146    27.884026001   0   0   0 # hoy
   1759      1   4  0.425000    14.592207588    18.377750000     1.200000048   0   0   0 # hoy
   1760      1   4  0.425000    15.900338960    16.112000000     1.200000048   0   0   0 # hoy
   1761      1   4  0.425000    17.208470332    18.377750000     1.200000048   0   0   0 # hoy
   1762      1   4  0.425000    15.888094738    19.318198146    27.884026001   0   0   0 # hoy
   1763      1   4  0.425000    14.579963366    21.583948146    27.884026001   0   0   0 # hoy
   1764      1   4  0.425000    13.271831994    19.318198146    27.884026001   0   0   0 # hoy
   1765      1   4  0.425000    18.952645496    15.860250000     1.200000048   0   0   0 # hoy
   1766      1   4  0.425000    20.260776868    13.594500000     1.200000048   0   0   0 # hoy
   1767      1   4  0.425000    21.568908240    15.860250000     1.200000048   0   0   0 # hoy
   1768      1   4  0.425000    20.248532647    16.800698146    27.884026001   0   0   0 # hoy
   1769      1   4  0.425000    18.940401274    19.066448146    27.884026001   0   0   0 # hoy
   1770      1   4  0.425000    17.632269902    16.800698146    27.884026001   0   0   0 # hoy
   1771      1   4  0.425000    23.313083404    13.342750000     1.200000048   0   0   0 # hoy
   1772      1   4  0.425000    24.621214776    11.077000000     1.200000048   0   0   0 # hoy
   1773      1   4  0.425000    -0.232553852    13.342750000     1.200000048   1   0   0 # hoy
   1774      1   4  0.425000    24.608970555    14.283198146    27.884026001   0   0   0 # hoy
   1775      1   4  0.425000    23.300839182    16.548948146    27.884026001   0   0   0 # hoy
   1776      1   4  0.425000    21.992707810    14.283198146    27.884026001   0   0   0 # hoy
   1777      1   4  0.425000     1.510893863     5.790250000     1.200000048   0   0   0 # hoy
   1778      1   4  0.425000     2.819025236     3.524500000     1.200000048   0   0   0 # hoy
   1779      1   4  0.425000     4.127156608     5.790250000     1.200000048   0   0   0 # hoy
   1780      1   4  0.425000     2.806781014     6.730698146    27.884026001   0   0   0 # hoy
   1781      1   4  0.425000     1.498649642     8.996448146    27.884026001   0   0   0 # hoy
   1782      1   4  0.425000     0.190518269     6.730698146    27.884026001   0   0   0 # hoy
   1783      1   4  0.425000     5.871331771     3.272750000     1.200000048   0   0   0 # hoy
   1784      1   4  0.425000     7.179463144     1.007000000     1.200000048   0   0   0 # hoy
   1785      1   4  0.425000     8.487594516     3.272750000     1.200000048   0   0   0 # hoy
   1786      1   4  0.425000     7.167218922     4.213198146    27.884026001   0   0   0 # hoy
   1787      1   4  0.425000     5.859087550     6.478948146    27.884026001   0   0   0 # hoy
   1788      1   4  0.425000     4.550956178     4.213198146    27.884026001   0   0   0 # hoy
   1789      1   4  0.425000    10.231769679     0.755250000     1.200000048   0   0   0 # hoy
   1790      1   4  0.425000    11.539901052    23.664500000     1.200000048   0   0   0 # hoy
   1791      1   4  0.425000    12.848032424     0.755250000     1.200000048   0   0   0 # hoy
   1792      1   4  0.425000    11.527656830     1.695698146    27.884026001   0   0   0 # hoy
   1793      1   4  0.425000    10.219525458     3.961448146    27.884026001   0   0   0 # hoy
   1794      1   4  0.425000     8.911394086     1.695698146    27.884026001   0   0   0 # hoy
   1795      1   4  0.425000    14.592207588    23.412750000     1.200000048   0   0   0 # hoy
   1796      1   4  0.425000    15.900338960    21.147000000     1.200000048   0   0   0 # hoy
   1797      1   4  0.425000    17.208470332    23.412750000     1.200000048   0   0   0 # hoy
   1798      1   4  0.425000    15.888094738    24.353198146    27.884026001   0   0   0 # hoy
   1799      1   4  0.425000    14.579963366     1.443948146    27.884026001   0   0   0 # hoy
   1800      1   4  0.425000    13.271831994    24.353198146    27.884026001   0   0   0 # hoy
   1801      1   4  0.425000    18.952645496    20.895250000     1.200000048   0   0   0 # hoy
   1802      1   4  0.425000    20.260776868    18.629500000     1.200000048   0   0   0 # hoy
   1803      1   4  0.425000    21.568908240    20.895250000     1.200000048   0   0   0 # hoy
   1804      1   4  0.425000    20.248532647    21.835698146    27.884026001   0   0   0 # hoy
   1805      1   4  0.425000    18.940401274    24.101448146    27.884026001   0   0   0 # hoy
   1806      1   4  0.425000    17.632269902    21.835698146    27.884026001   0   0   0 # hoy
   1807      1   4  0.425000    23.313083404    18.377750000     1.200000048   0   0   0 # hoy
   1808      1   4  0.425000    24.621214776    16.112000000     1.200000048   0   0   0 # hoy
   1809      1   4  0.425000    -0.232553852    18.377750000     1.200000048   1   0   0 # hoy
   1810      1   4  0.425000    24.608970555    19.318198146    27.884026001   0   0   0 # hoy
   1811      1   4  0.425000    23.300839182    21.583948146    27.884026001   0   0   0 # hoy
   1812      1   4  0.425000    21.992707810    19.318198146    27.884026001   0   0   0 # hoy
   1813      1   4  0.425000     1.510893863    10.825250000     1.200000048   0   0   0 # hoy
   1814      1   4  0.425000     2.819025236     8.559500000     1.200000048   0   0   0 # hoy
   1815      1   4  0.425000     4.127156608    10.825250000     1.200000048   0   0   0 # hoy
   1816      1   4  0.425000     2.806781014    11.765698146    27.884026001   0   0   0 # hoy
   1817      1   4  0.425000     1.498649642    14.031448146    27.884026001   0   0   0 # hoy
   1818      1   4  0.425000     0.190518269    11.765698146    27.884026001   0   0   0 # hoy
   1819      1   4  0.425000     5.871331771     8.307750000     1.200000048   0   0   0 # hoy
   1820      1   4  0.425000     7.179463144     6.042000000     1.200000048   0   0   0 # hoy
   1821      1   4  0.425000     8.487594516     8.307750000     1.200000048   0   0   0 # hoy
   1822      1   4  0.425000     7.167218922     9.248198146    27.884026001   0   0   0 # hoy
   1823      1   4  0.425000     5.859087550    11.513948146    27.884026001   0   0   0 # hoy
   1824      1   4  0.425000     4.550956178     9.248198146    27.884026001   0   0   0 # hoy
   1825      1   4  0.425000    10.231769679     5.790250000     1.200000048   0   0   0 # hoy
   1826      1   4  0.425000    11.539901052     3.524500000     1.200000048   0   0   0 # hoy
   1827      1   4  0.425000    12.848032424     5.790250000     1.200000048   0   0   0 # hoy
   1828      1   4  0.425000    11.527656830     6.730698146    27.884026001   0   0   0 # hoy
   1829      1   4  0.425000    10.219525458     8.996448146    27.884026001   0   0   0 # hoy
   1830      1   4  0.425000     8.911394086     6.730698146    27.884026001   0   0   0 # hoy
   1831      1   4  0.425000    14.592207588     3.272750000     1.200000048   0   0   0 # hoy
   1832      1   4  0.425000    15.900338960     1.007000000     1.200000048   0   0   0 # hoy
   1833      1   4  0.425000    17.208470332     3.272750000     1.200000048   0   0   0 # hoy
   1834      1   4  0.425000    15.888094738     4.213198146    27.884026001   0   0   0 # hoy
   1835      1   4  0.425000    14.579963366     6.478948146    27.884026001   0   0   0 # hoy
   1836      1   4  0.425000    13.271831994     4.213198146    27.884026001   0   0   0 # hoy
   1837      1   4  0.425000    18.952645496     0.755250000     1.200000048   0   0   0 # hoy
   1838      1   4  0.425000    20.260776868    23.664500000     1.200000048   0   0   0 # hoy
   1839      1   4  0.425000    21.568908240     0.755250000     1.200000048   0   0   0 # hoy
   1840      1   4  0.425000    20.248532647     1.695698146    27.884026001   0   0   0 # hoy
   1841      1   4  0.425000    18.940401274     3.961448146    27.884026001   0   0   0 # hoy
   1842      1   4  0.425000    17.632269902     1.695698146    27.884026001   0   0   0 # hoy
   1843      1   4  0.425000    23.313083404    23.412750000     1.200000048   0   0   0 # hoy
   1844      1   4  0.425000    24.621214776    21.147000000     1.200000048   0   0   0 # hoy
   1845      1   4  0.425000    -0.232553852    23.412750000     1.200000048   1   0   0 # hoy
   1846      1   4  0.425000    24.608970555    24.353198146    27.884026001   0   0   0 # hoy
   1847      1   4  0.425000    23.300839182     1.443948146    27.884026001   0   0   0 # hoy
   1848      1   4  0.425000    21.992707810    24.353198146    27.884026001   0   0   0 # hoy
   1849      1   4  0.425000     1.510893863    15.860250000     1.200000048   0   0   0 # hoy
   1850      1   4  0.425000     2.819025236    13.594500000     1.200000048   0   0   0 # hoy
   1851      1   4  0.425000     4.127156608    15.860250000     1.200000048   0   0   0 # hoy
   1852      1   4  0.425000     2.806781014    16.800698146    27.884026001   0   0   0 # hoy
   1853      1   4  0.425000     1.498649642    19.066448146    27.884026001   0   0   0 # hoy
   1854      1   4  0.425000     0.190518269    16.800698146    27.884026001   0   0   0 # hoy
   1855      1   4  0.425000     5.871331771    13.342750000     1.200000048   0   0   0 # hoy
   1856      1   4  0.425000     7.179463144    11.077000000     1.200000048   0   0   0 # hoy
   1857      1   4  0.425000     8.487594516    13.342750000     1.200000048   0   0   0 # hoy
   1858      1   4  0.425000     7.167218922    14.283198146    27.884026001   0   0   0 # hoy
   1859      1   4  0.425000     5.859087550    16.548948146    27.884026001   0   0   0 # hoy
   1860      1   4  0.425000     4.550956178    14.283198146    27.884026001   0   0   0 # hoy
   1861      1   4  0.425000    10.231769679    10.825250000     1.200000048   0   0   0 # hoy
   1862      1   4  0.425000    11.539901052     8.559500000     1.200000048   0   0   0 # hoy
   1863      1   4  0.425000    12.848032424    10.825250000     1.200000048   0   0   0 # hoy
   1864      1   4  0.425000    11.527656830    11.765698146    27.884026001   0   0   0 # hoy
   1865      1   4  0.425000    10.219525458    14.031448146    27.884026001   0   0   0 # hoy
   1866      1   4  0.425000     8.911394086    11.765698146    27.884026001   0   0   0 # hoy
   1867      1   4  0.425000    14.592207588     8.307750000     1.200000048   0   0   0 # hoy
   1868      1   4  0.425000    15.900338960     6.042000000     1.200000048   0   0   0 # hoy
   1869      1   4  0.425000    17.208470332     8.307750000     1.200000048   0   0   0 # hoy
   1870      1   4  0.425000    15.888094738     9.248198146    27.884026001   0   0   0 # hoy
   1871      1   4  0.425000    14.579963366    11.513948146    27.884026001   0   0   0 # hoy
   1872      1   4  0.425000    13.271831994     9.248198146    27.884026001   0   0   0 # hoy
   1873      1   4  0.425000    18.952645496     5.790250000     1.200000048   0   0   0 # hoy
   1874      1   4  0.425000    20.260776868     3.524500000     1.200000048   0   0   0 # hoy
   1875      1   4  0.425000    21.568908240     5.790250000     1.200000048   0   0   0 # hoy
   1876      1   4  0.425000    20.248532647     6.730698146    27.884026001   0   0   0 # hoy
   1877      1   4  0.425000    18.940401274     8.996448146    27.884026001   0   0   0 # hoy
   1878      1   4  0.425000    17.632269902     6.730698146    27.884026001   0   0   0 # hoy
   1879      1   4  0.425000    23.313083404     3.272750000     1.200000048   0   0   0 # hoy
   1880      1   4  0.425000    24.621214776     1.007000000     1.200000048   0   0   0 # hoy
   1881      1   4  0.425000    -0.232553852     3.272750000     1.200000048   1   0   0 # hoy
   1882      1   4  0.425000    24.608970555     4.213198146    27.884026001   0   0   0 # hoy
   1883      1   4  0.425000    23.300839182     6.478948146    27.884026001   0   0   0 # hoy
   1884      1   4  0.425000    21.992707810     4.213198146    27.884026001   0   0   0 # hoy
   1885      1   4  0.425000     1.510893863    20.895250000     1.200000048   0   0   0 # hoy
   1886      1   4  0.425000     2.819025236    18.629500000     1.200000048   0   0   0 # hoy
   1887      1   4  0.425000     4.127156608    20.895250000     1.200000048   0   0   0 # hoy
   1888      1   4  0.425000     2.806781014    21.835698146    27.884026001   0   0   0 # hoy
   1889      1   4  0.425000     1.498649642    24.101448146    27.884026001   0   0   0 # hoy
   1890      1   4  0.425000     0.190518269    21.835698146    27.884026001   0   0   0 # hoy
   1891      1   4  0.425000     5.871331771    18.377750000     1.200000048   0   0   0 # hoy
   1892      1   4  0.425000     7.179463144    16.112000000     1.200000048   0   0   0 # hoy
   1893      1   4  0.425000     8.487594516    18.377750000     1.200000048   0   0   0 # hoy
   1894      1   4  0.425000     7.167218922    19.318198146    27.884026001   0   0   0 # hoy
   1895      1   4  0.425000     5.859087550    21.583948146    27.884026001   0   0   0 # hoy
   1896      1   4  0.425000     4.550956178    19.318198146    27.884026001   0   0   0 # hoy
   1897      1   4  0.425000    10.231769679    15.860250000     1.200000048   0   0   0 # hoy
   1898      1   4  0.425000    11.539901052    13.594500000     1.200000048   0   0   0 # hoy
   1899      1   4  0.425000    12.848032424    15.860250000     1.200000048   0   0   0 # hoy
   1900      1   4  0.425000    11.527656830    16.800698146    27.884026001   0   0   0 # hoy
   1901      1   4  0.425000    10.219525458    19.066448146    27.884026001   0   0   0 # hoy
   1902      1   4  0.425000     8.911394086    16.800698146    27.884026001   0   0   0 # hoy
   1903      1   4  0.425000    14.592207588    13.342750000     1.200000048   0   0   0 # hoy
   1904      1   4  0.425000    15.900338960    11.077000000     1.200000048   0   0   0 # hoy
   1905      1   4  0.425000    17.208470332    13.342750000     1.200000048   0   0   0 # hoy
   1906      1   4  0.425000    15.888094738    14.283198146    27.884026001   0   0   0 # hoy
   1907      1   4  0.425000    14.579963366    16.548948146    27.884026001   0   0   0 # hoy
   1908      1   4  0.425000    13.271831994    14.283198146    27.884026001   0   0   0 # hoy
   1909      1   4  0.425000    18.952645496    10.825250000     1.200000048   0   0   0 # hoy
   1910      1   4  0.425000    20.260776868     8.559500000     1.200000048   0   0   0 # hoy
   1911      1   4  0.425000    21.568908240    10.825250000     1.200000048   0   0   0 # hoy
   1912      1   4  0.425000    20.248532647    11.765698146    27.884026001   0   0   0 # hoy
   1913      1   4  0.425000    18.940401274    14.031448146    27.884026001   0   0   0 # hoy
   1914      1   4  0.425000    17.632269902    11.765698146    27.884026001   0   0   0 # hoy
   1915      1   4  0.425000    23.313083404     8.307750000     1.200000048   0   0   0 # hoy
   1916      1   4  0.425000    24.621214776     6.042000000     1.200000048   0   0   0 # hoy
   1917      1   4  0.425000    -0.232553852     8.307750000     1.200000048   1   0   0 # hoy
   1918      1   4  0.425000    24.608970555     9.248198146    27.884026001   0   0   0 # hoy
   1919      1   4  0.425000    23.300839182    11.513948146    27.884026001   0   0   0 # hoy
   1920      1   4  0.425000    21.992707810     9.248198146    27.884026001   0   0   0 # hoy

Bonds

     1   1     11   1741
     2   1     14   1742
     3   1     17   1743
     4   1     32   1744
     5   1     35   1745
     6   1     38   1746
     7   1     69   1747
     8   1     72   1748
     9   1     75   1749
    10   1     90   1750
    11   1     93   1751
    12   1     96   1752
    13   1    127   1753
    14   1    130   1754
    15   1    133   1755
    16   1    148   1756
    17   1    151   1757
    18   1    154   1758
    19   1    185   1759
    20   1    188   1760
    21   1    191   1761
    22   1    206   1762
    23   1    209   1763
    24   1    212   1764
    25   1    243   1765
    26   1    246   1766
    27   1    249   1767
    28   1    264   1768
    29   1    267   1769
    30   1    270   1770
    31   1    301   1771
    32   1    304   1772
    33   1    307   1773
    34   1    322   1774
    35   1    325   1775
    36   1    328   1776
    37   1    359   1777
    38   1    362   1778
    39   1    365   1779
    40   1    380   1780
    41   1    383   1781
    42   1    386   1782
    43   1    417   1783
    44   1    420   1784
    45   1    423   1785
    46   1    438   1786
    47   1    441   1787
    48   1    444   1788
    49   1    475   1789
    50   1    478   1790
    51   1    481   1791
    52   1    496   1792
    53   1    499   1793
    54   1    502   1794
    55   1    533   1795
    56   1    536   1796
    57   1    539   1797
    58   1    554   1798
    59   1    557   1799
    60   1    560   1800
    61   1    591   1801
    62   1    594   1802
    63   1    597   1803
    64   1    612   1804
    65   1    615   1805
    66   1    618   1806
    67   1    649   1807
    68   1    652   1808
    69   1    655   1809
    70   1    670   1810
    71   1    673   1811
    72   1    676   1812
    73   1    707   1813
    74   1    710   1814
    75   1    713   1815
    76   1    728   1816
    77   1    731   1817
    78   1    734   1818
    79   1    765   1819
    80   1    768   1820
    81   1    771   1821
    82   1    786   1822
    83   1    789   1823
    84   1    792   1824
    85   1    823   1825
    86   1    826   1826
    87   1    829   1827
    88   1    844   1828
    89   1    847   1829
    90   1    850   1830
    91   1    881   1831
    92   1    884   1832
    93   1    887   1833
    94   1    902   1834
    95   1    905   1835
    96   1    908   1836
    97   1    939   1837
    98   1    942   1838
    99   1    945   1839
   100   1    960   1840
   101   1    963   1841
   102   1    966   1842
   103   1    997   1843
   104   1   1000   1844
   105   1   1003   1845
   106   1   1018   1846
   107   1   1021   1847
   108   1   1024   1848
   109   1   1055   1849
   110   1   1058   1850
   111   1   1061   1851
   112   1   1076   1852
   113   1   1079   1853
   114   1   1082   1854
   115   1   1113   1855
   116   1   1116   1856
   117   1   1119   1857
   118   1   1134   1858
   119   1   1137   1859
   120   1   1140   1860
   121   1   1171   1861
   122   1   1174   1862
   123   1   1177   1863
   124   1   1192   1864
   125   1   1195   1865
   126   1   1198   1866
   127   1   1229   1867
   128   1   1232   1868
   129   1   1235   1869
   130   1   1250   1870
   131   1   1253   1871
   132   1   1256   1872
   133   1   1287   1873
   134   1   1290   1874
   135   1   1293   1875
   136   1   1308   1876
   137   1   1311   1877
   138   1   1314   1878
   139   1   1345   1879
   140   1   1348   1880
   141   1   1351   1881
   142   1   1366   1882
   143   1   1369   1883
   144   1   1372   1884
   145   1   1403   1885
   146   1   1406   1886
   147   1   1409   1887
   148   1   1424   1888
   149   1   1427   1889
   150   1   1430   1890
   151   1   1461   1891
   152   1   1464   1892
   153   1   1467   1893
   154   1   1482   1894
   155   1   1485   1895
   156   1   1488   1896
   157   1   1519   1897
   158   1   1522   1898
   159   1   1525   1899
   160   1   1540   1900
   161   1   1543   1901
   162   1   1546   1902
   163   1   1577   1903
   164   1   1580   1904
   165   1   1583   1905
   166   1   1598   1906
   167   1   1601   1907
   168   1   1604   1908
   169   1   1635   1909
   170   1   1638   1910
   171   1   1641   1911
   172   1   1656   1912
   173   1   1659   1913
   174   1   1662   1914
   175   1   1693   1915
   176   1   1696   1916
   177   1   1699   1917
   178   1   1714   1918
   179   1   1717   1919
   180   1   1720   1920

Angles

     1   1     21     11   1741
     2   1     28     11   1741
     3   1     28     14   1742
     4   1     79     14   1742
     5   1     28     17   1743
     6   1    427     17   1743
     7   1    462     32   1744
     8   1     53     32   1744
     9   1     53     35   1745
    10   1    404     35   1745
    11   1     56     38   1746
    12   1     53     38   1746
    13   1     79     69   1747
    14   1     86     69   1747
    15   1     86     72   1748
    16   1    137     72   1748
    17   1    485     75   1749
    18   1     86     75   1749
    19   1    520     90   1750
    20   1    111     90   1750
    21   1    111     93   1751
    22   1    462     93   1751
    23   1    111     96   1752
    24   1    114     96   1752
    25   1    137    127   1753
    26   1    144    127   1753
    27   1    144    130   1754
    28   1    195    130   1754
    29   1    543    133   1755
    30   1    144    133   1755
    31   1    169    148   1756
    32   1    578    148   1756
    33   1    520    151   1757
    34   1    169    151   1757
    35   1    169    154   1758
    36   1    172    154   1758
    37   1    202    185   1759
    38   1    195    185   1759
    39   1    202    188   1760
    40   1    253    188   1760
    41   1    202    191   1761
    42   1    601    191   1761
    43   1    227    206   1762
    44   1    636    206   1762
    45   1    578    209   1763
    46   1    227    209   1763
    47   1    227    212   1764
    48   1    230    212   1764
    49   1    260    243   1765
    50   1    253    243   1765
    51   1    311    246   1766
    52   1    260    246   1766
    53   1    260    249   1767
    54   1    659    249   1767
    55   1    285    264   1768
    56   1    694    264   1768
    57   1    636    267   1769
    58   1    285    267   1769
    59   1    285    270   1770
    60   1    288    270   1770
    61   1    318    301   1771
    62   1    311    301   1771
    63   1    717    304   1772
    64   1    318    304   1772
    65   1    318    307   1773
    66   1   1065    307   1773
    67   1    343    322   1774
    68   1   1100    322   1774
    69   1    694    325   1775
    70   1    343    325   1775
    71   1    343    328   1776
    72   1    346    328   1776
    73   1    369    359   1777
    74   1    376    359   1777
    75   1    427    362   1778
    76   1    376    362   1778
    77   1    376    365   1779
    78   1    775    365   1779
    79   1    810    380   1780
    80   1    401    380   1780
    81   1    401    383   1781
    82   1    752    383   1781
    83   1    404    386   1782
    84   1    401    386   1782
    85   1    427    417   1783
    86   1    434    417   1783
    87   1    485    420   1784
    88   1    434    420   1784
    89   1    434    423   1785
    90   1    833    423   1785
    91   1    868    438   1786
    92   1    459    438   1786
    93   1    459    441   1787
    94   1    810    441   1787
    95   1    462    444   1788
    96   1    459    444   1788
    97   1    485    475   1789
    98   1    492    475   1789
    99   1    492    478   1790
   100   1    543    478   1790
   101   1    492    481   1791
   102   1    891    481   1791
   103   1    517    496   1792
   104   1    926    496   1792
   105   1    517    499   1793
   106   1    868    499   1793
   107   1    520    502   1794
   108   1    517    502   1794
   109   1    550    533   1795
   110   1    543    533   1795
   111   1    550    536   1796
   112   1    601    536   1796
   113   1    949    539   1797
   114   1    550    539   1797
   115   1    575    554   1798
   116   1    984    554   1798
   117   1    575    557   1799
   118   1    926    557   1799
   119   1    575    560   1800
   120   1    578    560   1800
   121   1    608    591   1801
   122   1    601    591   1801
   123   1    608    594   1802
   124   1    659    594   1802
   125   1   1007    597   1803
   126   1    608    597   1803
   127   1    633    612   1804
   128   1   1042    612   1804
   129   1    984    615   1805
   130   1    633    615   1805
   131   1    633    618   1806
   132   1    636    618   1806
   133   1    666    649   1807
   134   1    659    649   1807
   135   1    666    652   1808
   136   1   1065    652   1808
   137   1    666    655   1809
   138   1   1413    655   1809
   139   1    691    670   1810
   140   1   1448    670   1810
   141   1   1042    673   1811
   142   1    691    673   1811
   143   1    691    676   1812
   144   1    694    676   1812
   145   1    717    707   1813
   146   1    724    707   1813
   147   1    775    710   1814
   148   1    724    710   1814
   149   1    724    713   1815
   150   1   1123    713   1815
   151   1   1158    728   1816
   152   1    749    728   1816
   153   1   1100    731   1817
   154   1    749    731   1817
   155   1    749    734   1818
   156   1    752    734   1818
   157   1    775    765   1819
   158   1    782    765   1819
   159   1    833    768   1820
   160   1    782    768   1820
   161   1    782    771   1821
   162   1   1181    771   1821
   163   1   1216    786   1822
   164   1    807    786   1822
   165   1   1158    789   1823
   166   1    807    789   1823
   167   1    807    792   1824
   168   1    810    792   1824
   169   1    833    823   1825
   170   1    840    823   1825
   171   1    891    826   1826
   172   1    840    826   1826
   173   1    840    829   1827
   174   1   1239    829   1827
   175   1    865    844   1828
   176   1   1274    844   1828
   177   1    865    847   1829
   178   1   1216    847   1829
   179   1    868    850   1830
   180   1    865    850   1830
   181   1    898    881   1831
   182   1    891    881   1831
   183   1    949    884   1832
   184   1    898    884   1832
   185   1    898    887   1833
   186   1   1297    887   1833
   187   1    923    902   1834
   188   1   1332    902   1834
   189   1    923    905   1835
   190   1   1274    905   1835
   191   1    926    908   1836
   192   1    923    908   1836
   193   1    956    939   1837
   194   1    949    939   1837
   195   1    956    942   1838
   196   1   1007    942   1838
   197   1    956    945   1839
   198   1   1355    945   1839
   199   1    981    960   1840
   200   1   1390    960   1840
   201   1    981    963   1841
   202   1   1332    963   1841
   203   1    984    966   1842
   204   1    981    966   1842
   205   1   1014    997   1843
   206   1   1007    997   1843
   207   1   1014   1000   1844
   208   1   1413   1000   1844
   209   1     21   1003   1845
   210   1   1014   1003   1845
   211   1   1039   1018   1846
   212   1     56   1018   1846
   213   1   1039   1021   1847
   214   1   1390   1021   1847
   215   1   1039   1024   1848
   216   1   1042   1024   1848
   217   1   1065   1055   1849
   218   1   1072   1055   1849
   219   1   1123   1058   1850
   220   1   1072   1058   1850
   221   1   1072   1061   1851
   222   1   1471   1061   1851
   223   1   1506   1076   1852
   224   1   1097   1076   1852
   225   1   1448   1079   1853
   226   1   1097   1079   1853
   227   1   1097   1082   1854
   228   1   1100   1082   1854
   229   1   1123   1113   1855
   230   1   1130   1113   1855
   231   1   1181   1116   1856
   232   1   1130   1116   1856
   233   1   1130   1119   1857
   234   1   1529   1119   1857
   235   1   1564   1134   1858
   236   1   1155   1134   1858
   237   1   1506   1137   1859
   238   1   1155   1137   1859
   239   1   1155   1140   1860
   240   1   1158   1140   1860
   241   1   1181   1171   1861
   242   1   1188   1171   1861
   243   1   1239   1174   1862
   244   1   1188   1174   1862
   245   1   1188   1177   1863
   246   1   1587   1177   1863
   247   1   1213   1192   1864
   248   1   1622   1192   1864
   249   1   1564   1195   1865
   250   1   1213   1195   1865
   251   1   1213   1198   1866
   252   1   1216   1198   1866
   253   1   1246   1229   1867
   254   1   1239   1229   1867
   255   1   1297   1232   1868
   256   1   1246   1232   1868
   257   1   1246   1235   1869
   258   1   1645   1235   1869
   259   1   1271   1250   1870
   260   1   1680   1250   1870
   261   1   1622   1253   1871
   262   1   1271   1253   1871
   263   1   1271   1256   1872
   264   1   1274   1256   1872
   265   1   1304   1287   1873
   266   1   1297   1287   1873
   267   1   1355   1290   1874
   268   1   1304   1290   1874
   269   1   1304   1293   1875
   270   1   1703   1293   1875
   271   1   1329   1308   1876
   272   1   1738   1308   1876
   273   1   1329   1311   1877
   274   1   1680   1311   1877
   275   1   1332   1314   1878
   276   1   1329   1314   1878
   277   1   1362   1345   1879
   278   1   1355   1345   1879
   279   1     21   1348   1880
   280   1   1362   1348   1880
   281   1   1362   1351   1881
   282   1    369   1351   1881
   283   1   1387   1366   1882
   284   1    404   1366   1882
   285   1   1387   1369   1883
   286   1   1738   1369   1883
   287   1   1390   1372   1884
   288   1   1387   1372   1884
   289   1   1413   1403   1885
   290   1   1420   1403   1885
   291   1   1420   1406   1886
   292   1   1471   1406   1886
   293   1     79   1409   1887
   294   1   1420   1409   1887
   295   1    114   1424   1888
   296   1   1445   1424   1888
   297   1     56   1427   1889
   298   1   1445   1427   1889
   299   1   1445   1430   1890
   300   1   1448   1430   1890
   301   1   1471   1461   1891
   302   1   1478   1461   1891
   303   1   1478   1464   1892
   304   1   1529   1464   1892
   305   1   1478   1467   1893
   306   1    137   1467   1893
   307   1    172   1482   1894
   308   1   1503   1482   1894
   309   1    114   1485   1895
   310   1   1503   1485   1895
   311   1   1503   1488   1896
   312   1   1506   1488   1896
   313   1   1529   1519   1897
   314   1   1536   1519   1897
   315   1   1587   1522   1898
   316   1   1536   1522   1898
   317   1   1536   1525   1899
   318   1    195   1525   1899
   319   1   1561   1540   1900
   320   1    230   1540   1900
   321   1    172   1543   1901
   322   1   1561   1543   1901
   323   1   1561   1546   1902
   324   1   1564   1546   1902
   325   1   1594   1577   1903
   326   1   1587   1577   1903
   327   1   1645   1580   1904
   328   1   1594   1580   1904
   329   1   1594   1583   1905
   330   1    253   1583   1905
   331   1   1619   1598   1906
   332   1    288   1598   1906
   333   1    230   1601   1907
   334   1   1619   1601   1907
   335   1   1619   1604   1908
   336   1   1622   1604   1908
   337   1   1652   1635   1909
   338   1   1645   1635   1909
   339   1   1703   1638   1910
   340   1   1652   1638   1910
   341   1   1652   1641   1911
   342   1    311   1641   1911
   343   1   1677   1656   1912
   344   1    346   1656   1912
   345   1    288   1659   1913
   346   1   1677   1659   1913
   347   1   1677   1662   1914
   348   1   1680   1662   1914
   349   1   1710   1693   1915
   350   1   1703   1693   1915
   351   1    369   1696   1916
   352   1   1710   1696   1916
   353   1   1710   1699   1917
   354   1    717   1699   1917
   355   1   1735   1714   1918
   356   1    752   1714   1918
   357   1    346   1717   1919
   358   1   1735   1717   1919
   359   1   1735   1720   1920
   360   1   1738   1720   1920
