LAMMPS data file for hem-d2-2

   1804 atoms
   2 bonds
   2 angles
      0 dihedrals
      0 impropers

   4 atom types
   1 bond types
   1 angle types

    -0.128040739    26.033859261 xlo xhi
    -0.023018972    25.151981028 ylo yhi
   -73.969444907   106.856055093 zlo zhi

Masses

   1  15.999400 # obsk
   2  55.847000 # feok
   3  15.999400 # ohk
   4   1.007940 # hoy

Pair Coeffs # lj/cut/coul/long

   1   0.1554000000   3.1655413253 # obsk
   2   0.0000090298   4.0722178483 # feok
   3   0.1554000000   3.1655413253 # ohk
   4   0.0000000000   0.0000000000 # hoy

Bond Coeffs # harmonic

   1   554.1348     1.0000 # ohk-hoy

Angle Coeffs # harmonic

   1    30.0000   109.4700 # feok-ohk-hoy

Atoms # full

      1    1   1 -1.050000    22.254507279    20.622726321     6.120490766   0   0   0 # obsk
      2    1   1 -1.050000    25.161465884    20.622726321    10.693824099   0   0   0 # obsk
      3    1   1 -1.050000    23.707986581    23.140226321    15.267157432   0   0   0 # obsk
      4    1   1 -1.050000    20.946375906    22.888476321     6.120490766   0   0   0 # obsk
      5    1   1 -1.050000    23.853334512    22.888476321    10.693824099   0   0   0 # obsk
      6    1   1 -1.050000    22.399855209     0.230976321    15.267157432   0   0   0 # obsk
      7    1   1 -1.050000    23.998682442    23.140226321     6.120490766   0   0   0 # obsk
      8    1   1 -1.050000    22.545203139    20.622726321    10.693824099   0   0   0 # obsk
      9    1   1 -1.050000    21.091723836    23.140226321    15.267157432   0   0   0 # obsk
     10    1   1 -1.050000    23.998682442    19.615726321    12.980490766   0   0   0 # obsk
     11    1   1 -1.050000    22.545203139    22.133226321     3.833824099   0   0   0 # obsk
     12    1   1 -1.050000    21.091723836    24.650726321     8.407157432   0   0   0 # obsk
     13    1   1 -1.050000    20.946375906    24.902476321    12.980490766   0   0   0 # obsk
     14    1   1 -1.050000    23.853334512    19.867476321     3.833824099   0   0   0 # obsk
     15    1   1 -1.050000    22.399855209    22.384976321     8.407157432   0   0   0 # obsk
     16    1   1 -1.050000    22.254507279    22.133226321    12.980490766   0   0   0 # obsk
     17    1   1 -1.050000    25.161465884    22.133226321     3.833824099   0   0   0 # obsk
     18    1   1 -1.050000    23.707986581    24.650726321     8.407157432   0   0   0 # obsk
     19    1   2  1.575000    20.946375906    21.377976321     7.561090766   0   0   0 # feok
     20    1   2  1.575000    23.853334512    21.377976321    12.134424099   0   0   0 # feok
     21    1   2  1.575000    22.399855209    23.895476321     2.987757432   0   0   0 # feok
     22    1   2  1.575000    20.946375906    21.377976321     4.679890766   0   0   0 # feok
     23    1   2  1.575000    23.853334512    21.377976321     9.253224099   0   0   0 # feok
     24    1   2  1.575000    22.399855209    23.895476321    13.826557432   0   0   0 # feok
     25    1   2  1.575000    20.946375906    21.377976321    11.539890766   0   0   0 # feok
     26    1   2  1.575000    23.853334512    21.377976321    16.113224099   0   0   0 # feok
     27    1   2  1.575000    22.399855209    23.895476321     6.966557432   0   0   0 # feok
     28    1   2  1.575000    20.946375906    21.377976321    14.421090766   0   0   0 # feok
     29    1   2  1.575000    23.853334512    21.377976321     5.274424099   0   0   0 # feok
     30    1   2  1.575000    22.399855209    23.895476321     9.847757432   0   0   0 # feok
     31    1   1 -1.050000    22.254507279    20.622726321    19.840490766   0   0   0 # obsk
     32    1   1 -1.050000    25.161465884    20.622726321    24.413824099   0   0   0 # obsk
     33    1   1 -1.050000    23.707986581    23.140226321    28.987157432   0   0   0 # obsk
     34    1   1 -1.050000    20.946375906    22.888476321    19.840490766   0   0   0 # obsk
     35    1   1 -1.050000    23.853334512    22.888476321    24.413824099   0   0   0 # obsk
     36    1   1 -1.050000    22.399855209     0.230976321    28.987157432   0   0   0 # obsk
     37    1   1 -1.050000    23.998682442    23.140226321    19.840490766   0   0   0 # obsk
     38    1   1 -1.050000    22.545203139    20.622726321    24.413824099   0   0   0 # obsk
     39    1   1 -1.050000    21.091723836    23.140226321    28.987157432   0   0   0 # obsk
     40    1   1 -1.050000    23.998682442    19.615726321    26.700490766   0   0   0 # obsk
     41    1   1 -1.050000    22.545203139    22.133226321    17.553824099   0   0   0 # obsk
     42    1   1 -1.050000    21.091723836    24.650726321    22.127157432   0   0   0 # obsk
     43    1   1 -1.050000    20.946375906    24.902476321    26.700490766   0   0   0 # obsk
     44    1   1 -1.050000    23.853334512    19.867476321    17.553824099   0   0   0 # obsk
     45    1   1 -1.050000    22.399855209    22.384976321    22.127157432   0   0   0 # obsk
     46    1   1 -1.050000    22.254507279    22.133226321    26.700490766   0   0   0 # obsk
     47    1   1 -1.050000    25.161465884    22.133226321    17.553824099   0   0   0 # obsk
     48    1   1 -1.050000    23.707986581    24.650726321    22.127157432   0   0   0 # obsk
     49    1   2  1.575000    20.946375906    21.377976321    21.281090766   0   0   0 # feok
     50    1   2  1.575000    23.853334512    21.377976321    25.854424099   0   0   0 # feok
     51    1   2  1.575000    22.399855209    23.895476321    16.707757432   0   0   0 # feok
     52    1   2  1.575000    20.946375906    21.377976321    18.399890766   0   0   0 # feok
     53    1   2  1.575000    23.853334512    21.377976321    22.973224099   0   0   0 # feok
     54    1   2  1.575000    22.399855209    23.895476321    27.546557432   0   0   0 # feok
     55    1   2  1.575000    20.946375906    21.377976321    25.259890766   0   0   0 # feok
     56    1   2  1.575000    23.853334512    21.377976321    29.833224099   0   0   0 # feok
     57    1   2  1.575000    22.399855209    23.895476321    20.686557432   0   0   0 # feok
     58    1   2  1.575000    20.946375906    21.377976321    28.141090766   0   0   0 # feok
     59    1   2  1.575000    23.853334512    21.377976321    18.994424099   0   0   0 # feok
     60    1   2  1.575000    22.399855209    23.895476321    23.567757432   0   0   0 # feok
     61    1   1 -1.050000     0.453085187    18.105226321     6.120490766   0   0   0 # obsk
     62    1   1 -1.050000     3.360043792    18.105226321    10.693824099   0   0   0 # obsk
     63    1   1 -1.050000     1.906564489    20.622726321    15.267157432   0   0   0 # obsk
     64    1   1 -1.050000    25.306813814    20.370976321     6.120490766   0   0   0 # obsk
     65    1   1 -1.050000     2.051912420    20.370976321    10.693824099   0   0   0 # obsk
     66    1   1 -1.050000     0.598433117    22.888476321    15.267157432   0   0   0 # obsk
     67    1   1 -1.050000     2.197260350    20.622726321     6.120490766   0   0   0 # obsk
     68    1   1 -1.050000     0.743781047    18.105226321    10.693824099   0   0   0 # obsk
     69    1   1 -1.050000    25.452161744    20.622726321    15.267157432   0   0   0 # obsk
     70    1   1 -1.050000     2.197260350    17.098226321    12.980490766   0   0   0 # obsk
     71    1   1 -1.050000     0.743781047    19.615726321     3.833824099   0   0   0 # obsk
     72    1   1 -1.050000    25.452161744    22.133226321     8.407157432   0   0   0 # obsk
     73    1   1 -1.050000    25.306813814    22.384976321    12.980490766   0   0   0 # obsk
     74    1   1 -1.050000     2.051912420    17.349976321     3.833824099   0   0   0 # obsk
     75    1   1 -1.050000     0.598433117    19.867476321     8.407157432   0   0   0 # obsk
     76    1   1 -1.050000     0.453085187    19.615726321    12.980490766   0   0   0 # obsk
     77    1   1 -1.050000     3.360043792    19.615726321     3.833824099   0   0   0 # obsk
     78    1   1 -1.050000     1.906564489    22.133226321     8.407157432   0   0   0 # obsk
     79    1   2  1.575000    25.306813814    18.860476321     7.561090766   0   0   0 # feok
     80    1   2  1.575000     2.051912420    18.860476321    12.134424099   0   0   0 # feok
     81    1   2  1.575000     0.598433117    21.377976321     2.987757432   0   0   0 # feok
     82    1   2  1.575000    25.306813814    18.860476321     4.679890766   0   0   0 # feok
     83    1   2  1.575000     2.051912420    18.860476321     9.253224099   0   0   0 # feok
     84    1   2  1.575000     0.598433117    21.377976321    13.826557432   0   0   0 # feok
     85    1   2  1.575000    25.306813814    18.860476321    11.539890766   0   0   0 # feok
     86    1   2  1.575000     2.051912420    18.860476321    16.113224099   0   0   0 # feok
     87    1   2  1.575000     0.598433117    21.377976321     6.966557432   0   0   0 # feok
     88    1   2  1.575000    25.306813814    18.860476321    14.421090766   0   0   0 # feok
     89    1   2  1.575000     2.051912420    18.860476321     5.274424099   0   0   0 # feok
     90    1   2  1.575000     0.598433117    21.377976321     9.847757432   0   0   0 # feok
     91    1   1 -1.050000     0.453085187    18.105226321    19.840490766   0   0   0 # obsk
     92    1   1 -1.050000     3.360043792    18.105226321    24.413824099   0   0   0 # obsk
     93    1   1 -1.050000     1.906564489    20.622726321    28.987157432   0   0   0 # obsk
     94    1   1 -1.050000    25.306813814    20.370976321    19.840490766   0   0   0 # obsk
     95    1   1 -1.050000     2.051912420    20.370976321    24.413824099   0   0   0 # obsk
     96    1   1 -1.050000     0.598433117    22.888476321    28.987157432   0   0   0 # obsk
     97    1   1 -1.050000     2.197260350    20.622726321    19.840490766   0   0   0 # obsk
     98    1   1 -1.050000     0.743781047    18.105226321    24.413824099   0   0   0 # obsk
     99    1   1 -1.050000    25.452161744    20.622726321    28.987157432   0   0   0 # obsk
    100    1   1 -1.050000     2.197260350    17.098226321    26.700490766   0   0   0 # obsk
    101    1   1 -1.050000     0.743781047    19.615726321    17.553824099   0   0   0 # obsk
    102    1   1 -1.050000    25.452161744    22.133226321    22.127157432   0   0   0 # obsk
    103    1   1 -1.050000    25.306813814    22.384976321    26.700490766   0   0   0 # obsk
    104    1   1 -1.050000     2.051912420    17.349976321    17.553824099   0   0   0 # obsk
    105    1   1 -1.050000     0.598433117    19.867476321    22.127157432   0   0   0 # obsk
    106    1   1 -1.050000     0.453085187    19.615726321    26.700490766   0   0   0 # obsk
    107    1   1 -1.050000     3.360043792    19.615726321    17.553824099   0   0   0 # obsk
    108    1   1 -1.050000     1.906564489    22.133226321    22.127157432   0   0   0 # obsk
    109    1   2  1.575000    25.306813814    18.860476321    21.281090766   0   0   0 # feok
    110    1   2  1.575000     2.051912420    18.860476321    25.854424099   0   0   0 # feok
    111    1   2  1.575000     0.598433117    21.377976321    16.707757432   0   0   0 # feok
    112    1   2  1.575000    25.306813814    18.860476321    18.399890766   0   0   0 # feok
    113    1   2  1.575000     2.051912420    18.860476321    22.973224099   0   0   0 # feok
    114    1   2  1.575000     0.598433117    21.377976321    27.546557432   0   0   0 # feok
    115    1   2  1.575000    25.306813814    18.860476321    25.259890766   0   0   0 # feok
    116    1   2  1.575000     2.051912420    18.860476321    29.833224099   0   0   0 # feok
    117    1   2  1.575000     0.598433117    21.377976321    20.686557432   0   0   0 # feok
    118    1   2  1.575000    25.306813814    18.860476321    28.141090766   0   0   0 # feok
    119    1   2  1.575000     2.051912420    18.860476321    18.994424099   0   0   0 # feok
    120    1   2  1.575000     0.598433117    21.377976321    23.567757432   0   0   0 # feok
    121    1   1 -1.050000     4.813523095    15.587726321     6.120490766   0   0   0 # obsk
    122    1   1 -1.050000     7.720481700    15.587726321    10.693824099   0   0   0 # obsk
    123    1   1 -1.050000     6.267002397    18.105226321    15.267157432   0   0   0 # obsk
    124    1   1 -1.050000     3.505391722    17.853476321     6.120490766   0   0   0 # obsk
    125    1   1 -1.050000     6.412350328    17.853476321    10.693824099   0   0   0 # obsk
    126    1   1 -1.050000     4.958871025    20.370976321    15.267157432   0   0   0 # obsk
    127    1   1 -1.050000     6.557698258    18.105226321     6.120490766   0   0   0 # obsk
    128    1   1 -1.050000     5.104218955    15.587726321    10.693824099   0   0   0 # obsk
    129    1   1 -1.050000     3.650739653    18.105226321    15.267157432   0   0   0 # obsk
    130    1   1 -1.050000     6.557698258    14.580726321    12.980490766   0   0   0 # obsk
    131    1   1 -1.050000     5.104218955    17.098226321     3.833824099   0   0   0 # obsk
    132    1   1 -1.050000     3.650739653    19.615726321     8.407157432   0   0   0 # obsk
    133    1   1 -1.050000     3.505391722    19.867476321    12.980490766   0   0   0 # obsk
    134    1   1 -1.050000     6.412350328    14.832476321     3.833824099   0   0   0 # obsk
    135    1   1 -1.050000     4.958871025    17.349976321     8.407157432   0   0   0 # obsk
    136    1   1 -1.050000     4.813523095    17.098226321    12.980490766   0   0   0 # obsk
    137    1   1 -1.050000     7.720481700    17.098226321     3.833824099   0   0   0 # obsk
    138    1   1 -1.050000     6.267002397    19.615726321     8.407157432   0   0   0 # obsk
    139    1   2  1.575000     3.505391722    16.342976321     7.561090766   0   0   0 # feok
    140    1   2  1.575000     6.412350328    16.342976321    12.134424099   0   0   0 # feok
    141    1   2  1.575000     4.958871025    18.860476321     2.987757432   0   0   0 # feok
    142    1   2  1.575000     3.505391722    16.342976321     4.679890766   0   0   0 # feok
    143    1   2  1.575000     6.412350328    16.342976321     9.253224099   0   0   0 # feok
    144    1   2  1.575000     4.958871025    18.860476321    13.826557432   0   0   0 # feok
    145    1   2  1.575000     3.505391722    16.342976321    11.539890766   0   0   0 # feok
    146    1   2  1.575000     6.412350328    16.342976321    16.113224099   0   0   0 # feok
    147    1   2  1.575000     4.958871025    18.860476321     6.966557432   0   0   0 # feok
    148    1   2  1.575000     3.505391722    16.342976321    14.421090766   0   0   0 # feok
    149    1   2  1.575000     6.412350328    16.342976321     5.274424099   0   0   0 # feok
    150    1   2  1.575000     4.958871025    18.860476321     9.847757432   0   0   0 # feok
    151    1   1 -1.050000     4.813523095    15.587726321    19.840490766   0   0   0 # obsk
    152    1   1 -1.050000     7.720481700    15.587726321    24.413824099   0   0   0 # obsk
    153    1   1 -1.050000     6.267002397    18.105226321    28.987157432   0   0   0 # obsk
    154    1   1 -1.050000     3.505391722    17.853476321    19.840490766   0   0   0 # obsk
    155    1   1 -1.050000     6.412350328    17.853476321    24.413824099   0   0   0 # obsk
    156    1   1 -1.050000     4.958871025    20.370976321    28.987157432   0   0   0 # obsk
    157    1   1 -1.050000     6.557698258    18.105226321    19.840490766   0   0   0 # obsk
    158    1   1 -1.050000     5.104218955    15.587726321    24.413824099   0   0   0 # obsk
    159    1   1 -1.050000     3.650739653    18.105226321    28.987157432   0   0   0 # obsk
    160    1   1 -1.050000     6.557698258    14.580726321    26.700490766   0   0   0 # obsk
    161    1   1 -1.050000     5.104218955    17.098226321    17.553824099   0   0   0 # obsk
    162    1   1 -1.050000     3.650739653    19.615726321    22.127157432   0   0   0 # obsk
    163    1   1 -1.050000     3.505391722    19.867476321    26.700490766   0   0   0 # obsk
    164    1   1 -1.050000     6.412350328    14.832476321    17.553824099   0   0   0 # obsk
    165    1   1 -1.050000     4.958871025    17.349976321    22.127157432   0   0   0 # obsk
    166    1   1 -1.050000     4.813523095    17.098226321    26.700490766   0   0   0 # obsk
    167    1   1 -1.050000     7.720481700    17.098226321    17.553824099   0   0   0 # obsk
    168    1   1 -1.050000     6.267002397    19.615726321    22.127157432   0   0   0 # obsk
    169    1   2  1.575000     3.505391722    16.342976321    21.281090766   0   0   0 # feok
    170    1   2  1.575000     6.412350328    16.342976321    25.854424099   0   0   0 # feok
    171    1   2  1.575000     4.958871025    18.860476321    16.707757432   0   0   0 # feok
    172    1   2  1.575000     3.505391722    16.342976321    18.399890766   0   0   0 # feok
    173    1   2  1.575000     6.412350328    16.342976321    22.973224099   0   0   0 # feok
    174    1   2  1.575000     4.958871025    18.860476321    27.546557432   0   0   0 # feok
    175    1   2  1.575000     3.505391722    16.342976321    25.259890766   0   0   0 # feok
    176    1   2  1.575000     6.412350328    16.342976321    29.833224099   0   0   0 # feok
    177    1   2  1.575000     4.958871025    18.860476321    20.686557432   0   0   0 # feok
    178    1   2  1.575000     3.505391722    16.342976321    28.141090766   0   0   0 # feok
    179    1   2  1.575000     6.412350328    16.342976321    18.994424099   0   0   0 # feok
    180    1   2  1.575000     4.958871025    18.860476321    23.567757432   0   0   0 # feok
    181    1   1 -1.050000     9.173961003    13.070226321     6.120490766   0   0   0 # obsk
    182    1   1 -1.050000    12.080919608    13.070226321    10.693824099   0   0   0 # obsk
    183    1   1 -1.050000    10.627440305    15.587726321    15.267157432   0   0   0 # obsk
    184    1   1 -1.050000     7.865829630    15.335976321     6.120490766   0   0   0 # obsk
    185    1   1 -1.050000    10.772788236    15.335976321    10.693824099   0   0   0 # obsk
    186    1   1 -1.050000     9.319308933    17.853476321    15.267157432   0   0   0 # obsk
    187    1   1 -1.050000    10.918136166    15.587726321     6.120490766   0   0   0 # obsk
    188    1   1 -1.050000     9.464656863    13.070226321    10.693824099   0   0   0 # obsk
    189    1   1 -1.050000     8.011177561    15.587726321    15.267157432   0   0   0 # obsk
    190    1   1 -1.050000    10.918136166    12.063226321    12.980490766   0   0   0 # obsk
    191    1   1 -1.050000     9.464656863    14.580726321     3.833824099   0   0   0 # obsk
    192    1   1 -1.050000     8.011177561    17.098226321     8.407157432   0   0   0 # obsk
    193    1   1 -1.050000     7.865829630    17.349976321    12.980490766   0   0   0 # obsk
    194    1   1 -1.050000    10.772788236    12.314976321     3.833824099   0   0   0 # obsk
    195    1   1 -1.050000     9.319308933    14.832476321     8.407157432   0   0   0 # obsk
    196    1   1 -1.050000     9.173961003    14.580726321    12.980490766   0   0   0 # obsk
    197    1   1 -1.050000    12.080919608    14.580726321     3.833824099   0   0   0 # obsk
    198    1   1 -1.050000    10.627440305    17.098226321     8.407157432   0   0   0 # obsk
    199    1   2  1.575000     7.865829630    13.825476321     7.561090766   0   0   0 # feok
    200    1   2  1.575000    10.772788236    13.825476321    12.134424099   0   0   0 # feok
    201    1   2  1.575000     9.319308933    16.342976321     2.987757432   0   0   0 # feok
    202    1   2  1.575000     7.865829630    13.825476321     4.679890766   0   0   0 # feok
    203    1   2  1.575000    10.772788236    13.825476321     9.253224099   0   0   0 # feok
    204    1   2  1.575000     9.319308933    16.342976321    13.826557432   0   0   0 # feok
    205    1   2  1.575000     7.865829630    13.825476321    11.539890766   0   0   0 # feok
    206    1   2  1.575000    10.772788236    13.825476321    16.113224099   0   0   0 # feok
    207    1   2  1.575000     9.319308933    16.342976321     6.966557432   0   0   0 # feok
    208    1   2  1.575000     7.865829630    13.825476321    14.421090766   0   0   0 # feok
    209    1   2  1.575000    10.772788236    13.825476321     5.274424099   0   0   0 # feok
    210    1   2  1.575000     9.319308933    16.342976321     9.847757432   0   0   0 # feok
    211    1   1 -1.050000     9.173961003    13.070226321    19.840490766   0   0   0 # obsk
    212    1   1 -1.050000    12.080919608    13.070226321    24.413824099   0   0   0 # obsk
    213    1   1 -1.050000    10.627440305    15.587726321    28.987157432   0   0   0 # obsk
    214    1   1 -1.050000     7.865829630    15.335976321    19.840490766   0   0   0 # obsk
    215    1   1 -1.050000    10.772788236    15.335976321    24.413824099   0   0   0 # obsk
    216    1   1 -1.050000     9.319308933    17.853476321    28.987157432   0   0   0 # obsk
    217    1   1 -1.050000    10.918136166    15.587726321    19.840490766   0   0   0 # obsk
    218    1   1 -1.050000     9.464656863    13.070226321    24.413824099   0   0   0 # obsk
    219    1   1 -1.050000     8.011177561    15.587726321    28.987157432   0   0   0 # obsk
    220    1   1 -1.050000    10.918136166    12.063226321    26.700490766   0   0   0 # obsk
    221    1   1 -1.050000     9.464656863    14.580726321    17.553824099   0   0   0 # obsk
    222    1   1 -1.050000     8.011177561    17.098226321    22.127157432   0   0   0 # obsk
    223    1   1 -1.050000     7.865829630    17.349976321    26.700490766   0   0   0 # obsk
    224    1   1 -1.050000    10.772788236    12.314976321    17.553824099   0   0   0 # obsk
    225    1   1 -1.050000     9.319308933    14.832476321    22.127157432   0   0   0 # obsk
    226    1   1 -1.050000     9.173961003    14.580726321    26.700490766   0   0   0 # obsk
    227    1   1 -1.050000    12.080919608    14.580726321    17.553824099   0   0   0 # obsk
    228    1   1 -1.050000    10.627440305    17.098226321    22.127157432   0   0   0 # obsk
    229    1   2  1.575000     7.865829630    13.825476321    21.281090766   0   0   0 # feok
    230    1   2  1.575000    10.772788236    13.825476321    25.854424099   0   0   0 # feok
    231    1   2  1.575000     9.319308933    16.342976321    16.707757432   0   0   0 # feok
    232    1   2  1.575000     7.865829630    13.825476321    18.399890766   0   0   0 # feok
    233    1   2  1.575000    10.772788236    13.825476321    22.973224099   0   0   0 # feok
    234    1   2  1.575000     9.319308933    16.342976321    27.546557432   0   0   0 # feok
    235    1   2  1.575000     7.865829630    13.825476321    25.259890766   0   0   0 # feok
    236    1   2  1.575000    10.772788236    13.825476321    29.833224099   0   0   0 # feok
    237    1   2  1.575000     9.319308933    16.342976321    20.686557432   0   0   0 # feok
    238    1   2  1.575000     7.865829630    13.825476321    28.141090766   0   0   0 # feok
    239    1   2  1.575000    10.772788236    13.825476321    18.994424099   0   0   0 # feok
    240    1   2  1.575000     9.319308933    16.342976321    23.567757432   0   0   0 # feok
    241    1   1 -1.050000    13.534398911    10.552726321     6.120490766   0   0   0 # obsk
    242    1   1 -1.050000    16.441357516    10.552726321    10.693824099   0   0   0 # obsk
    243    1   1 -1.050000    14.987878213    13.070226321    15.267157432   0   0   0 # obsk
    244    1   1 -1.050000    12.226267538    12.818476321     6.120490766   0   0   0 # obsk
    245    1   1 -1.050000    15.133226144    12.818476321    10.693824099   0   0   0 # obsk
    246    1   1 -1.050000    13.679746841    15.335976321    15.267157432   0   0   0 # obsk
    247    1   1 -1.050000    15.278574074    13.070226321     6.120490766   0   0   0 # obsk
    248    1   1 -1.050000    13.825094771    10.552726321    10.693824099   0   0   0 # obsk
    249    1   1 -1.050000    12.371615469    13.070226321    15.267157432   0   0   0 # obsk
    250    1   1 -1.050000    15.278574074     9.545726321    12.980490766   0   0   0 # obsk
    251    1   1 -1.050000    13.825094771    12.063226321     3.833824099   0   0   0 # obsk
    252    1   1 -1.050000    12.371615469    14.580726321     8.407157432   0   0   0 # obsk
    253    1   1 -1.050000    12.226267538    14.832476321    12.980490766   0   0   0 # obsk
    254    1   1 -1.050000    15.133226144     9.797476321     3.833824099   0   0   0 # obsk
    255    1   1 -1.050000    13.679746841    12.314976321     8.407157432   0   0   0 # obsk
    256    1   1 -1.050000    13.534398911    12.063226321    12.980490766   0   0   0 # obsk
    257    1   1 -1.050000    16.441357516    12.063226321     3.833824099   0   0   0 # obsk
    258    1   1 -1.050000    14.987878213    14.580726321     8.407157432   0   0   0 # obsk
    259    1   2  1.575000    12.226267538    11.307976321     7.561090766   0   0   0 # feok
    260    1   2  1.575000    15.133226144    11.307976321    12.134424099   0   0   0 # feok
    261    1   2  1.575000    13.679746841    13.825476321     2.987757432   0   0   0 # feok
    262    1   2  1.575000    12.226267538    11.307976321     4.679890766   0   0   0 # feok
    263    1   2  1.575000    15.133226144    11.307976321     9.253224099   0   0   0 # feok
    264    1   2  1.575000    13.679746841    13.825476321    13.826557432   0   0   0 # feok
    265    1   2  1.575000    12.226267538    11.307976321    11.539890766   0   0   0 # feok
    266    1   2  1.575000    15.133226144    11.307976321    16.113224099   0   0   0 # feok
    267    1   2  1.575000    13.679746841    13.825476321     6.966557432   0   0   0 # feok
    268    1   2  1.575000    12.226267538    11.307976321    14.421090766   0   0   0 # feok
    269    1   2  1.575000    15.133226144    11.307976321     5.274424099   0   0   0 # feok
    270    1   2  1.575000    13.679746841    13.825476321     9.847757432   0   0   0 # feok
    271    1   1 -1.050000    13.534398911    10.552726321    19.840490766   0   0   0 # obsk
    272    1   1 -1.050000    16.441357516    10.552726321    24.413824099   0   0   0 # obsk
    273    1   1 -1.050000    14.987878213    13.070226321    28.987157432   0   0   0 # obsk
    274    1   1 -1.050000    12.226267538    12.818476321    19.840490766   0   0   0 # obsk
    275    1   1 -1.050000    15.133226144    12.818476321    24.413824099   0   0   0 # obsk
    276    1   1 -1.050000    13.679746841    15.335976321    28.987157432   0   0   0 # obsk
    277    1   1 -1.050000    15.278574074    13.070226321    19.840490766   0   0   0 # obsk
    278    1   1 -1.050000    13.825094771    10.552726321    24.413824099   0   0   0 # obsk
    279    1   1 -1.050000    12.371615469    13.070226321    28.987157432   0   0   0 # obsk
    280    1   1 -1.050000    15.278574074     9.545726321    26.700490766   0   0   0 # obsk
    281    1   1 -1.050000    13.825094771    12.063226321    17.553824099   0   0   0 # obsk
    282    1   1 -1.050000    12.371615469    14.580726321    22.127157432   0   0   0 # obsk
    283    1   1 -1.050000    12.226267538    14.832476321    26.700490766   0   0   0 # obsk
    284    1   1 -1.050000    15.133226144     9.797476321    17.553824099   0   0   0 # obsk
    285    1   1 -1.050000    13.679746841    12.314976321    22.127157432   0   0   0 # obsk
    286    1   1 -1.050000    13.534398911    12.063226321    26.700490766   0   0   0 # obsk
    287    1   1 -1.050000    16.441357516    12.063226321    17.553824099   0   0   0 # obsk
    288    1   1 -1.050000    14.987878213    14.580726321    22.127157432   0   0   0 # obsk
    289    1   2  1.575000    12.226267538    11.307976321    21.281090766   0   0   0 # feok
    290    1   2  1.575000    15.133226144    11.307976321    25.854424099   0   0   0 # feok
    291    1   2  1.575000    13.679746841    13.825476321    16.707757432   0   0   0 # feok
    292    1   2  1.575000    12.226267538    11.307976321    18.399890766   0   0   0 # feok
    293    1   2  1.575000    15.133226144    11.307976321    22.973224099   0   0   0 # feok
    294    1   2  1.575000    13.679746841    13.825476321    27.546557432   0   0   0 # feok
    295    1   2  1.575000    12.226267538    11.307976321    25.259890766   0   0   0 # feok
    296    1   2  1.575000    15.133226144    11.307976321    29.833224099   0   0   0 # feok
    297    1   2  1.575000    13.679746841    13.825476321    20.686557432   0   0   0 # feok
    298    1   2  1.575000    12.226267538    11.307976321    28.141090766   0   0   0 # feok
    299    1   2  1.575000    15.133226144    11.307976321    18.994424099   0   0   0 # feok
    300    1   2  1.575000    13.679746841    13.825476321    23.567757432   0   0   0 # feok
    301    1   1 -1.050000    17.894836819     8.035226321     6.120490766   0   0   0 # obsk
    302    1   1 -1.050000    20.801795424     8.035226321    10.693824099   0   0   0 # obsk
    303    1   1 -1.050000    19.348316122    10.552726321    15.267157432   0   0   0 # obsk
    304    1   1 -1.050000    16.586705446    10.300976321     6.120490766   0   0   0 # obsk
    305    1   1 -1.050000    19.493664052    10.300976321    10.693824099   0   0   0 # obsk
    306    1   1 -1.050000    18.040184749    12.818476321    15.267157432   0   0   0 # obsk
    307    1   1 -1.050000    19.639011982    10.552726321     6.120490766   0   0   0 # obsk
    308    1   1 -1.050000    18.185532679     8.035226321    10.693824099   0   0   0 # obsk
    309    1   1 -1.050000    16.732053377    10.552726321    15.267157432   0   0   0 # obsk
    310    1   1 -1.050000    19.639011982     7.028226321    12.980490766   0   0   0 # obsk
    311    1   1 -1.050000    18.185532679     9.545726321     3.833824099   0   0   0 # obsk
    312    1   1 -1.050000    16.732053377    12.063226321     8.407157432   0   0   0 # obsk
    313    1   1 -1.050000    16.586705446    12.314976321    12.980490766   0   0   0 # obsk
    314    1   1 -1.050000    19.493664052     7.279976321     3.833824099   0   0   0 # obsk
    315    1   1 -1.050000    18.040184749     9.797476321     8.407157432   0   0   0 # obsk
    316    1   1 -1.050000    17.894836819     9.545726321    12.980490766   0   0   0 # obsk
    317    1   1 -1.050000    20.801795424     9.545726321     3.833824099   0   0   0 # obsk
    318    1   1 -1.050000    19.348316122    12.063226321     8.407157432   0   0   0 # obsk
    319    1   2  1.575000    16.586705446     8.790476321     7.561090766   0   0   0 # feok
    320    1   2  1.575000    19.493664052     8.790476321    12.134424099   0   0   0 # feok
    321    1   2  1.575000    18.040184749    11.307976321     2.987757432   0   0   0 # feok
    322    1   2  1.575000    16.586705446     8.790476321     4.679890766   0   0   0 # feok
    323    1   2  1.575000    19.493664052     8.790476321     9.253224099   0   0   0 # feok
    324    1   2  1.575000    18.040184749    11.307976321    13.826557432   0   0   0 # feok
    325    1   2  1.575000    16.586705446     8.790476321    11.539890766   0   0   0 # feok
    326    1   2  1.575000    19.493664052     8.790476321    16.113224099   0   0   0 # feok
    327    1   2  1.575000    18.040184749    11.307976321     6.966557432   0   0   0 # feok
    328    1   2  1.575000    16.586705446     8.790476321    14.421090766   0   0   0 # feok
    329    1   2  1.575000    19.493664052     8.790476321     5.274424099   0   0   0 # feok
    330    1   2  1.575000    18.040184749    11.307976321     9.847757432   0   0   0 # feok
    331    1   1 -1.050000    17.894836819     8.035226321    19.840490766   0   0   0 # obsk
    332    1   1 -1.050000    20.801795424     8.035226321    24.413824099   0   0   0 # obsk
    333    1   1 -1.050000    19.348316122    10.552726321    28.987157432   0   0   0 # obsk
    334    1   1 -1.050000    16.586705446    10.300976321    19.840490766   0   0   0 # obsk
    335    1   1 -1.050000    19.493664052    10.300976321    24.413824099   0   0   0 # obsk
    336    1   1 -1.050000    18.040184749    12.818476321    28.987157432   0   0   0 # obsk
    337    1   1 -1.050000    19.639011982    10.552726321    19.840490766   0   0   0 # obsk
    338    1   1 -1.050000    18.185532679     8.035226321    24.413824099   0   0   0 # obsk
    339    1   1 -1.050000    16.732053377    10.552726321    28.987157432   0   0   0 # obsk
    340    1   1 -1.050000    19.639011982     7.028226321    26.700490766   0   0   0 # obsk
    341    1   1 -1.050000    18.185532679     9.545726321    17.553824099   0   0   0 # obsk
    342    1   1 -1.050000    16.732053377    12.063226321    22.127157432   0   0   0 # obsk
    343    1   1 -1.050000    16.586705446    12.314976321    26.700490766   0   0   0 # obsk
    344    1   1 -1.050000    19.493664052     7.279976321    17.553824099   0   0   0 # obsk
    345    1   1 -1.050000    18.040184749     9.797476321    22.127157432   0   0   0 # obsk
    346    1   1 -1.050000    17.894836819     9.545726321    26.700490766   0   0   0 # obsk
    347    1   1 -1.050000    20.801795424     9.545726321    17.553824099   0   0   0 # obsk
    348    1   1 -1.050000    19.348316122    12.063226321    22.127157432   0   0   0 # obsk
    349    1   2  1.575000    16.586705446     8.790476321    21.281090766   0   0   0 # feok
    350    1   2  1.575000    19.493664052     8.790476321    25.854424099   0   0   0 # feok
    351    1   2  1.575000    18.040184749    11.307976321    16.707757432   0   0   0 # feok
    352    1   2  1.575000    16.586705446     8.790476321    18.399890766   0   0   0 # feok
    353    1   2  1.575000    19.493664052     8.790476321    22.973224099   0   0   0 # feok
    354    1   2  1.575000    18.040184749    11.307976321    27.546557432   0   0   0 # feok
    355    1   2  1.575000    16.586705446     8.790476321    25.259890766   0   0   0 # feok
    356    1   2  1.575000    19.493664052     8.790476321    29.833224099   0   0   0 # feok
    357    1   2  1.575000    18.040184749    11.307976321    20.686557432   0   0   0 # feok
    358    1   2  1.575000    16.586705446     8.790476321    28.141090766   0   0   0 # feok
    359    1   2  1.575000    19.493664052     8.790476321    18.994424099   0   0   0 # feok
    360    1   2  1.575000    18.040184749    11.307976321    23.567757432   0   0   0 # feok
    361    1   1 -1.050000    22.254507279     0.482726321     6.120490766   0   0   0 # obsk
    362    1   1 -1.050000    25.161465884     0.482726321    10.693824099   0   0   0 # obsk
    363    1   1 -1.050000    23.707986581     3.000226321    15.267157432   0   0   0 # obsk
    364    1   1 -1.050000    20.946375906     2.748476321     6.120490766   0   0   0 # obsk
    365    1   1 -1.050000    23.853334512     2.748476321    10.693824099   0   0   0 # obsk
    366    1   1 -1.050000    22.399855209     5.265976321    15.267157432   0   0   0 # obsk
    367    1   1 -1.050000    23.998682442     3.000226321     6.120490766   0   0   0 # obsk
    368    1   1 -1.050000    22.545203139     0.482726321    10.693824099   0   0   0 # obsk
    369    1   1 -1.050000    21.091723836     3.000226321    15.267157432   0   0   0 # obsk
    370    1   1 -1.050000    23.998682442    24.650726321    12.980490766   0   0   0 # obsk
    371    1   1 -1.050000    22.545203139     1.993226321     3.833824099   0   0   0 # obsk
    372    1   1 -1.050000    21.091723836     4.510726321     8.407157432   0   0   0 # obsk
    373    1   1 -1.050000    20.946375906     4.762476321    12.980490766   0   0   0 # obsk
    374    1   1 -1.050000    23.853334512    24.902476321     3.833824099   0   0   0 # obsk
    375    1   1 -1.050000    22.399855209     2.244976321     8.407157432   0   0   0 # obsk
    376    1   1 -1.050000    22.254507279     1.993226321    12.980490766   0   0   0 # obsk
    377    1   1 -1.050000    25.161465884     1.993226321     3.833824099   0   0   0 # obsk
    378    1   1 -1.050000    23.707986581     4.510726321     8.407157432   0   0   0 # obsk
    379    1   2  1.575000    20.946375906     1.237976321     7.561090766   0   0   0 # feok
    380    1   2  1.575000    23.853334512     1.237976321    12.134424099   0   0   0 # feok
    381    1   2  1.575000    22.399855209     3.755476321     2.987757432   0   0   0 # feok
    382    1   2  1.575000    20.946375906     1.237976321     4.679890766   0   0   0 # feok
    383    1   2  1.575000    23.853334512     1.237976321     9.253224099   0   0   0 # feok
    384    1   2  1.575000    22.399855209     3.755476321    13.826557432   0   0   0 # feok
    385    1   2  1.575000    20.946375906     1.237976321    11.539890766   0   0   0 # feok
    386    1   2  1.575000    23.853334512     1.237976321    16.113224099   0   0   0 # feok
    387    1   2  1.575000    22.399855209     3.755476321     6.966557432   0   0   0 # feok
    388    1   2  1.575000    20.946375906     1.237976321    14.421090766   0   0   0 # feok
    389    1   2  1.575000    23.853334512     1.237976321     5.274424099   0   0   0 # feok
    390    1   2  1.575000    22.399855209     3.755476321     9.847757432   0   0   0 # feok
    391    1   1 -1.050000    22.254507279     0.482726321    19.840490766   0   0   0 # obsk
    392    1   1 -1.050000    25.161465884     0.482726321    24.413824099   0   0   0 # obsk
    393    1   1 -1.050000    23.707986581     3.000226321    28.987157432   0   0   0 # obsk
    394    1   1 -1.050000    20.946375906     2.748476321    19.840490766   0   0   0 # obsk
    395    1   1 -1.050000    23.853334512     2.748476321    24.413824099   0   0   0 # obsk
    396    1   1 -1.050000    22.399855209     5.265976321    28.987157432   0   0   0 # obsk
    397    1   1 -1.050000    23.998682442     3.000226321    19.840490766   0   0   0 # obsk
    398    1   1 -1.050000    22.545203139     0.482726321    24.413824099   0   0   0 # obsk
    399    1   1 -1.050000    21.091723836     3.000226321    28.987157432   0   0   0 # obsk
    400    1   1 -1.050000    23.998682442    24.650726321    26.700490766   0   0   0 # obsk
    401    1   1 -1.050000    22.545203139     1.993226321    17.553824099   0   0   0 # obsk
    402    1   1 -1.050000    21.091723836     4.510726321    22.127157432   0   0   0 # obsk
    403    1   1 -1.050000    20.946375906     4.762476321    26.700490766   0   0   0 # obsk
    404    1   1 -1.050000    23.853334512    24.902476321    17.553824099   0   0   0 # obsk
    405    1   1 -1.050000    22.399855209     2.244976321    22.127157432   0   0   0 # obsk
    406    1   1 -1.050000    22.254507279     1.993226321    26.700490766   0   0   0 # obsk
    407    1   1 -1.050000    25.161465884     1.993226321    17.553824099   0   0   0 # obsk
    408    1   1 -1.050000    23.707986581     4.510726321    22.127157432   0   0   0 # obsk
    409    1   2  1.575000    20.946375906     1.237976321    21.281090766   0   0   0 # feok
    410    1   2  1.575000    23.853334512     1.237976321    25.854424099   0   0   0 # feok
    411    1   2  1.575000    22.399855209     3.755476321    16.707757432   0   0   0 # feok
    412    1   2  1.575000    20.946375906     1.237976321    18.399890766   0   0   0 # feok
    413    1   2  1.575000    23.853334512     1.237976321    22.973224099   0   0   0 # feok
    414    1   2  1.575000    22.399855209     3.755476321    27.546557432   0   0   0 # feok
    415    1   2  1.575000    20.946375906     1.237976321    25.259890766   0   0   0 # feok
    416    1   2  1.575000    23.853334512     1.237976321    29.833224099   0   0   0 # feok
    417    1   2  1.575000    22.399855209     3.755476321    20.686557432   0   0   0 # feok
    418    1   2  1.575000    20.946375906     1.237976321    28.141090766   0   0   0 # feok
    419    1   2  1.575000    23.853334512     1.237976321    18.994424099   0   0   0 # feok
    420    1   2  1.575000    22.399855209     3.755476321    23.567757432   0   0   0 # feok
    421    1   1 -1.050000     0.453085187    23.140226321     6.120490766   0   0   0 # obsk
    422    1   1 -1.050000     3.360043792    23.140226321    10.693824099   0   0   0 # obsk
    423    1   1 -1.050000     1.906564489     0.482726321    15.267157432   0   0   0 # obsk
    424    1   1 -1.050000    25.306813814     0.230976321     6.120490766   0   0   0 # obsk
    425    1   1 -1.050000     2.051912420     0.230976321    10.693824099   0   0   0 # obsk
    426    1   1 -1.050000     0.598433117     2.748476321    15.267157432   0   0   0 # obsk
    427    1   1 -1.050000     2.197260350     0.482726321     6.120490766   0   0   0 # obsk
    428    1   1 -1.050000     0.743781047    23.140226321    10.693824099   0   0   0 # obsk
    429    1   1 -1.050000    25.452161744     0.482726321    15.267157432   0   0   0 # obsk
    430    1   1 -1.050000     2.197260350    22.133226321    12.980490766   0   0   0 # obsk
    431    1   1 -1.050000     0.743781047    24.650726321     3.833824099   0   0   0 # obsk
    432    1   1 -1.050000    25.452161744     1.993226321     8.407157432   0   0   0 # obsk
    433    1   1 -1.050000    25.306813814     2.244976321    12.980490766   0   0   0 # obsk
    434    1   1 -1.050000     2.051912420    22.384976321     3.833824099   0   0   0 # obsk
    435    1   1 -1.050000     0.598433117    24.902476321     8.407157432   0   0   0 # obsk
    436    1   1 -1.050000     0.453085187    24.650726321    12.980490766   0   0   0 # obsk
    437    1   1 -1.050000     3.360043792    24.650726321     3.833824099   0   0   0 # obsk
    438    1   1 -1.050000     1.906564489     1.993226321     8.407157432   0   0   0 # obsk
    439    1   2  1.575000    25.306813814    23.895476321     7.561090766   0   0   0 # feok
    440    1   2  1.575000     2.051912420    23.895476321    12.134424099   0   0   0 # feok
    441    1   2  1.575000     0.598433117     1.237976321     2.987757432   0   0   0 # feok
    442    1   2  1.575000    25.306813814    23.895476321     4.679890766   0   0   0 # feok
    443    1   2  1.575000     2.051912420    23.895476321     9.253224099   0   0   0 # feok
    444    1   2  1.575000     0.598433117     1.237976321    13.826557432   0   0   0 # feok
    445    1   2  1.575000    25.306813814    23.895476321    11.539890766   0   0   0 # feok
    446    1   2  1.575000     2.051912420    23.895476321    16.113224099   0   0   0 # feok
    447    1   2  1.575000     0.598433117     1.237976321     6.966557432   0   0   0 # feok
    448    1   2  1.575000    25.306813814    23.895476321    14.421090766   0   0   0 # feok
    449    1   2  1.575000     2.051912420    23.895476321     5.274424099   0   0   0 # feok
    450    1   2  1.575000     0.598433117     1.237976321     9.847757432   0   0   0 # feok
    451    1   1 -1.050000     0.453085187    23.140226321    19.840490766   0   0   0 # obsk
    452    1   1 -1.050000     3.360043792    23.140226321    24.413824099   0   0   0 # obsk
    453    1   1 -1.050000     1.906564489     0.482726321    28.987157432   0   0   0 # obsk
    454    1   1 -1.050000    25.306813814     0.230976321    19.840490766   0   0   0 # obsk
    455    1   1 -1.050000     2.051912420     0.230976321    24.413824099   0   0   0 # obsk
    456    1   1 -1.050000     0.598433117     2.748476321    28.987157432   0   0   0 # obsk
    457    1   1 -1.050000     2.197260350     0.482726321    19.840490766   0   0   0 # obsk
    458    1   1 -1.050000     0.743781047    23.140226321    24.413824099   0   0   0 # obsk
    459    1   1 -1.050000    25.452161744     0.482726321    28.987157432   0   0   0 # obsk
    460    1   1 -1.050000     2.197260350    22.133226321    26.700490766   0   0   0 # obsk
    461    1   1 -1.050000     0.743781047    24.650726321    17.553824099   0   0   0 # obsk
    462    1   1 -1.050000    25.452161744     1.993226321    22.127157432   0   0   0 # obsk
    463    1   1 -1.050000    25.306813814     2.244976321    26.700490766   0   0   0 # obsk
    464    1   1 -1.050000     2.051912420    22.384976321    17.553824099   0   0   0 # obsk
    465    1   1 -1.050000     0.598433117    24.902476321    22.127157432   0   0   0 # obsk
    466    1   1 -1.050000     0.453085187    24.650726321    26.700490766   0   0   0 # obsk
    467    1   1 -1.050000     3.360043792    24.650726321    17.553824099   0   0   0 # obsk
    468    1   1 -1.050000     1.906564489     1.993226321    22.127157432   0   0   0 # obsk
    469    1   2  1.575000    25.306813814    23.895476321    21.281090766   0   0   0 # feok
    470    1   2  1.575000     2.051912420    23.895476321    25.854424099   0   0   0 # feok
    471    1   2  1.575000     0.598433117     1.237976321    16.707757432   0   0   0 # feok
    472    1   2  1.575000    25.306813814    23.895476321    18.399890766   0   0   0 # feok
    473    1   2  1.575000     2.051912420    23.895476321    22.973224099   0   0   0 # feok
    474    1   2  1.575000     0.598433117     1.237976321    27.546557432   0   0   0 # feok
    475    1   2  1.575000    25.306813814    23.895476321    25.259890766   0   0   0 # feok
    476    1   2  1.575000     2.051912420    23.895476321    29.833224099   0   0   0 # feok
    477    1   2  1.575000     0.598433117     1.237976321    20.686557432   0   0   0 # feok
    478    1   2  1.575000    25.306813814    23.895476321    28.141090766   0   0   0 # feok
    479    1   2  1.575000     2.051912420    23.895476321    18.994424099   0   0   0 # feok
    480    1   2  1.575000     0.598433117     1.237976321    23.567757432   0   0   0 # feok
    481    1   1 -1.050000     4.813523095    20.622726321     6.120490766   0   0   0 # obsk
    482    1   1 -1.050000     7.720481700    20.622726321    10.693824099   0   0   0 # obsk
    483    1   1 -1.050000     6.267002397    23.140226321    15.267157432   0   0   0 # obsk
    484    1   1 -1.050000     3.505391722    22.888476321     6.120490766   0   0   0 # obsk
    485    1   1 -1.050000     6.412350328    22.888476321    10.693824099   0   0   0 # obsk
    486    1   1 -1.050000     4.958871025     0.230976321    15.267157432   0   0   0 # obsk
    487    1   1 -1.050000     6.557698258    23.140226321     6.120490766   0   0   0 # obsk
    488    1   1 -1.050000     5.104218955    20.622726321    10.693824099   0   0   0 # obsk
    489    1   1 -1.050000     3.650739653    23.140226321    15.267157432   0   0   0 # obsk
    490    1   1 -1.050000     6.557698258    19.615726321    12.980490766   0   0   0 # obsk
    491    1   1 -1.050000     5.104218955    22.133226321     3.833824099   0   0   0 # obsk
    492    1   1 -1.050000     3.650739653    24.650726321     8.407157432   0   0   0 # obsk
    493    1   1 -1.050000     3.505391722    24.902476321    12.980490766   0   0   0 # obsk
    494    1   1 -1.050000     6.412350328    19.867476321     3.833824099   0   0   0 # obsk
    495    1   1 -1.050000     4.958871025    22.384976321     8.407157432   0   0   0 # obsk
    496    1   1 -1.050000     4.813523095    22.133226321    12.980490766   0   0   0 # obsk
    497    1   1 -1.050000     7.720481700    22.133226321     3.833824099   0   0   0 # obsk
    498    1   1 -1.050000     6.267002397    24.650726321     8.407157432   0   0   0 # obsk
    499    1   2  1.575000     3.505391722    21.377976321     7.561090766   0   0   0 # feok
    500    1   2  1.575000     6.412350328    21.377976321    12.134424099   0   0   0 # feok
    501    1   2  1.575000     4.958871025    23.895476321     2.987757432   0   0   0 # feok
    502    1   2  1.575000     3.505391722    21.377976321     4.679890766   0   0   0 # feok
    503    1   2  1.575000     6.412350328    21.377976321     9.253224099   0   0   0 # feok
    504    1   2  1.575000     4.958871025    23.895476321    13.826557432   0   0   0 # feok
    505    1   2  1.575000     3.505391722    21.377976321    11.539890766   0   0   0 # feok
    506    1   2  1.575000     6.412350328    21.377976321    16.113224099   0   0   0 # feok
    507    1   2  1.575000     4.958871025    23.895476321     6.966557432   0   0   0 # feok
    508    1   2  1.575000     3.505391722    21.377976321    14.421090766   0   0   0 # feok
    509    1   2  1.575000     6.412350328    21.377976321     5.274424099   0   0   0 # feok
    510    1   2  1.575000     4.958871025    23.895476321     9.847757432   0   0   0 # feok
    511    1   1 -1.050000     4.813523095    20.622726321    19.840490766   0   0   0 # obsk
    512    1   1 -1.050000     7.720481700    20.622726321    24.413824099   0   0   0 # obsk
    513    1   1 -1.050000     6.267002397    23.140226321    28.987157432   0   0   0 # obsk
    514    1   1 -1.050000     3.505391722    22.888476321    19.840490766   0   0   0 # obsk
    515    1   1 -1.050000     6.412350328    22.888476321    24.413824099   0   0   0 # obsk
    516    1   1 -1.050000     4.958871025     0.230976321    28.987157432   0   0   0 # obsk
    517    1   1 -1.050000     6.557698258    23.140226321    19.840490766   0   0   0 # obsk
    518    1   1 -1.050000     5.104218955    20.622726321    24.413824099   0   0   0 # obsk
    519    1   1 -1.050000     3.650739653    23.140226321    28.987157432   0   0   0 # obsk
    520    1   1 -1.050000     6.557698258    19.615726321    26.700490766   0   0   0 # obsk
    521    1   1 -1.050000     5.104218955    22.133226321    17.553824099   0   0   0 # obsk
    522    1   1 -1.050000     3.650739653    24.650726321    22.127157432   0   0   0 # obsk
    523    1   1 -1.050000     3.505391722    24.902476321    26.700490766   0   0   0 # obsk
    524    1   1 -1.050000     6.412350328    19.867476321    17.553824099   0   0   0 # obsk
    525    1   1 -1.050000     4.958871025    22.384976321    22.127157432   0   0   0 # obsk
    526    1   1 -1.050000     4.813523095    22.133226321    26.700490766   0   0   0 # obsk
    527    1   1 -1.050000     7.720481700    22.133226321    17.553824099   0   0   0 # obsk
    528    1   1 -1.050000     6.267002397    24.650726321    22.127157432   0   0   0 # obsk
    529    1   2  1.575000     3.505391722    21.377976321    21.281090766   0   0   0 # feok
    530    1   2  1.575000     6.412350328    21.377976321    25.854424099   0   0   0 # feok
    531    1   2  1.575000     4.958871025    23.895476321    16.707757432   0   0   0 # feok
    532    1   2  1.575000     3.505391722    21.377976321    18.399890766   0   0   0 # feok
    533    1   2  1.575000     6.412350328    21.377976321    22.973224099   0   0   0 # feok
    534    1   2  1.575000     4.958871025    23.895476321    27.546557432   0   0   0 # feok
    535    1   2  1.575000     3.505391722    21.377976321    25.259890766   0   0   0 # feok
    536    1   2  1.575000     6.412350328    21.377976321    29.833224099   0   0   0 # feok
    537    1   2  1.575000     4.958871025    23.895476321    20.686557432   0   0   0 # feok
    538    1   2  1.575000     3.505391722    21.377976321    28.141090766   0   0   0 # feok
    539    1   2  1.575000     6.412350328    21.377976321    18.994424099   0   0   0 # feok
    540    1   2  1.575000     4.958871025    23.895476321    23.567757432   0   0   0 # feok
    541    1   1 -1.050000     9.173961003    18.105226321     6.120490766   0   0   0 # obsk
    542    1   1 -1.050000    12.080919608    18.105226321    10.693824099   0   0   0 # obsk
    543    1   1 -1.050000    10.627440305    20.622726321    15.267157432   0   0   0 # obsk
    544    1   1 -1.050000     7.865829630    20.370976321     6.120490766   0   0   0 # obsk
    545    1   1 -1.050000    10.772788236    20.370976321    10.693824099   0   0   0 # obsk
    546    1   1 -1.050000     9.319308933    22.888476321    15.267157432   0   0   0 # obsk
    547    1   1 -1.050000    10.918136166    20.622726321     6.120490766   0   0   0 # obsk
    548    1   1 -1.050000     9.464656863    18.105226321    10.693824099   0   0   0 # obsk
    549    1   1 -1.050000     8.011177561    20.622726321    15.267157432   0   0   0 # obsk
    550    1   1 -1.050000    10.918136166    17.098226321    12.980490766   0   0   0 # obsk
    551    1   1 -1.050000     9.464656863    19.615726321     3.833824099   0   0   0 # obsk
    552    1   1 -1.050000     8.011177561    22.133226321     8.407157432   0   0   0 # obsk
    553    1   1 -1.050000     7.865829630    22.384976321    12.980490766   0   0   0 # obsk
    554    1   1 -1.050000    10.772788236    17.349976321     3.833824099   0   0   0 # obsk
    555    1   1 -1.050000     9.319308933    19.867476321     8.407157432   0   0   0 # obsk
    556    1   1 -1.050000     9.173961003    19.615726321    12.980490766   0   0   0 # obsk
    557    1   1 -1.050000    12.080919608    19.615726321     3.833824099   0   0   0 # obsk
    558    1   1 -1.050000    10.627440305    22.133226321     8.407157432   0   0   0 # obsk
    559    1   2  1.575000     7.865829630    18.860476321     7.561090766   0   0   0 # feok
    560    1   2  1.575000    10.772788236    18.860476321    12.134424099   0   0   0 # feok
    561    1   2  1.575000     9.319308933    21.377976321     2.987757432   0   0   0 # feok
    562    1   2  1.575000     7.865829630    18.860476321     4.679890766   0   0   0 # feok
    563    1   2  1.575000    10.772788236    18.860476321     9.253224099   0   0   0 # feok
    564    1   2  1.575000     9.319308933    21.377976321    13.826557432   0   0   0 # feok
    565    1   2  1.575000     7.865829630    18.860476321    11.539890766   0   0   0 # feok
    566    1   2  1.575000    10.772788236    18.860476321    16.113224099   0   0   0 # feok
    567    1   2  1.575000     9.319308933    21.377976321     6.966557432   0   0   0 # feok
    568    1   2  1.575000     7.865829630    18.860476321    14.421090766   0   0   0 # feok
    569    1   2  1.575000    10.772788236    18.860476321     5.274424099   0   0   0 # feok
    570    1   2  1.575000     9.319308933    21.377976321     9.847757432   0   0   0 # feok
    571    1   1 -1.050000     9.173961003    18.105226321    19.840490766   0   0   0 # obsk
    572    1   1 -1.050000    12.080919608    18.105226321    24.413824099   0   0   0 # obsk
    573    1   1 -1.050000    10.627440305    20.622726321    28.987157432   0   0   0 # obsk
    574    1   1 -1.050000     7.865829630    20.370976321    19.840490766   0   0   0 # obsk
    575    1   1 -1.050000    10.772788236    20.370976321    24.413824099   0   0   0 # obsk
    576    1   1 -1.050000     9.319308933    22.888476321    28.987157432   0   0   0 # obsk
    577    1   1 -1.050000    10.918136166    20.622726321    19.840490766   0   0   0 # obsk
    578    1   1 -1.050000     9.464656863    18.105226321    24.413824099   0   0   0 # obsk
    579    1   1 -1.050000     8.011177561    20.622726321    28.987157432   0   0   0 # obsk
    580    1   1 -1.050000    10.918136166    17.098226321    26.700490766   0   0   0 # obsk
    581    1   1 -1.050000     9.464656863    19.615726321    17.553824099   0   0   0 # obsk
    582    1   1 -1.050000     8.011177561    22.133226321    22.127157432   0   0   0 # obsk
    583    1   1 -1.050000     7.865829630    22.384976321    26.700490766   0   0   0 # obsk
    584    1   1 -1.050000    10.772788236    17.349976321    17.553824099   0   0   0 # obsk
    585    1   1 -1.050000     9.319308933    19.867476321    22.127157432   0   0   0 # obsk
    586    1   1 -1.050000     9.173961003    19.615726321    26.700490766   0   0   0 # obsk
    587    1   1 -1.050000    12.080919608    19.615726321    17.553824099   0   0   0 # obsk
    588    1   1 -1.050000    10.627440305    22.133226321    22.127157432   0   0   0 # obsk
    589    1   2  1.575000     7.865829630    18.860476321    21.281090766   0   0   0 # feok
    590    1   2  1.575000    10.772788236    18.860476321    25.854424099   0   0   0 # feok
    591    1   2  1.575000     9.319308933    21.377976321    16.707757432   0   0   0 # feok
    592    1   2  1.575000     7.865829630    18.860476321    18.399890766   0   0   0 # feok
    593    1   2  1.575000    10.772788236    18.860476321    22.973224099   0   0   0 # feok
    594    1   2  1.575000     9.319308933    21.377976321    27.546557432   0   0   0 # feok
    595    1   2  1.575000     7.865829630    18.860476321    25.259890766   0   0   0 # feok
    596    1   2  1.575000    10.772788236    18.860476321    29.833224099   0   0   0 # feok
    597    1   2  1.575000     9.319308933    21.377976321    20.686557432   0   0   0 # feok
    598    1   2  1.575000     7.865829630    18.860476321    28.141090766   0   0   0 # feok
    599    1   2  1.575000    10.772788236    18.860476321    18.994424099   0   0   0 # feok
    600    1   2  1.575000     9.319308933    21.377976321    23.567757432   0   0   0 # feok
    601    1   1 -1.050000    13.534398911    15.587726321     6.120490766   0   0   0 # obsk
    602    1   1 -1.050000    16.441357516    15.587726321    10.693824099   0   0   0 # obsk
    603    1   1 -1.050000    14.987878213    18.105226321    15.267157432   0   0   0 # obsk
    604    1   1 -1.050000    12.226267538    17.853476321     6.120490766   0   0   0 # obsk
    605    1   1 -1.050000    15.133226144    17.853476321    10.693824099   0   0   0 # obsk
    606    1   1 -1.050000    13.679746841    20.370976321    15.267157432   0   0   0 # obsk
    607    1   1 -1.050000    15.278574074    18.105226321     6.120490766   0   0   0 # obsk
    608    1   1 -1.050000    13.825094771    15.587726321    10.693824099   0   0   0 # obsk
    609    1   1 -1.050000    12.371615469    18.105226321    15.267157432   0   0   0 # obsk
    610    1   1 -1.050000    15.278574074    14.580726321    12.980490766   0   0   0 # obsk
    611    1   1 -1.050000    13.825094771    17.098226321     3.833824099   0   0   0 # obsk
    612    1   1 -1.050000    12.371615469    19.615726321     8.407157432   0   0   0 # obsk
    613    1   1 -1.050000    12.226267538    19.867476321    12.980490766   0   0   0 # obsk
    614    1   1 -1.050000    15.133226144    14.832476321     3.833824099   0   0   0 # obsk
    615    1   1 -1.050000    13.679746841    17.349976321     8.407157432   0   0   0 # obsk
    616    1   1 -1.050000    13.534398911    17.098226321    12.980490766   0   0   0 # obsk
    617    1   1 -1.050000    16.441357516    17.098226321     3.833824099   0   0   0 # obsk
    618    1   1 -1.050000    14.987878213    19.615726321     8.407157432   0   0   0 # obsk
    619    1   2  1.575000    12.226267538    16.342976321     7.561090766   0   0   0 # feok
    620    1   2  1.575000    15.133226144    16.342976321    12.134424099   0   0   0 # feok
    621    1   2  1.575000    13.679746841    18.860476321     2.987757432   0   0   0 # feok
    622    1   2  1.575000    12.226267538    16.342976321     4.679890766   0   0   0 # feok
    623    1   2  1.575000    15.133226144    16.342976321     9.253224099   0   0   0 # feok
    624    1   2  1.575000    13.679746841    18.860476321    13.826557432   0   0   0 # feok
    625    1   2  1.575000    12.226267538    16.342976321    11.539890766   0   0   0 # feok
    626    1   2  1.575000    15.133226144    16.342976321    16.113224099   0   0   0 # feok
    627    1   2  1.575000    13.679746841    18.860476321     6.966557432   0   0   0 # feok
    628    1   2  1.575000    12.226267538    16.342976321    14.421090766   0   0   0 # feok
    629    1   2  1.575000    15.133226144    16.342976321     5.274424099   0   0   0 # feok
    630    1   2  1.575000    13.679746841    18.860476321     9.847757432   0   0   0 # feok
    631    1   1 -1.050000    13.534398911    15.587726321    19.840490766   0   0   0 # obsk
    632    1   1 -1.050000    16.441357516    15.587726321    24.413824099   0   0   0 # obsk
    633    1   1 -1.050000    14.987878213    18.105226321    28.987157432   0   0   0 # obsk
    634    1   1 -1.050000    12.226267538    17.853476321    19.840490766   0   0   0 # obsk
    635    1   1 -1.050000    15.133226144    17.853476321    24.413824099   0   0   0 # obsk
    636    1   1 -1.050000    13.679746841    20.370976321    28.987157432   0   0   0 # obsk
    637    1   1 -1.050000    15.278574074    18.105226321    19.840490766   0   0   0 # obsk
    638    1   1 -1.050000    13.825094771    15.587726321    24.413824099   0   0   0 # obsk
    639    1   1 -1.050000    12.371615469    18.105226321    28.987157432   0   0   0 # obsk
    640    1   1 -1.050000    15.278574074    14.580726321    26.700490766   0   0   0 # obsk
    641    1   1 -1.050000    13.825094771    17.098226321    17.553824099   0   0   0 # obsk
    642    1   1 -1.050000    12.371615469    19.615726321    22.127157432   0   0   0 # obsk
    643    1   1 -1.050000    12.226267538    19.867476321    26.700490766   0   0   0 # obsk
    644    1   1 -1.050000    15.133226144    14.832476321    17.553824099   0   0   0 # obsk
    645    1   1 -1.050000    13.679746841    17.349976321    22.127157432   0   0   0 # obsk
    646    1   1 -1.050000    13.534398911    17.098226321    26.700490766   0   0   0 # obsk
    647    1   1 -1.050000    16.441357516    17.098226321    17.553824099   0   0   0 # obsk
    648    1   1 -1.050000    14.987878213    19.615726321    22.127157432   0   0   0 # obsk
    649    1   2  1.575000    12.226267538    16.342976321    21.281090766   0   0   0 # feok
    650    1   2  1.575000    15.133226144    16.342976321    25.854424099   0   0   0 # feok
    651    1   2  1.575000    13.679746841    18.860476321    16.707757432   0   0   0 # feok
    652    1   2  1.575000    12.226267538    16.342976321    18.399890766   0   0   0 # feok
    653    1   2  1.575000    15.133226144    16.342976321    22.973224099   0   0   0 # feok
    654    1   2  1.575000    13.679746841    18.860476321    27.546557432   0   0   0 # feok
    655    1   2  1.575000    12.226267538    16.342976321    25.259890766   0   0   0 # feok
    656    1   2  1.575000    15.133226144    16.342976321    29.833224099   0   0   0 # feok
    657    1   2  1.575000    13.679746841    18.860476321    20.686557432   0   0   0 # feok
    658    1   2  1.575000    12.226267538    16.342976321    28.141090766   0   0   0 # feok
    659    1   2  1.575000    15.133226144    16.342976321    18.994424099   0   0   0 # feok
    660    1   2  1.575000    13.679746841    18.860476321    23.567757432   0   0   0 # feok
    661    1   1 -1.050000    17.894836819    13.070226321     6.120490766   0   0   0 # obsk
    662    1   1 -1.050000    20.801795424    13.070226321    10.693824099   0   0   0 # obsk
    663    1   1 -1.050000    19.348316122    15.587726321    15.267157432   0   0   0 # obsk
    664    1   1 -1.050000    16.586705446    15.335976321     6.120490766   0   0   0 # obsk
    665    1   1 -1.050000    19.493664052    15.335976321    10.693824099   0   0   0 # obsk
    666    1   1 -1.050000    18.040184749    17.853476321    15.267157432   0   0   0 # obsk
    667    1   1 -1.050000    19.639011982    15.587726321     6.120490766   0   0   0 # obsk
    668    1   1 -1.050000    18.185532679    13.070226321    10.693824099   0   0   0 # obsk
    669    1   1 -1.050000    16.732053377    15.587726321    15.267157432   0   0   0 # obsk
    670    1   1 -1.050000    19.639011982    12.063226321    12.980490766   0   0   0 # obsk
    671    1   1 -1.050000    18.185532679    14.580726321     3.833824099   0   0   0 # obsk
    672    1   1 -1.050000    16.732053377    17.098226321     8.407157432   0   0   0 # obsk
    673    1   1 -1.050000    16.586705446    17.349976321    12.980490766   0   0   0 # obsk
    674    1   1 -1.050000    19.493664052    12.314976321     3.833824099   0   0   0 # obsk
    675    1   1 -1.050000    18.040184749    14.832476321     8.407157432   0   0   0 # obsk
    676    1   1 -1.050000    17.894836819    14.580726321    12.980490766   0   0   0 # obsk
    677    1   1 -1.050000    20.801795424    14.580726321     3.833824099   0   0   0 # obsk
    678    1   1 -1.050000    19.348316122    17.098226321     8.407157432   0   0   0 # obsk
    679    1   2  1.575000    16.586705446    13.825476321     7.561090766   0   0   0 # feok
    680    1   2  1.575000    19.493664052    13.825476321    12.134424099   0   0   0 # feok
    681    1   2  1.575000    18.040184749    16.342976321     2.987757432   0   0   0 # feok
    682    1   2  1.575000    16.586705446    13.825476321     4.679890766   0   0   0 # feok
    683    1   2  1.575000    19.493664052    13.825476321     9.253224099   0   0   0 # feok
    684    1   2  1.575000    18.040184749    16.342976321    13.826557432   0   0   0 # feok
    685    1   2  1.575000    16.586705446    13.825476321    11.539890766   0   0   0 # feok
    686    1   2  1.575000    19.493664052    13.825476321    16.113224099   0   0   0 # feok
    687    1   2  1.575000    18.040184749    16.342976321     6.966557432   0   0   0 # feok
    688    1   2  1.575000    16.586705446    13.825476321    14.421090766   0   0   0 # feok
    689    1   2  1.575000    19.493664052    13.825476321     5.274424099   0   0   0 # feok
    690    1   2  1.575000    18.040184749    16.342976321     9.847757432   0   0   0 # feok
    691    1   1 -1.050000    17.894836819    13.070226321    19.840490766   0   0   0 # obsk
    692    1   1 -1.050000    20.801795424    13.070226321    24.413824099   0   0   0 # obsk
    693    1   1 -1.050000    19.348316122    15.587726321    28.987157432   0   0   0 # obsk
    694    1   1 -1.050000    16.586705446    15.335976321    19.840490766   0   0   0 # obsk
    695    1   1 -1.050000    19.493664052    15.335976321    24.413824099   0   0   0 # obsk
    696    1   1 -1.129000    18.040184749    17.853476321    28.987157432   0   0   0 # obsk
    697    1   1 -1.050000    19.639011982    15.587726321    19.840490766   0   0   0 # obsk
    698    1   1 -1.050000    18.185532679    13.070226321    24.413824099   0   0   0 # obsk
    699    1   1 -1.050000    16.732053377    15.587726321    28.987157432   0   0   0 # obsk
    700    1   1 -1.050000    19.639011982    12.063226321    26.700490766   0   0   0 # obsk
    701    1   1 -1.050000    18.185532679    14.580726321    17.553824099   0   0   0 # obsk
    702    1   1 -1.050000    16.732053377    17.098226321    22.127157432   0   0   0 # obsk
    703    1   1 -1.050000    16.586705446    17.349976321    26.700490766   0   0   0 # obsk
    704    1   1 -1.050000    19.493664052    12.314976321    17.553824099   0   0   0 # obsk
    705    1   1 -1.050000    18.040184749    14.832476321    22.127157432   0   0   0 # obsk
    706    1   1 -1.050000    17.894836819    14.580726321    26.700490766   0   0   0 # obsk
    707    1   1 -1.050000    20.801795424    14.580726321    17.553824099   0   0   0 # obsk
    708    1   1 -1.050000    19.348316122    17.098226321    22.127157432   0   0   0 # obsk
    709    1   2  1.575000    16.586705446    13.825476321    21.281090766   0   0   0 # feok
    710    1   2  1.575000    19.493664052    13.825476321    25.854424099   0   0   0 # feok
    711    1   2  1.575000    18.040184749    16.342976321    16.707757432   0   0   0 # feok
    712    1   2  1.575000    16.586705446    13.825476321    18.399890766   0   0   0 # feok
    713    1   2  1.575000    19.493664052    13.825476321    22.973224099   0   0   0 # feok
    714    1   2  1.575000    18.040184749    16.342976321    27.546557432   0   0   0 # feok
    715    1   2  1.575000    16.586705446    13.825476321    25.259890766   0   0   0 # feok
    716    1   2  1.575000    19.493664052    13.825476321    29.833224099   0   0   0 # feok
    717    1   2  1.575000    18.040184749    16.342976321    20.686557432   0   0   0 # feok
    718    1   2  1.575000    16.586705446    13.825476321    28.141090766   0   0   0 # feok
    719    1   2  1.575000    19.493664052    13.825476321    18.994424099   0   0   0 # feok
    720    1   2  1.575000    18.040184749    16.342976321    23.567757432   0   0   0 # feok
    721    1   1 -1.050000    22.254507279     5.517726321     6.120490766   0   0   0 # obsk
    722    1   1 -1.050000    25.161465884     5.517726321    10.693824099   0   0   0 # obsk
    723    1   1 -1.050000    23.707986581     8.035226321    15.267157432   0   0   0 # obsk
    724    1   1 -1.050000    20.946375906     7.783476321     6.120490766   0   0   0 # obsk
    725    1   1 -1.050000    23.853334512     7.783476321    10.693824099   0   0   0 # obsk
    726    1   1 -1.050000    22.399855209    10.300976321    15.267157432   0   0   0 # obsk
    727    1   1 -1.050000    23.998682442     8.035226321     6.120490766   0   0   0 # obsk
    728    1   1 -1.050000    22.545203139     5.517726321    10.693824099   0   0   0 # obsk
    729    1   1 -1.050000    21.091723836     8.035226321    15.267157432   0   0   0 # obsk
    730    1   1 -1.050000    23.998682442     4.510726321    12.980490766   0   0   0 # obsk
    731    1   1 -1.050000    22.545203139     7.028226321     3.833824099   0   0   0 # obsk
    732    1   1 -1.050000    21.091723836     9.545726321     8.407157432   0   0   0 # obsk
    733    1   1 -1.050000    20.946375906     9.797476321    12.980490766   0   0   0 # obsk
    734    1   1 -1.050000    23.853334512     4.762476321     3.833824099   0   0   0 # obsk
    735    1   1 -1.050000    22.399855209     7.279976321     8.407157432   0   0   0 # obsk
    736    1   1 -1.050000    22.254507279     7.028226321    12.980490766   0   0   0 # obsk
    737    1   1 -1.050000    25.161465884     7.028226321     3.833824099   0   0   0 # obsk
    738    1   1 -1.050000    23.707986581     9.545726321     8.407157432   0   0   0 # obsk
    739    1   2  1.575000    20.946375906     6.272976321     7.561090766   0   0   0 # feok
    740    1   2  1.575000    23.853334512     6.272976321    12.134424099   0   0   0 # feok
    741    1   2  1.575000    22.399855209     8.790476321     2.987757432   0   0   0 # feok
    742    1   2  1.575000    20.946375906     6.272976321     4.679890766   0   0   0 # feok
    743    1   2  1.575000    23.853334512     6.272976321     9.253224099   0   0   0 # feok
    744    1   2  1.575000    22.399855209     8.790476321    13.826557432   0   0   0 # feok
    745    1   2  1.575000    20.946375906     6.272976321    11.539890766   0   0   0 # feok
    746    1   2  1.575000    23.853334512     6.272976321    16.113224099   0   0   0 # feok
    747    1   2  1.575000    22.399855209     8.790476321     6.966557432   0   0   0 # feok
    748    1   2  1.575000    20.946375906     6.272976321    14.421090766   0   0   0 # feok
    749    1   2  1.575000    23.853334512     6.272976321     5.274424099   0   0   0 # feok
    750    1   2  1.575000    22.399855209     8.790476321     9.847757432   0   0   0 # feok
    751    1   1 -1.050000    22.254507279     5.517726321    19.840490766   0   0   0 # obsk
    752    1   1 -1.050000    25.161465884     5.517726321    24.413824099   0   0   0 # obsk
    753    1   1 -1.050000    23.707986581     8.035226321    28.987157432   0   0   0 # obsk
    754    1   1 -1.050000    20.946375906     7.783476321    19.840490766   0   0   0 # obsk
    755    1   1 -1.050000    23.853334512     7.783476321    24.413824099   0   0   0 # obsk
    756    1   1 -1.050000    22.399855209    10.300976321    28.987157432   0   0   0 # obsk
    757    1   1 -1.050000    23.998682442     8.035226321    19.840490766   0   0   0 # obsk
    758    1   1 -1.050000    22.545203139     5.517726321    24.413824099   0   0   0 # obsk
    759    1   1 -1.050000    21.091723836     8.035226321    28.987157432   0   0   0 # obsk
    760    1   1 -1.050000    23.998682442     4.510726321    26.700490766   0   0   0 # obsk
    761    1   1 -1.050000    22.545203139     7.028226321    17.553824099   0   0   0 # obsk
    762    1   1 -1.050000    21.091723836     9.545726321    22.127157432   0   0   0 # obsk
    763    1   1 -1.050000    20.946375906     9.797476321    26.700490766   0   0   0 # obsk
    764    1   1 -1.050000    23.853334512     4.762476321    17.553824099   0   0   0 # obsk
    765    1   1 -1.050000    22.399855209     7.279976321    22.127157432   0   0   0 # obsk
    766    1   1 -1.050000    22.254507279     7.028226321    26.700490766   0   0   0 # obsk
    767    1   1 -1.050000    25.161465884     7.028226321    17.553824099   0   0   0 # obsk
    768    1   1 -1.050000    23.707986581     9.545726321    22.127157432   0   0   0 # obsk
    769    1   2  1.575000    20.946375906     6.272976321    21.281090766   0   0   0 # feok
    770    1   2  1.575000    23.853334512     6.272976321    25.854424099   0   0   0 # feok
    771    1   2  1.575000    22.399855209     8.790476321    16.707757432   0   0   0 # feok
    772    1   2  1.575000    20.946375906     6.272976321    18.399890766   0   0   0 # feok
    773    1   2  1.575000    23.853334512     6.272976321    22.973224099   0   0   0 # feok
    774    1   2  1.575000    22.399855209     8.790476321    27.546557432   0   0   0 # feok
    775    1   2  1.575000    20.946375906     6.272976321    25.259890766   0   0   0 # feok
    776    1   2  1.575000    23.853334512     6.272976321    29.833224099   0   0   0 # feok
    777    1   2  1.575000    22.399855209     8.790476321    20.686557432   0   0   0 # feok
    778    1   2  1.575000    20.946375906     6.272976321    28.141090766   0   0   0 # feok
    779    1   2  1.575000    23.853334512     6.272976321    18.994424099   0   0   0 # feok
    780    1   2  1.575000    22.399855209     8.790476321    23.567757432   0   0   0 # feok
    781    1   1 -1.050000     0.453085187     3.000226321     6.120490766   0   0   0 # obsk
    782    1   1 -1.050000     3.360043792     3.000226321    10.693824099   0   0   0 # obsk
    783    1   1 -1.050000     1.906564489     5.517726321    15.267157432   0   0   0 # obsk
    784    1   1 -1.050000    25.306813814     5.265976321     6.120490766   0   0   0 # obsk
    785    1   1 -1.050000     2.051912420     5.265976321    10.693824099   0   0   0 # obsk
    786    1   1 -1.050000     0.598433117     7.783476321    15.267157432   0   0   0 # obsk
    787    1   1 -1.050000     2.197260350     5.517726321     6.120490766   0   0   0 # obsk
    788    1   1 -1.050000     0.743781047     3.000226321    10.693824099   0   0   0 # obsk
    789    1   1 -1.050000    25.452161744     5.517726321    15.267157432   0   0   0 # obsk
    790    1   1 -1.050000     2.197260350     1.993226321    12.980490766   0   0   0 # obsk
    791    1   1 -1.050000     0.743781047     4.510726321     3.833824099   0   0   0 # obsk
    792    1   1 -1.050000    25.452161744     7.028226321     8.407157432   0   0   0 # obsk
    793    1   1 -1.050000    25.306813814     7.279976321    12.980490766   0   0   0 # obsk
    794    1   1 -1.050000     2.051912420     2.244976321     3.833824099   0   0   0 # obsk
    795    1   1 -1.050000     0.598433117     4.762476321     8.407157432   0   0   0 # obsk
    796    1   1 -1.050000     0.453085187     4.510726321    12.980490766   0   0   0 # obsk
    797    1   1 -1.050000     3.360043792     4.510726321     3.833824099   0   0   0 # obsk
    798    1   1 -1.050000     1.906564489     7.028226321     8.407157432   0   0   0 # obsk
    799    1   2  1.575000    25.306813814     3.755476321     7.561090766   0   0   0 # feok
    800    1   2  1.575000     2.051912420     3.755476321    12.134424099   0   0   0 # feok
    801    1   2  1.575000     0.598433117     6.272976321     2.987757432   0   0   0 # feok
    802    1   2  1.575000    25.306813814     3.755476321     4.679890766   0   0   0 # feok
    803    1   2  1.575000     2.051912420     3.755476321     9.253224099   0   0   0 # feok
    804    1   2  1.575000     0.598433117     6.272976321    13.826557432   0   0   0 # feok
    805    1   2  1.575000    25.306813814     3.755476321    11.539890766   0   0   0 # feok
    806    1   2  1.575000     2.051912420     3.755476321    16.113224099   0   0   0 # feok
    807    1   2  1.575000     0.598433117     6.272976321     6.966557432   0   0   0 # feok
    808    1   2  1.575000    25.306813814     3.755476321    14.421090766   0   0   0 # feok
    809    1   2  1.575000     2.051912420     3.755476321     5.274424099   0   0   0 # feok
    810    1   2  1.575000     0.598433117     6.272976321     9.847757432   0   0   0 # feok
    811    1   1 -1.050000     0.453085187     3.000226321    19.840490766   0   0   0 # obsk
    812    1   1 -1.050000     3.360043792     3.000226321    24.413824099   0   0   0 # obsk
    813    1   1 -1.050000     1.906564489     5.517726321    28.987157432   0   0   0 # obsk
    814    1   1 -1.050000    25.306813814     5.265976321    19.840490766   0   0   0 # obsk
    815    1   1 -1.050000     2.051912420     5.265976321    24.413824099   0   0   0 # obsk
    816    1   1 -1.050000     0.598433117     7.783476321    28.987157432   0   0   0 # obsk
    817    1   1 -1.050000     2.197260350     5.517726321    19.840490766   0   0   0 # obsk
    818    1   1 -1.050000     0.743781047     3.000226321    24.413824099   0   0   0 # obsk
    819    1   1 -1.050000    25.452161744     5.517726321    28.987157432   0   0   0 # obsk
    820    1   1 -1.050000     2.197260350     1.993226321    26.700490766   0   0   0 # obsk
    821    1   1 -1.050000     0.743781047     4.510726321    17.553824099   0   0   0 # obsk
    822    1   1 -1.050000    25.452161744     7.028226321    22.127157432   0   0   0 # obsk
    823    1   1 -1.050000    25.306813814     7.279976321    26.700490766   0   0   0 # obsk
    824    1   1 -1.050000     2.051912420     2.244976321    17.553824099   0   0   0 # obsk
    825    1   1 -1.050000     0.598433117     4.762476321    22.127157432   0   0   0 # obsk
    826    1   1 -1.050000     0.453085187     4.510726321    26.700490766   0   0   0 # obsk
    827    1   1 -1.050000     3.360043792     4.510726321    17.553824099   0   0   0 # obsk
    828    1   1 -1.050000     1.906564489     7.028226321    22.127157432   0   0   0 # obsk
    829    1   2  1.575000    25.306813814     3.755476321    21.281090766   0   0   0 # feok
    830    1   2  1.575000     2.051912420     3.755476321    25.854424099   0   0   0 # feok
    831    1   2  1.575000     0.598433117     6.272976321    16.707757432   0   0   0 # feok
    832    1   2  1.575000    25.306813814     3.755476321    18.399890766   0   0   0 # feok
    833    1   2  1.575000     2.051912420     3.755476321    22.973224099   0   0   0 # feok
    834    1   2  1.575000     0.598433117     6.272976321    27.546557432   0   0   0 # feok
    835    1   2  1.575000    25.306813814     3.755476321    25.259890766   0   0   0 # feok
    836    1   2  1.575000     2.051912420     3.755476321    29.833224099   0   0   0 # feok
    837    1   2  1.575000     0.598433117     6.272976321    20.686557432   0   0   0 # feok
    838    1   2  1.575000    25.306813814     3.755476321    28.141090766   0   0   0 # feok
    839    1   2  1.575000     2.051912420     3.755476321    18.994424099   0   0   0 # feok
    840    1   2  1.575000     0.598433117     6.272976321    23.567757432   0   0   0 # feok
    841    1   1 -1.050000     4.813523095     0.482726321     6.120490766   0   0   0 # obsk
    842    1   1 -1.050000     7.720481700     0.482726321    10.693824099   0   0   0 # obsk
    843    1   1 -1.050000     6.267002397     3.000226321    15.267157432   0   0   0 # obsk
    844    1   1 -1.050000     3.505391722     2.748476321     6.120490766   0   0   0 # obsk
    845    1   1 -1.050000     6.412350328     2.748476321    10.693824099   0   0   0 # obsk
    846    1   1 -1.050000     4.958871025     5.265976321    15.267157432   0   0   0 # obsk
    847    1   1 -1.050000     6.557698258     3.000226321     6.120490766   0   0   0 # obsk
    848    1   1 -1.050000     5.104218955     0.482726321    10.693824099   0   0   0 # obsk
    849    1   1 -1.050000     3.650739653     3.000226321    15.267157432   0   0   0 # obsk
    850    1   1 -1.050000     6.557698258    24.650726321    12.980490766   0   0   0 # obsk
    851    1   1 -1.050000     5.104218955     1.993226321     3.833824099   0   0   0 # obsk
    852    1   1 -1.050000     3.650739653     4.510726321     8.407157432   0   0   0 # obsk
    853    1   1 -1.050000     3.505391722     4.762476321    12.980490766   0   0   0 # obsk
    854    1   1 -1.050000     6.412350328    24.902476321     3.833824099   0   0   0 # obsk
    855    1   1 -1.050000     4.958871025     2.244976321     8.407157432   0   0   0 # obsk
    856    1   1 -1.050000     4.813523095     1.993226321    12.980490766   0   0   0 # obsk
    857    1   1 -1.050000     7.720481700     1.993226321     3.833824099   0   0   0 # obsk
    858    1   1 -1.050000     6.267002397     4.510726321     8.407157432   0   0   0 # obsk
    859    1   2  1.575000     3.505391722     1.237976321     7.561090766   0   0   0 # feok
    860    1   2  1.575000     6.412350328     1.237976321    12.134424099   0   0   0 # feok
    861    1   2  1.575000     4.958871025     3.755476321     2.987757432   0   0   0 # feok
    862    1   2  1.575000     3.505391722     1.237976321     4.679890766   0   0   0 # feok
    863    1   2  1.575000     6.412350328     1.237976321     9.253224099   0   0   0 # feok
    864    1   2  1.575000     4.958871025     3.755476321    13.826557432   0   0   0 # feok
    865    1   2  1.575000     3.505391722     1.237976321    11.539890766   0   0   0 # feok
    866    1   2  1.575000     6.412350328     1.237976321    16.113224099   0   0   0 # feok
    867    1   2  1.575000     4.958871025     3.755476321     6.966557432   0   0   0 # feok
    868    1   2  1.575000     3.505391722     1.237976321    14.421090766   0   0   0 # feok
    869    1   2  1.575000     6.412350328     1.237976321     5.274424099   0   0   0 # feok
    870    1   2  1.575000     4.958871025     3.755476321     9.847757432   0   0   0 # feok
    871    1   1 -1.050000     4.813523095     0.482726321    19.840490766   0   0   0 # obsk
    872    1   1 -1.050000     7.720481700     0.482726321    24.413824099   0   0   0 # obsk
    873    1   1 -1.050000     6.267002397     3.000226321    28.987157432   0   0   0 # obsk
    874    1   1 -1.050000     3.505391722     2.748476321    19.840490766   0   0   0 # obsk
    875    1   1 -1.050000     6.412350328     2.748476321    24.413824099   0   0   0 # obsk
    876    1   1 -1.129000     4.958871025     5.265976321    28.987157432   0   0   0 # obsk
    877    1   1 -1.050000     6.557698258     3.000226321    19.840490766   0   0   0 # obsk
    878    1   1 -1.050000     5.104218955     0.482726321    24.413824099   0   0   0 # obsk
    879    1   1 -1.050000     3.650739653     3.000226321    28.987157432   0   0   0 # obsk
    880    1   1 -1.050000     6.557698258    24.650726321    26.700490766   0   0   0 # obsk
    881    1   1 -1.050000     5.104218955     1.993226321    17.553824099   0   0   0 # obsk
    882    1   1 -1.050000     3.650739653     4.510726321    22.127157432   0   0   0 # obsk
    883    1   1 -1.050000     3.505391722     4.762476321    26.700490766   0   0   0 # obsk
    884    1   1 -1.050000     6.412350328    24.902476321    17.553824099   0   0   0 # obsk
    885    1   1 -1.050000     4.958871025     2.244976321    22.127157432   0   0   0 # obsk
    886    1   1 -1.050000     4.813523095     1.993226321    26.700490766   0   0   0 # obsk
    887    1   1 -1.050000     7.720481700     1.993226321    17.553824099   0   0   0 # obsk
    888    1   1 -1.050000     6.267002397     4.510726321    22.127157432   0   0   0 # obsk
    889    1   2  1.575000     3.505391722     1.237976321    21.281090766   0   0   0 # feok
    890    1   2  1.575000     6.412350328     1.237976321    25.854424099   0   0   0 # feok
    891    1   2  1.575000     4.958871025     3.755476321    16.707757432   0   0   0 # feok
    892    1   2  1.575000     3.505391722     1.237976321    18.399890766   0   0   0 # feok
    893    1   2  1.575000     6.412350328     1.237976321    22.973224099   0   0   0 # feok
    894    1   2  1.575000     4.958871025     3.755476321    27.546557432   0   0   0 # feok
    895    1   2  1.575000     3.505391722     1.237976321    25.259890766   0   0   0 # feok
    896    1   2  1.575000     6.412350328     1.237976321    29.833224099   0   0   0 # feok
    897    1   2  1.575000     4.958871025     3.755476321    20.686557432   0   0   0 # feok
    898    1   2  1.575000     3.505391722     1.237976321    28.141090766   0   0   0 # feok
    899    1   2  1.575000     6.412350328     1.237976321    18.994424099   0   0   0 # feok
    900    1   2  1.575000     4.958871025     3.755476321    23.567757432   0   0   0 # feok
    901    1   1 -1.050000     9.173961003    23.140226321     6.120490766   0   0   0 # obsk
    902    1   1 -1.050000    12.080919608    23.140226321    10.693824099   0   0   0 # obsk
    903    1   1 -1.050000    10.627440305     0.482726321    15.267157432   0   0   0 # obsk
    904    1   1 -1.050000     7.865829630     0.230976321     6.120490766   0   0   0 # obsk
    905    1   1 -1.050000    10.772788236     0.230976321    10.693824099   0   0   0 # obsk
    906    1   1 -1.050000     9.319308933     2.748476321    15.267157432   0   0   0 # obsk
    907    1   1 -1.050000    10.918136166     0.482726321     6.120490766   0   0   0 # obsk
    908    1   1 -1.050000     9.464656863    23.140226321    10.693824099   0   0   0 # obsk
    909    1   1 -1.050000     8.011177561     0.482726321    15.267157432   0   0   0 # obsk
    910    1   1 -1.050000    10.918136166    22.133226321    12.980490766   0   0   0 # obsk
    911    1   1 -1.050000     9.464656863    24.650726321     3.833824099   0   0   0 # obsk
    912    1   1 -1.050000     8.011177561     1.993226321     8.407157432   0   0   0 # obsk
    913    1   1 -1.050000     7.865829630     2.244976321    12.980490766   0   0   0 # obsk
    914    1   1 -1.050000    10.772788236    22.384976321     3.833824099   0   0   0 # obsk
    915    1   1 -1.050000     9.319308933    24.902476321     8.407157432   0   0   0 # obsk
    916    1   1 -1.050000     9.173961003    24.650726321    12.980490766   0   0   0 # obsk
    917    1   1 -1.050000    12.080919608    24.650726321     3.833824099   0   0   0 # obsk
    918    1   1 -1.050000    10.627440305     1.993226321     8.407157432   0   0   0 # obsk
    919    1   2  1.575000     7.865829630    23.895476321     7.561090766   0   0   0 # feok
    920    1   2  1.575000    10.772788236    23.895476321    12.134424099   0   0   0 # feok
    921    1   2  1.575000     9.319308933     1.237976321     2.987757432   0   0   0 # feok
    922    1   2  1.575000     7.865829630    23.895476321     4.679890766   0   0   0 # feok
    923    1   2  1.575000    10.772788236    23.895476321     9.253224099   0   0   0 # feok
    924    1   2  1.575000     9.319308933     1.237976321    13.826557432   0   0   0 # feok
    925    1   2  1.575000     7.865829630    23.895476321    11.539890766   0   0   0 # feok
    926    1   2  1.575000    10.772788236    23.895476321    16.113224099   0   0   0 # feok
    927    1   2  1.575000     9.319308933     1.237976321     6.966557432   0   0   0 # feok
    928    1   2  1.575000     7.865829630    23.895476321    14.421090766   0   0   0 # feok
    929    1   2  1.575000    10.772788236    23.895476321     5.274424099   0   0   0 # feok
    930    1   2  1.575000     9.319308933     1.237976321     9.847757432   0   0   0 # feok
    931    1   1 -1.050000     9.173961003    23.140226321    19.840490766   0   0   0 # obsk
    932    1   1 -1.050000    12.080919608    23.140226321    24.413824099   0   0   0 # obsk
    933    1   1 -1.050000    10.627440305     0.482726321    28.987157432   0   0   0 # obsk
    934    1   1 -1.050000     7.865829630     0.230976321    19.840490766   0   0   0 # obsk
    935    1   1 -1.050000    10.772788236     0.230976321    24.413824099   0   0   0 # obsk
    936    1   1 -1.050000     9.319308933     2.748476321    28.987157432   0   0   0 # obsk
    937    1   1 -1.050000    10.918136166     0.482726321    19.840490766   0   0   0 # obsk
    938    1   1 -1.050000     9.464656863    23.140226321    24.413824099   0   0   0 # obsk
    939    1   1 -1.050000     8.011177561     0.482726321    28.987157432   0   0   0 # obsk
    940    1   1 -1.050000    10.918136166    22.133226321    26.700490766   0   0   0 # obsk
    941    1   1 -1.050000     9.464656863    24.650726321    17.553824099   0   0   0 # obsk
    942    1   1 -1.050000     8.011177561     1.993226321    22.127157432   0   0   0 # obsk
    943    1   1 -1.050000     7.865829630     2.244976321    26.700490766   0   0   0 # obsk
    944    1   1 -1.050000    10.772788236    22.384976321    17.553824099   0   0   0 # obsk
    945    1   1 -1.050000     9.319308933    24.902476321    22.127157432   0   0   0 # obsk
    946    1   1 -1.050000     9.173961003    24.650726321    26.700490766   0   0   0 # obsk
    947    1   1 -1.050000    12.080919608    24.650726321    17.553824099   0   0   0 # obsk
    948    1   1 -1.050000    10.627440305     1.993226321    22.127157432   0   0   0 # obsk
    949    1   2  1.575000     7.865829630    23.895476321    21.281090766   0   0   0 # feok
    950    1   2  1.575000    10.772788236    23.895476321    25.854424099   0   0   0 # feok
    951    1   2  1.575000     9.319308933     1.237976321    16.707757432   0   0   0 # feok
    952    1   2  1.575000     7.865829630    23.895476321    18.399890766   0   0   0 # feok
    953    1   2  1.575000    10.772788236    23.895476321    22.973224099   0   0   0 # feok
    954    1   2  1.575000     9.319308933     1.237976321    27.546557432   0   0   0 # feok
    955    1   2  1.575000     7.865829630    23.895476321    25.259890766   0   0   0 # feok
    956    1   2  1.575000    10.772788236    23.895476321    29.833224099   0   0   0 # feok
    957    1   2  1.575000     9.319308933     1.237976321    20.686557432   0   0   0 # feok
    958    1   2  1.575000     7.865829630    23.895476321    28.141090766   0   0   0 # feok
    959    1   2  1.575000    10.772788236    23.895476321    18.994424099   0   0   0 # feok
    960    1   2  1.575000     9.319308933     1.237976321    23.567757432   0   0   0 # feok
    961    1   1 -1.050000    13.534398911    20.622726321     6.120490766   0   0   0 # obsk
    962    1   1 -1.050000    16.441357516    20.622726321    10.693824099   0   0   0 # obsk
    963    1   1 -1.050000    14.987878213    23.140226321    15.267157432   0   0   0 # obsk
    964    1   1 -1.050000    12.226267538    22.888476321     6.120490766   0   0   0 # obsk
    965    1   1 -1.050000    15.133226144    22.888476321    10.693824099   0   0   0 # obsk
    966    1   1 -1.050000    13.679746841     0.230976321    15.267157432   0   0   0 # obsk
    967    1   1 -1.050000    15.278574074    23.140226321     6.120490766   0   0   0 # obsk
    968    1   1 -1.050000    13.825094771    20.622726321    10.693824099   0   0   0 # obsk
    969    1   1 -1.050000    12.371615469    23.140226321    15.267157432   0   0   0 # obsk
    970    1   1 -1.050000    15.278574074    19.615726321    12.980490766   0   0   0 # obsk
    971    1   1 -1.050000    13.825094771    22.133226321     3.833824099   0   0   0 # obsk
    972    1   1 -1.050000    12.371615469    24.650726321     8.407157432   0   0   0 # obsk
    973    1   1 -1.050000    12.226267538    24.902476321    12.980490766   0   0   0 # obsk
    974    1   1 -1.050000    15.133226144    19.867476321     3.833824099   0   0   0 # obsk
    975    1   1 -1.050000    13.679746841    22.384976321     8.407157432   0   0   0 # obsk
    976    1   1 -1.050000    13.534398911    22.133226321    12.980490766   0   0   0 # obsk
    977    1   1 -1.050000    16.441357516    22.133226321     3.833824099   0   0   0 # obsk
    978    1   1 -1.050000    14.987878213    24.650726321     8.407157432   0   0   0 # obsk
    979    1   2  1.575000    12.226267538    21.377976321     7.561090766   0   0   0 # feok
    980    1   2  1.575000    15.133226144    21.377976321    12.134424099   0   0   0 # feok
    981    1   2  1.575000    13.679746841    23.895476321     2.987757432   0   0   0 # feok
    982    1   2  1.575000    12.226267538    21.377976321     4.679890766   0   0   0 # feok
    983    1   2  1.575000    15.133226144    21.377976321     9.253224099   0   0   0 # feok
    984    1   2  1.575000    13.679746841    23.895476321    13.826557432   0   0   0 # feok
    985    1   2  1.575000    12.226267538    21.377976321    11.539890766   0   0   0 # feok
    986    1   2  1.575000    15.133226144    21.377976321    16.113224099   0   0   0 # feok
    987    1   2  1.575000    13.679746841    23.895476321     6.966557432   0   0   0 # feok
    988    1   2  1.575000    12.226267538    21.377976321    14.421090766   0   0   0 # feok
    989    1   2  1.575000    15.133226144    21.377976321     5.274424099   0   0   0 # feok
    990    1   2  1.575000    13.679746841    23.895476321     9.847757432   0   0   0 # feok
    991    1   1 -1.050000    13.534398911    20.622726321    19.840490766   0   0   0 # obsk
    992    1   1 -1.050000    16.441357516    20.622726321    24.413824099   0   0   0 # obsk
    993    1   1 -1.050000    14.987878213    23.140226321    28.987157432   0   0   0 # obsk
    994    1   1 -1.050000    12.226267538    22.888476321    19.840490766   0   0   0 # obsk
    995    1   1 -1.050000    15.133226144    22.888476321    24.413824099   0   0   0 # obsk
    996    1   1 -1.050000    13.679746841     0.230976321    28.987157432   0   0   0 # obsk
    997    1   1 -1.050000    15.278574074    23.140226321    19.840490766   0   0   0 # obsk
    998    1   1 -1.050000    13.825094771    20.622726321    24.413824099   0   0   0 # obsk
    999    1   1 -1.050000    12.371615469    23.140226321    28.987157432   0   0   0 # obsk
   1000    1   1 -1.050000    15.278574074    19.615726321    26.700490766   0   0   0 # obsk
   1001    1   1 -1.050000    13.825094771    22.133226321    17.553824099   0   0   0 # obsk
   1002    1   1 -1.050000    12.371615469    24.650726321    22.127157432   0   0   0 # obsk
   1003    1   1 -1.050000    12.226267538    24.902476321    26.700490766   0   0   0 # obsk
   1004    1   1 -1.050000    15.133226144    19.867476321    17.553824099   0   0   0 # obsk
   1005    1   1 -1.050000    13.679746841    22.384976321    22.127157432   0   0   0 # obsk
   1006    1   1 -1.050000    13.534398911    22.133226321    26.700490766   0   0   0 # obsk
   1007    1   1 -1.050000    16.441357516    22.133226321    17.553824099   0   0   0 # obsk
   1008    1   1 -1.050000    14.987878213    24.650726321    22.127157432   0   0   0 # obsk
   1009    1   2  1.575000    12.226267538    21.377976321    21.281090766   0   0   0 # feok
   1010    1   2  1.575000    15.133226144    21.377976321    25.854424099   0   0   0 # feok
   1011    1   2  1.575000    13.679746841    23.895476321    16.707757432   0   0   0 # feok
   1012    1   2  1.575000    12.226267538    21.377976321    18.399890766   0   0   0 # feok
   1013    1   2  1.575000    15.133226144    21.377976321    22.973224099   0   0   0 # feok
   1014    1   2  1.575000    13.679746841    23.895476321    27.546557432   0   0   0 # feok
   1015    1   2  1.575000    12.226267538    21.377976321    25.259890766   0   0   0 # feok
   1016    1   2  1.575000    15.133226144    21.377976321    29.833224099   0   0   0 # feok
   1017    1   2  1.575000    13.679746841    23.895476321    20.686557432   0   0   0 # feok
   1018    1   2  1.575000    12.226267538    21.377976321    28.141090766   0   0   0 # feok
   1019    1   2  1.575000    15.133226144    21.377976321    18.994424099   0   0   0 # feok
   1020    1   2  1.575000    13.679746841    23.895476321    23.567757432   0   0   0 # feok
   1021    1   1 -1.050000    17.894836819    18.105226321     6.120490766   0   0   0 # obsk
   1022    1   1 -1.050000    20.801795424    18.105226321    10.693824099   0   0   0 # obsk
   1023    1   1 -1.050000    19.348316122    20.622726321    15.267157432   0   0   0 # obsk
   1024    1   1 -1.050000    16.586705446    20.370976321     6.120490766   0   0   0 # obsk
   1025    1   1 -1.050000    19.493664052    20.370976321    10.693824099   0   0   0 # obsk
   1026    1   1 -1.050000    18.040184749    22.888476321    15.267157432   0   0   0 # obsk
   1027    1   1 -1.050000    19.639011982    20.622726321     6.120490766   0   0   0 # obsk
   1028    1   1 -1.050000    18.185532679    18.105226321    10.693824099   0   0   0 # obsk
   1029    1   1 -1.050000    16.732053377    20.622726321    15.267157432   0   0   0 # obsk
   1030    1   1 -1.050000    19.639011982    17.098226321    12.980490766   0   0   0 # obsk
   1031    1   1 -1.050000    18.185532679    19.615726321     3.833824099   0   0   0 # obsk
   1032    1   1 -1.050000    16.732053377    22.133226321     8.407157432   0   0   0 # obsk
   1033    1   1 -1.050000    16.586705446    22.384976321    12.980490766   0   0   0 # obsk
   1034    1   1 -1.050000    19.493664052    17.349976321     3.833824099   0   0   0 # obsk
   1035    1   1 -1.050000    18.040184749    19.867476321     8.407157432   0   0   0 # obsk
   1036    1   1 -1.050000    17.894836819    19.615726321    12.980490766   0   0   0 # obsk
   1037    1   1 -1.050000    20.801795424    19.615726321     3.833824099   0   0   0 # obsk
   1038    1   1 -1.050000    19.348316122    22.133226321     8.407157432   0   0   0 # obsk
   1039    1   2  1.575000    16.586705446    18.860476321     7.561090766   0   0   0 # feok
   1040    1   2  1.575000    19.493664052    18.860476321    12.134424099   0   0   0 # feok
   1041    1   2  1.575000    18.040184749    21.377976321     2.987757432   0   0   0 # feok
   1042    1   2  1.575000    16.586705446    18.860476321     4.679890766   0   0   0 # feok
   1043    1   2  1.575000    19.493664052    18.860476321     9.253224099   0   0   0 # feok
   1044    1   2  1.575000    18.040184749    21.377976321    13.826557432   0   0   0 # feok
   1045    1   2  1.575000    16.586705446    18.860476321    11.539890766   0   0   0 # feok
   1046    1   2  1.575000    19.493664052    18.860476321    16.113224099   0   0   0 # feok
   1047    1   2  1.575000    18.040184749    21.377976321     6.966557432   0   0   0 # feok
   1048    1   2  1.575000    16.586705446    18.860476321    14.421090766   0   0   0 # feok
   1049    1   2  1.575000    19.493664052    18.860476321     5.274424099   0   0   0 # feok
   1050    1   2  1.575000    18.040184749    21.377976321     9.847757432   0   0   0 # feok
   1051    1   1 -1.050000    17.894836819    18.105226321    19.840490766   0   0   0 # obsk
   1052    1   1 -1.050000    20.801795424    18.105226321    24.413824099   0   0   0 # obsk
   1053    1   1 -1.129000    19.348316122    20.622726321    28.987157432   0   0   0 # obsk
   1054    1   1 -1.050000    16.586705446    20.370976321    19.840490766   0   0   0 # obsk
   1055    1   1 -1.050000    19.493664052    20.370976321    24.413824099   0   0   0 # obsk
   1056    1   1 -1.050000    18.040184749    22.888476321    28.987157432   0   0   0 # obsk
   1057    1   1 -1.050000    19.639011982    20.622726321    19.840490766   0   0   0 # obsk
   1058    1   1 -1.050000    18.185532679    18.105226321    24.413824099   0   0   0 # obsk
   1059    1   1 -1.050000    16.732053377    20.622726321    28.987157432   0   0   0 # obsk
   1060    1   1 -1.050000    19.639011982    17.098226321    26.700490766   0   0   0 # obsk
   1061    1   1 -1.050000    18.185532679    19.615726321    17.553824099   0   0   0 # obsk
   1062    1   1 -1.050000    16.732053377    22.133226321    22.127157432   0   0   0 # obsk
   1063    1   1 -1.050000    16.586705446    22.384976321    26.700490766   0   0   0 # obsk
   1064    1   1 -1.050000    19.493664052    17.349976321    17.553824099   0   0   0 # obsk
   1065    1   1 -1.050000    18.040184749    19.867476321    22.127157432   0   0   0 # obsk
   1066    1   1 -1.050000    17.894836819    19.615726321    26.700490766   0   0   0 # obsk
   1067    1   1 -1.050000    20.801795424    19.615726321    17.553824099   0   0   0 # obsk
   1068    1   1 -1.050000    19.348316122    22.133226321    22.127157432   0   0   0 # obsk
   1069    1   2  1.575000    16.586705446    18.860476321    21.281090766   0   0   0 # feok
   1070    1   2  1.575000    19.493664052    18.860476321    25.854424099   0   0   0 # feok
   1071    1   2  1.575000    18.040184749    21.377976321    16.707757432   0   0   0 # feok
   1072    1   2  1.575000    16.586705446    18.860476321    18.399890766   0   0   0 # feok
   1073    1   2  1.575000    19.493664052    18.860476321    22.973224099   0   0   0 # feok
   1074    1   2  1.575000    18.040184749    21.377976321    27.546557432   0   0   0 # feok
   1075    1   2  1.575000    16.586705446    18.860476321    25.259890766   0   0   0 # feok
   1076    1   2  1.496000    19.493664052    18.860476321    29.833224099   0   0   0 # feok
   1077    1   2  1.575000    18.040184749    21.377976321    20.686557432   0   0   0 # feok
   1078    1   2  1.575000    16.586705446    18.860476321    28.141090766   0   0   0 # feok
   1079    1   2  1.575000    19.493664052    18.860476321    18.994424099   0   0   0 # feok
   1080    1   2  1.575000    18.040184749    21.377976321    23.567757432   0   0   0 # feok
   1081    1   1 -1.050000    22.254507279    10.552726321     6.120490766   0   0   0 # obsk
   1082    1   1 -1.050000    25.161465884    10.552726321    10.693824099   0   0   0 # obsk
   1083    1   1 -1.050000    23.707986581    13.070226321    15.267157432   0   0   0 # obsk
   1084    1   1 -1.050000    20.946375906    12.818476321     6.120490766   0   0   0 # obsk
   1085    1   1 -1.050000    23.853334512    12.818476321    10.693824099   0   0   0 # obsk
   1086    1   1 -1.050000    22.399855209    15.335976321    15.267157432   0   0   0 # obsk
   1087    1   1 -1.050000    23.998682442    13.070226321     6.120490766   0   0   0 # obsk
   1088    1   1 -1.050000    22.545203139    10.552726321    10.693824099   0   0   0 # obsk
   1089    1   1 -1.050000    21.091723836    13.070226321    15.267157432   0   0   0 # obsk
   1090    1   1 -1.050000    23.998682442     9.545726321    12.980490766   0   0   0 # obsk
   1091    1   1 -1.050000    22.545203139    12.063226321     3.833824099   0   0   0 # obsk
   1092    1   1 -1.050000    21.091723836    14.580726321     8.407157432   0   0   0 # obsk
   1093    1   1 -1.050000    20.946375906    14.832476321    12.980490766   0   0   0 # obsk
   1094    1   1 -1.050000    23.853334512     9.797476321     3.833824099   0   0   0 # obsk
   1095    1   1 -1.050000    22.399855209    12.314976321     8.407157432   0   0   0 # obsk
   1096    1   1 -1.050000    22.254507279    12.063226321    12.980490766   0   0   0 # obsk
   1097    1   1 -1.050000    25.161465884    12.063226321     3.833824099   0   0   0 # obsk
   1098    1   1 -1.050000    23.707986581    14.580726321     8.407157432   0   0   0 # obsk
   1099    1   2  1.575000    20.946375906    11.307976321     7.561090766   0   0   0 # feok
   1100    1   2  1.575000    23.853334512    11.307976321    12.134424099   0   0   0 # feok
   1101    1   2  1.575000    22.399855209    13.825476321     2.987757432   0   0   0 # feok
   1102    1   2  1.575000    20.946375906    11.307976321     4.679890766   0   0   0 # feok
   1103    1   2  1.575000    23.853334512    11.307976321     9.253224099   0   0   0 # feok
   1104    1   2  1.575000    22.399855209    13.825476321    13.826557432   0   0   0 # feok
   1105    1   2  1.575000    20.946375906    11.307976321    11.539890766   0   0   0 # feok
   1106    1   2  1.575000    23.853334512    11.307976321    16.113224099   0   0   0 # feok
   1107    1   2  1.575000    22.399855209    13.825476321     6.966557432   0   0   0 # feok
   1108    1   2  1.575000    20.946375906    11.307976321    14.421090766   0   0   0 # feok
   1109    1   2  1.575000    23.853334512    11.307976321     5.274424099   0   0   0 # feok
   1110    1   2  1.575000    22.399855209    13.825476321     9.847757432   0   0   0 # feok
   1111    1   1 -1.050000    22.254507279    10.552726321    19.840490766   0   0   0 # obsk
   1112    1   1 -1.050000    25.161465884    10.552726321    24.413824099   0   0   0 # obsk
   1113    1   1 -1.050000    23.707986581    13.070226321    28.987157432   0   0   0 # obsk
   1114    1   1 -1.050000    20.946375906    12.818476321    19.840490766   0   0   0 # obsk
   1115    1   1 -1.050000    23.853334512    12.818476321    24.413824099   0   0   0 # obsk
   1116    1   1 -1.050000    22.399855209    15.335976321    28.987157432   0   0   0 # obsk
   1117    1   1 -1.050000    23.998682442    13.070226321    19.840490766   0   0   0 # obsk
   1118    1   1 -1.050000    22.545203139    10.552726321    24.413824099   0   0   0 # obsk
   1119    1   1 -1.050000    21.091723836    13.070226321    28.987157432   0   0   0 # obsk
   1120    1   1 -1.050000    23.998682442     9.545726321    26.700490766   0   0   0 # obsk
   1121    1   1 -1.050000    22.545203139    12.063226321    17.553824099   0   0   0 # obsk
   1122    1   1 -1.050000    21.091723836    14.580726321    22.127157432   0   0   0 # obsk
   1123    1   1 -1.050000    20.946375906    14.832476321    26.700490766   0   0   0 # obsk
   1124    1   1 -1.050000    23.853334512     9.797476321    17.553824099   0   0   0 # obsk
   1125    1   1 -1.050000    22.399855209    12.314976321    22.127157432   0   0   0 # obsk
   1126    1   1 -1.050000    22.254507279    12.063226321    26.700490766   0   0   0 # obsk
   1127    1   1 -1.050000    25.161465884    12.063226321    17.553824099   0   0   0 # obsk
   1128    1   1 -1.050000    23.707986581    14.580726321    22.127157432   0   0   0 # obsk
   1129    1   2  1.575000    20.946375906    11.307976321    21.281090766   0   0   0 # feok
   1130    1   2  1.575000    23.853334512    11.307976321    25.854424099   0   0   0 # feok
   1131    1   2  1.575000    22.399855209    13.825476321    16.707757432   0   0   0 # feok
   1132    1   2  1.575000    20.946375906    11.307976321    18.399890766   0   0   0 # feok
   1133    1   2  1.575000    23.853334512    11.307976321    22.973224099   0   0   0 # feok
   1134    1   2  1.575000    22.399855209    13.825476321    27.546557432   0   0   0 # feok
   1135    1   2  1.575000    20.946375906    11.307976321    25.259890766   0   0   0 # feok
   1136    1   2  1.575000    23.853334512    11.307976321    29.833224099   0   0   0 # feok
   1137    1   2  1.575000    22.399855209    13.825476321    20.686557432   0   0   0 # feok
   1138    1   2  1.575000    20.946375906    11.307976321    28.141090766   0   0   0 # feok
   1139    1   2  1.575000    23.853334512    11.307976321    18.994424099   0   0   0 # feok
   1140    1   2  1.575000    22.399855209    13.825476321    23.567757432   0   0   0 # feok
   1141    1   1 -1.050000     0.453085187     8.035226321     6.120490766   0   0   0 # obsk
   1142    1   1 -1.050000     3.360043792     8.035226321    10.693824099   0   0   0 # obsk
   1143    1   1 -1.050000     1.906564489    10.552726321    15.267157432   0   0   0 # obsk
   1144    1   1 -1.050000    25.306813814    10.300976321     6.120490766   0   0   0 # obsk
   1145    1   1 -1.050000     2.051912420    10.300976321    10.693824099   0   0   0 # obsk
   1146    1   1 -1.050000     0.598433117    12.818476321    15.267157432   0   0   0 # obsk
   1147    1   1 -1.050000     2.197260350    10.552726321     6.120490766   0   0   0 # obsk
   1148    1   1 -1.050000     0.743781047     8.035226321    10.693824099   0   0   0 # obsk
   1149    1   1 -1.050000    25.452161744    10.552726321    15.267157432   0   0   0 # obsk
   1150    1   1 -1.050000     2.197260350     7.028226321    12.980490766   0   0   0 # obsk
   1151    1   1 -1.050000     0.743781047     9.545726321     3.833824099   0   0   0 # obsk
   1152    1   1 -1.050000    25.452161744    12.063226321     8.407157432   0   0   0 # obsk
   1153    1   1 -1.050000    25.306813814    12.314976321    12.980490766   0   0   0 # obsk
   1154    1   1 -1.050000     2.051912420     7.279976321     3.833824099   0   0   0 # obsk
   1155    1   1 -1.050000     0.598433117     9.797476321     8.407157432   0   0   0 # obsk
   1156    1   1 -1.050000     0.453085187     9.545726321    12.980490766   0   0   0 # obsk
   1157    1   1 -1.050000     3.360043792     9.545726321     3.833824099   0   0   0 # obsk
   1158    1   1 -1.050000     1.906564489    12.063226321     8.407157432   0   0   0 # obsk
   1159    1   2  1.575000    25.306813814     8.790476321     7.561090766   0   0   0 # feok
   1160    1   2  1.575000     2.051912420     8.790476321    12.134424099   0   0   0 # feok
   1161    1   2  1.575000     0.598433117    11.307976321     2.987757432   0   0   0 # feok
   1162    1   2  1.575000    25.306813814     8.790476321     4.679890766   0   0   0 # feok
   1163    1   2  1.575000     2.051912420     8.790476321     9.253224099   0   0   0 # feok
   1164    1   2  1.575000     0.598433117    11.307976321    13.826557432   0   0   0 # feok
   1165    1   2  1.575000    25.306813814     8.790476321    11.539890766   0   0   0 # feok
   1166    1   2  1.575000     2.051912420     8.790476321    16.113224099   0   0   0 # feok
   1167    1   2  1.575000     0.598433117    11.307976321     6.966557432   0   0   0 # feok
   1168    1   2  1.575000    25.306813814     8.790476321    14.421090766   0   0   0 # feok
   1169    1   2  1.575000     2.051912420     8.790476321     5.274424099   0   0   0 # feok
   1170    1   2  1.575000     0.598433117    11.307976321     9.847757432   0   0   0 # feok
   1171    1   1 -1.050000     0.453085187     8.035226321    19.840490766   0   0   0 # obsk
   1172    1   1 -1.050000     3.360043792     8.035226321    24.413824099   0   0   0 # obsk
   1173    1   1 -1.050000     1.906564489    10.552726321    28.987157432   0   0   0 # obsk
   1174    1   1 -1.050000    25.306813814    10.300976321    19.840490766   0   0   0 # obsk
   1175    1   1 -1.050000     2.051912420    10.300976321    24.413824099   0   0   0 # obsk
   1176    1   1 -1.050000     0.598433117    12.818476321    28.987157432   0   0   0 # obsk
   1177    1   1 -1.050000     2.197260350    10.552726321    19.840490766   0   0   0 # obsk
   1178    1   1 -1.050000     0.743781047     8.035226321    24.413824099   0   0   0 # obsk
   1179    1   1 -1.050000    25.452161744    10.552726321    28.987157432   0   0   0 # obsk
   1180    1   1 -1.050000     2.197260350     7.028226321    26.700490766   0   0   0 # obsk
   1181    1   1 -1.050000     0.743781047     9.545726321    17.553824099   0   0   0 # obsk
   1182    1   1 -1.050000    25.452161744    12.063226321    22.127157432   0   0   0 # obsk
   1183    1   1 -1.050000    25.306813814    12.314976321    26.700490766   0   0   0 # obsk
   1184    1   1 -1.050000     2.051912420     7.279976321    17.553824099   0   0   0 # obsk
   1185    1   1 -1.050000     0.598433117     9.797476321    22.127157432   0   0   0 # obsk
   1186    1   1 -1.050000     0.453085187     9.545726321    26.700490766   0   0   0 # obsk
   1187    1   1 -1.050000     3.360043792     9.545726321    17.553824099   0   0   0 # obsk
   1188    1   1 -1.050000     1.906564489    12.063226321    22.127157432   0   0   0 # obsk
   1189    1   2  1.575000    25.306813814     8.790476321    21.281090766   0   0   0 # feok
   1190    1   2  1.575000     2.051912420     8.790476321    25.854424099   0   0   0 # feok
   1191    1   2  1.575000     0.598433117    11.307976321    16.707757432   0   0   0 # feok
   1192    1   2  1.575000    25.306813814     8.790476321    18.399890766   0   0   0 # feok
   1193    1   2  1.575000     2.051912420     8.790476321    22.973224099   0   0   0 # feok
   1194    1   2  1.575000     0.598433117    11.307976321    27.546557432   0   0   0 # feok
   1195    1   2  1.575000    25.306813814     8.790476321    25.259890766   0   0   0 # feok
   1196    1   2  1.575000     2.051912420     8.790476321    29.833224099   0   0   0 # feok
   1197    1   2  1.575000     0.598433117    11.307976321    20.686557432   0   0   0 # feok
   1198    1   2  1.575000    25.306813814     8.790476321    28.141090766   0   0   0 # feok
   1199    1   2  1.575000     2.051912420     8.790476321    18.994424099   0   0   0 # feok
   1200    1   2  1.575000     0.598433117    11.307976321    23.567757432   0   0   0 # feok
   1201    1   1 -1.050000     4.813523095     5.517726321     6.120490766   0   0   0 # obsk
   1202    1   1 -1.050000     7.720481700     5.517726321    10.693824099   0   0   0 # obsk
   1203    1   1 -1.050000     6.267002397     8.035226321    15.267157432   0   0   0 # obsk
   1204    1   1 -1.050000     3.505391722     7.783476321     6.120490766   0   0   0 # obsk
   1205    1   1 -1.050000     6.412350328     7.783476321    10.693824099   0   0   0 # obsk
   1206    1   1 -1.050000     4.958871025    10.300976321    15.267157432   0   0   0 # obsk
   1207    1   1 -1.050000     6.557698258     8.035226321     6.120490766   0   0   0 # obsk
   1208    1   1 -1.050000     5.104218955     5.517726321    10.693824099   0   0   0 # obsk
   1209    1   1 -1.050000     3.650739653     8.035226321    15.267157432   0   0   0 # obsk
   1210    1   1 -1.050000     6.557698258     4.510726321    12.980490766   0   0   0 # obsk
   1211    1   1 -1.050000     5.104218955     7.028226321     3.833824099   0   0   0 # obsk
   1212    1   1 -1.050000     3.650739653     9.545726321     8.407157432   0   0   0 # obsk
   1213    1   1 -1.050000     3.505391722     9.797476321    12.980490766   0   0   0 # obsk
   1214    1   1 -1.050000     6.412350328     4.762476321     3.833824099   0   0   0 # obsk
   1215    1   1 -1.050000     4.958871025     7.279976321     8.407157432   0   0   0 # obsk
   1216    1   1 -1.050000     4.813523095     7.028226321    12.980490766   0   0   0 # obsk
   1217    1   1 -1.050000     7.720481700     7.028226321     3.833824099   0   0   0 # obsk
   1218    1   1 -1.050000     6.267002397     9.545726321     8.407157432   0   0   0 # obsk
   1219    1   2  1.575000     3.505391722     6.272976321     7.561090766   0   0   0 # feok
   1220    1   2  1.575000     6.412350328     6.272976321    12.134424099   0   0   0 # feok
   1221    1   2  1.575000     4.958871025     8.790476321     2.987757432   0   0   0 # feok
   1222    1   2  1.575000     3.505391722     6.272976321     4.679890766   0   0   0 # feok
   1223    1   2  1.575000     6.412350328     6.272976321     9.253224099   0   0   0 # feok
   1224    1   2  1.575000     4.958871025     8.790476321    13.826557432   0   0   0 # feok
   1225    1   2  1.575000     3.505391722     6.272976321    11.539890766   0   0   0 # feok
   1226    1   2  1.575000     6.412350328     6.272976321    16.113224099   0   0   0 # feok
   1227    1   2  1.575000     4.958871025     8.790476321     6.966557432   0   0   0 # feok
   1228    1   2  1.575000     3.505391722     6.272976321    14.421090766   0   0   0 # feok
   1229    1   2  1.575000     6.412350328     6.272976321     5.274424099   0   0   0 # feok
   1230    1   2  1.575000     4.958871025     8.790476321     9.847757432   0   0   0 # feok
   1231    1   1 -1.050000     4.813523095     5.517726321    19.840490766   0   0   0 # obsk
   1232    1   1 -1.050000     7.720481700     5.517726321    24.413824099   0   0   0 # obsk
   1233    1   1 -1.129000     6.267002397     8.035226321    28.987157432   0   0   0 # obsk
   1234    1   1 -1.050000     3.505391722     7.783476321    19.840490766   0   0   0 # obsk
   1235    1   1 -1.050000     6.412350328     7.783476321    24.413824099   0   0   0 # obsk
   1236    1   1 -1.050000     4.958871025    10.300976321    28.987157432   0   0   0 # obsk
   1237    1   1 -1.050000     6.557698258     8.035226321    19.840490766   0   0   0 # obsk
   1238    1   1 -1.050000     5.104218955     5.517726321    24.413824099   0   0   0 # obsk
   1239    1   1 -1.050000     3.650739653     8.035226321    28.987157432   0   0   0 # obsk
   1240    1   1 -1.050000     6.557698258     4.510726321    26.700490766   0   0   0 # obsk
   1241    1   1 -1.050000     5.104218955     7.028226321    17.553824099   0   0   0 # obsk
   1242    1   1 -1.050000     3.650739653     9.545726321    22.127157432   0   0   0 # obsk
   1243    1   1 -1.050000     3.505391722     9.797476321    26.700490766   0   0   0 # obsk
   1244    1   1 -1.050000     6.412350328     4.762476321    17.553824099   0   0   0 # obsk
   1245    1   1 -1.050000     4.958871025     7.279976321    22.127157432   0   0   0 # obsk
   1246    1   1 -1.050000     4.813523095     7.028226321    26.700490766   0   0   0 # obsk
   1247    1   1 -1.050000     7.720481700     7.028226321    17.553824099   0   0   0 # obsk
   1248    1   1 -1.050000     6.267002397     9.545726321    22.127157432   0   0   0 # obsk
   1249    1   2  1.575000     3.505391722     6.272976321    21.281090766   0   0   0 # feok
   1250    1   2  1.575000     6.412350328     6.272976321    25.854424099   0   0   0 # feok
   1251    1   2  1.575000     4.958871025     8.790476321    16.707757432   0   0   0 # feok
   1252    1   2  1.575000     3.505391722     6.272976321    18.399890766   0   0   0 # feok
   1253    1   2  1.575000     6.412350328     6.272976321    22.973224099   0   0   0 # feok
   1254    1   2  1.575000     4.958871025     8.790476321    27.546557432   0   0   0 # feok
   1255    1   2  1.575000     3.505391722     6.272976321    25.259890766   0   0   0 # feok
   1256    1   2  1.496000     6.412350328     6.272976321    29.833224099   0   0   0 # feok
   1257    1   2  1.575000     4.958871025     8.790476321    20.686557432   0   0   0 # feok
   1258    1   2  1.575000     3.505391722     6.272976321    28.141090766   0   0   0 # feok
   1259    1   2  1.575000     6.412350328     6.272976321    18.994424099   0   0   0 # feok
   1260    1   2  1.575000     4.958871025     8.790476321    23.567757432   0   0   0 # feok
   1261    1   1 -1.050000     9.173961003     3.000226321     6.120490766   0   0   0 # obsk
   1262    1   1 -1.050000    12.080919608     3.000226321    10.693824099   0   0   0 # obsk
   1263    1   1 -1.050000    10.627440305     5.517726321    15.267157432   0   0   0 # obsk
   1264    1   1 -1.050000     7.865829630     5.265976321     6.120490766   0   0   0 # obsk
   1265    1   1 -1.050000    10.772788236     5.265976321    10.693824099   0   0   0 # obsk
   1266    1   1 -1.050000     9.319308933     7.783476321    15.267157432   0   0   0 # obsk
   1267    1   1 -1.050000    10.918136166     5.517726321     6.120490766   0   0   0 # obsk
   1268    1   1 -1.050000     9.464656863     3.000226321    10.693824099   0   0   0 # obsk
   1269    1   1 -1.050000     8.011177561     5.517726321    15.267157432   0   0   0 # obsk
   1270    1   1 -1.050000    10.918136166     1.993226321    12.980490766   0   0   0 # obsk
   1271    1   1 -1.050000     9.464656863     4.510726321     3.833824099   0   0   0 # obsk
   1272    1   1 -1.050000     8.011177561     7.028226321     8.407157432   0   0   0 # obsk
   1273    1   1 -1.050000     7.865829630     7.279976321    12.980490766   0   0   0 # obsk
   1274    1   1 -1.050000    10.772788236     2.244976321     3.833824099   0   0   0 # obsk
   1275    1   1 -1.050000     9.319308933     4.762476321     8.407157432   0   0   0 # obsk
   1276    1   1 -1.050000     9.173961003     4.510726321    12.980490766   0   0   0 # obsk
   1277    1   1 -1.050000    12.080919608     4.510726321     3.833824099   0   0   0 # obsk
   1278    1   1 -1.050000    10.627440305     7.028226321     8.407157432   0   0   0 # obsk
   1279    1   2  1.575000     7.865829630     3.755476321     7.561090766   0   0   0 # feok
   1280    1   2  1.575000    10.772788236     3.755476321    12.134424099   0   0   0 # feok
   1281    1   2  1.575000     9.319308933     6.272976321     2.987757432   0   0   0 # feok
   1282    1   2  1.575000     7.865829630     3.755476321     4.679890766   0   0   0 # feok
   1283    1   2  1.575000    10.772788236     3.755476321     9.253224099   0   0   0 # feok
   1284    1   2  1.575000     9.319308933     6.272976321    13.826557432   0   0   0 # feok
   1285    1   2  1.575000     7.865829630     3.755476321    11.539890766   0   0   0 # feok
   1286    1   2  1.575000    10.772788236     3.755476321    16.113224099   0   0   0 # feok
   1287    1   2  1.575000     9.319308933     6.272976321     6.966557432   0   0   0 # feok
   1288    1   2  1.575000     7.865829630     3.755476321    14.421090766   0   0   0 # feok
   1289    1   2  1.575000    10.772788236     3.755476321     5.274424099   0   0   0 # feok
   1290    1   2  1.575000     9.319308933     6.272976321     9.847757432   0   0   0 # feok
   1291    1   1 -1.050000     9.173961003     3.000226321    19.840490766   0   0   0 # obsk
   1292    1   1 -1.050000    12.080919608     3.000226321    24.413824099   0   0   0 # obsk
   1293    1   1 -1.050000    10.627440305     5.517726321    28.987157432   0   0   0 # obsk
   1294    1   1 -1.050000     7.865829630     5.265976321    19.840490766   0   0   0 # obsk
   1295    1   1 -1.050000    10.772788236     5.265976321    24.413824099   0   0   0 # obsk
   1296    1   1 -1.050000     9.319308933     7.783476321    28.987157432   0   0   0 # obsk
   1297    1   1 -1.050000    10.918136166     5.517726321    19.840490766   0   0   0 # obsk
   1298    1   1 -1.050000     9.464656863     3.000226321    24.413824099   0   0   0 # obsk
   1299    1   1 -1.129000     8.011177561     5.517726321    28.987157432   0   0   0 # obsk
   1300    1   1 -1.050000    10.918136166     1.993226321    26.700490766   0   0   0 # obsk
   1301    1   1 -1.050000     9.464656863     4.510726321    17.553824099   0   0   0 # obsk
   1302    1   1 -1.050000     8.011177561     7.028226321    22.127157432   0   0   0 # obsk
   1303    1   1 -1.050000     7.865829630     7.279976321    26.700490766   0   0   0 # obsk
   1304    1   1 -1.050000    10.772788236     2.244976321    17.553824099   0   0   0 # obsk
   1305    1   1 -1.050000     9.319308933     4.762476321    22.127157432   0   0   0 # obsk
   1306    1   1 -1.050000     9.173961003     4.510726321    26.700490766   0   0   0 # obsk
   1307    1   1 -1.050000    12.080919608     4.510726321    17.553824099   0   0   0 # obsk
   1308    1   1 -1.050000    10.627440305     7.028226321    22.127157432   0   0   0 # obsk
   1309    1   2  1.575000     7.865829630     3.755476321    21.281090766   0   0   0 # feok
   1310    1   2  1.575000    10.772788236     3.755476321    25.854424099   0   0   0 # feok
   1311    1   2  1.575000     9.319308933     6.272976321    16.707757432   0   0   0 # feok
   1312    1   2  1.575000     7.865829630     3.755476321    18.399890766   0   0   0 # feok
   1313    1   2  1.575000    10.772788236     3.755476321    22.973224099   0   0   0 # feok
   1314    1   2  1.575000     9.319308933     6.272976321    27.546557432   0   0   0 # feok
   1315    1   2  1.575000     7.865829630     3.755476321    25.259890766   0   0   0 # feok
   1316    1   2  1.575000    10.772788236     3.755476321    29.833224099   0   0   0 # feok
   1317    1   2  1.575000     9.319308933     6.272976321    20.686557432   0   0   0 # feok
   1318    1   2  1.575000     7.865829630     3.755476321    28.141090766   0   0   0 # feok
   1319    1   2  1.575000    10.772788236     3.755476321    18.994424099   0   0   0 # feok
   1320    1   2  1.575000     9.319308933     6.272976321    23.567757432   0   0   0 # feok
   1321    1   1 -1.050000    13.534398911     0.482726321     6.120490766   0   0   0 # obsk
   1322    1   1 -1.050000    16.441357516     0.482726321    10.693824099   0   0   0 # obsk
   1323    1   1 -1.050000    14.987878213     3.000226321    15.267157432   0   0   0 # obsk
   1324    1   1 -1.050000    12.226267538     2.748476321     6.120490766   0   0   0 # obsk
   1325    1   1 -1.050000    15.133226144     2.748476321    10.693824099   0   0   0 # obsk
   1326    1   1 -1.050000    13.679746841     5.265976321    15.267157432   0   0   0 # obsk
   1327    1   1 -1.050000    15.278574074     3.000226321     6.120490766   0   0   0 # obsk
   1328    1   1 -1.050000    13.825094771     0.482726321    10.693824099   0   0   0 # obsk
   1329    1   1 -1.050000    12.371615469     3.000226321    15.267157432   0   0   0 # obsk
   1330    1   1 -1.050000    15.278574074    24.650726321    12.980490766   0   0   0 # obsk
   1331    1   1 -1.050000    13.825094771     1.993226321     3.833824099   0   0   0 # obsk
   1332    1   1 -1.050000    12.371615469     4.510726321     8.407157432   0   0   0 # obsk
   1333    1   1 -1.050000    12.226267538     4.762476321    12.980490766   0   0   0 # obsk
   1334    1   1 -1.050000    15.133226144    24.902476321     3.833824099   0   0   0 # obsk
   1335    1   1 -1.050000    13.679746841     2.244976321     8.407157432   0   0   0 # obsk
   1336    1   1 -1.050000    13.534398911     1.993226321    12.980490766   0   0   0 # obsk
   1337    1   1 -1.050000    16.441357516     1.993226321     3.833824099   0   0   0 # obsk
   1338    1   1 -1.050000    14.987878213     4.510726321     8.407157432   0   0   0 # obsk
   1339    1   2  1.575000    12.226267538     1.237976321     7.561090766   0   0   0 # feok
   1340    1   2  1.575000    15.133226144     1.237976321    12.134424099   0   0   0 # feok
   1341    1   2  1.575000    13.679746841     3.755476321     2.987757432   0   0   0 # feok
   1342    1   2  1.575000    12.226267538     1.237976321     4.679890766   0   0   0 # feok
   1343    1   2  1.575000    15.133226144     1.237976321     9.253224099   0   0   0 # feok
   1344    1   2  1.575000    13.679746841     3.755476321    13.826557432   0   0   0 # feok
   1345    1   2  1.575000    12.226267538     1.237976321    11.539890766   0   0   0 # feok
   1346    1   2  1.575000    15.133226144     1.237976321    16.113224099   0   0   0 # feok
   1347    1   2  1.575000    13.679746841     3.755476321     6.966557432   0   0   0 # feok
   1348    1   2  1.575000    12.226267538     1.237976321    14.421090766   0   0   0 # feok
   1349    1   2  1.575000    15.133226144     1.237976321     5.274424099   0   0   0 # feok
   1350    1   2  1.575000    13.679746841     3.755476321     9.847757432   0   0   0 # feok
   1351    1   1 -1.050000    13.534398911     0.482726321    19.840490766   0   0   0 # obsk
   1352    1   1 -1.050000    16.441357516     0.482726321    24.413824099   0   0   0 # obsk
   1353    1   1 -1.050000    14.987878213     3.000226321    28.987157432   0   0   0 # obsk
   1354    1   1 -1.050000    12.226267538     2.748476321    19.840490766   0   0   0 # obsk
   1355    1   1 -1.050000    15.133226144     2.748476321    24.413824099   0   0   0 # obsk
   1356    1   1 -1.050000    13.679746841     5.265976321    28.987157432   0   0   0 # obsk
   1357    1   1 -1.050000    15.278574074     3.000226321    19.840490766   0   0   0 # obsk
   1358    1   1 -1.050000    13.825094771     0.482726321    24.413824099   0   0   0 # obsk
   1359    1   1 -1.050000    12.371615469     3.000226321    28.987157432   0   0   0 # obsk
   1360    1   1 -1.050000    15.278574074    24.650726321    26.700490766   0   0   0 # obsk
   1361    1   1 -1.050000    13.825094771     1.993226321    17.553824099   0   0   0 # obsk
   1362    1   1 -1.050000    12.371615469     4.510726321    22.127157432   0   0   0 # obsk
   1363    1   1 -1.050000    12.226267538     4.762476321    26.700490766   0   0   0 # obsk
   1364    1   1 -1.050000    15.133226144    24.902476321    17.553824099   0   0   0 # obsk
   1365    1   1 -1.050000    13.679746841     2.244976321    22.127157432   0   0   0 # obsk
   1366    1   1 -1.050000    13.534398911     1.993226321    26.700490766   0   0   0 # obsk
   1367    1   1 -1.050000    16.441357516     1.993226321    17.553824099   0   0   0 # obsk
   1368    1   1 -1.050000    14.987878213     4.510726321    22.127157432   0   0   0 # obsk
   1369    1   2  1.575000    12.226267538     1.237976321    21.281090766   0   0   0 # feok
   1370    1   2  1.575000    15.133226144     1.237976321    25.854424099   0   0   0 # feok
   1371    1   2  1.575000    13.679746841     3.755476321    16.707757432   0   0   0 # feok
   1372    1   2  1.575000    12.226267538     1.237976321    18.399890766   0   0   0 # feok
   1373    1   2  1.575000    15.133226144     1.237976321    22.973224099   0   0   0 # feok
   1374    1   2  1.575000    13.679746841     3.755476321    27.546557432   0   0   0 # feok
   1375    1   2  1.575000    12.226267538     1.237976321    25.259890766   0   0   0 # feok
   1376    1   2  1.575000    15.133226144     1.237976321    29.833224099   0   0   0 # feok
   1377    1   2  1.575000    13.679746841     3.755476321    20.686557432   0   0   0 # feok
   1378    1   2  1.575000    12.226267538     1.237976321    28.141090766   0   0   0 # feok
   1379    1   2  1.575000    15.133226144     1.237976321    18.994424099   0   0   0 # feok
   1380    1   2  1.575000    13.679746841     3.755476321    23.567757432   0   0   0 # feok
   1381    1   1 -1.050000    17.894836819    23.140226321     6.120490766   0   0   0 # obsk
   1382    1   1 -1.050000    20.801795424    23.140226321    10.693824099   0   0   0 # obsk
   1383    1   1 -1.050000    19.348316122     0.482726321    15.267157432   0   0   0 # obsk
   1384    1   1 -1.050000    16.586705446     0.230976321     6.120490766   0   0   0 # obsk
   1385    1   1 -1.050000    19.493664052     0.230976321    10.693824099   0   0   0 # obsk
   1386    1   1 -1.050000    18.040184749     2.748476321    15.267157432   0   0   0 # obsk
   1387    1   1 -1.050000    19.639011982     0.482726321     6.120490766   0   0   0 # obsk
   1388    1   1 -1.050000    18.185532679    23.140226321    10.693824099   0   0   0 # obsk
   1389    1   1 -1.050000    16.732053377     0.482726321    15.267157432   0   0   0 # obsk
   1390    1   1 -1.050000    19.639011982    22.133226321    12.980490766   0   0   0 # obsk
   1391    1   1 -1.050000    18.185532679    24.650726321     3.833824099   0   0   0 # obsk
   1392    1   1 -1.050000    16.732053377     1.993226321     8.407157432   0   0   0 # obsk
   1393    1   1 -1.050000    16.586705446     2.244976321    12.980490766   0   0   0 # obsk
   1394    1   1 -1.050000    19.493664052    22.384976321     3.833824099   0   0   0 # obsk
   1395    1   1 -1.050000    18.040184749    24.902476321     8.407157432   0   0   0 # obsk
   1396    1   1 -1.050000    17.894836819    24.650726321    12.980490766   0   0   0 # obsk
   1397    1   1 -1.050000    20.801795424    24.650726321     3.833824099   0   0   0 # obsk
   1398    1   1 -1.050000    19.348316122     1.993226321     8.407157432   0   0   0 # obsk
   1399    1   2  1.575000    16.586705446    23.895476321     7.561090766   0   0   0 # feok
   1400    1   2  1.575000    19.493664052    23.895476321    12.134424099   0   0   0 # feok
   1401    1   2  1.575000    18.040184749     1.237976321     2.987757432   0   0   0 # feok
   1402    1   2  1.575000    16.586705446    23.895476321     4.679890766   0   0   0 # feok
   1403    1   2  1.575000    19.493664052    23.895476321     9.253224099   0   0   0 # feok
   1404    1   2  1.575000    18.040184749     1.237976321    13.826557432   0   0   0 # feok
   1405    1   2  1.575000    16.586705446    23.895476321    11.539890766   0   0   0 # feok
   1406    1   2  1.575000    19.493664052    23.895476321    16.113224099   0   0   0 # feok
   1407    1   2  1.575000    18.040184749     1.237976321     6.966557432   0   0   0 # feok
   1408    1   2  1.575000    16.586705446    23.895476321    14.421090766   0   0   0 # feok
   1409    1   2  1.575000    19.493664052    23.895476321     5.274424099   0   0   0 # feok
   1410    1   2  1.575000    18.040184749     1.237976321     9.847757432   0   0   0 # feok
   1411    1   1 -1.050000    17.894836819    23.140226321    19.840490766   0   0   0 # obsk
   1412    1   1 -1.050000    20.801795424    23.140226321    24.413824099   0   0   0 # obsk
   1413    1   1 -1.050000    19.348316122     0.482726321    28.987157432   0   0   0 # obsk
   1414    1   1 -1.050000    16.586705446     0.230976321    19.840490766   0   0   0 # obsk
   1415    1   1 -1.050000    19.493664052     0.230976321    24.413824099   0   0   0 # obsk
   1416    1   1 -1.050000    18.040184749     2.748476321    28.987157432   0   0   0 # obsk
   1417    1   1 -1.050000    19.639011982     0.482726321    19.840490766   0   0   0 # obsk
   1418    1   1 -1.050000    18.185532679    23.140226321    24.413824099   0   0   0 # obsk
   1419    1   1 -1.050000    16.732053377     0.482726321    28.987157432   0   0   0 # obsk
   1420    1   1 -1.050000    19.639011982    22.133226321    26.700490766   0   0   0 # obsk
   1421    1   1 -1.050000    18.185532679    24.650726321    17.553824099   0   0   0 # obsk
   1422    1   1 -1.050000    16.732053377     1.993226321    22.127157432   0   0   0 # obsk
   1423    1   1 -1.050000    16.586705446     2.244976321    26.700490766   0   0   0 # obsk
   1424    1   1 -1.050000    19.493664052    22.384976321    17.553824099   0   0   0 # obsk
   1425    1   1 -1.050000    18.040184749    24.902476321    22.127157432   0   0   0 # obsk
   1426    1   1 -1.050000    17.894836819    24.650726321    26.700490766   0   0   0 # obsk
   1427    1   1 -1.050000    20.801795424    24.650726321    17.553824099   0   0   0 # obsk
   1428    1   1 -1.050000    19.348316122     1.993226321    22.127157432   0   0   0 # obsk
   1429    1   2  1.575000    16.586705446    23.895476321    21.281090766   0   0   0 # feok
   1430    1   2  1.575000    19.493664052    23.895476321    25.854424099   0   0   0 # feok
   1431    1   2  1.575000    18.040184749     1.237976321    16.707757432   0   0   0 # feok
   1432    1   2  1.575000    16.586705446    23.895476321    18.399890766   0   0   0 # feok
   1433    1   2  1.575000    19.493664052    23.895476321    22.973224099   0   0   0 # feok
   1434    1   2  1.575000    18.040184749     1.237976321    27.546557432   0   0   0 # feok
   1435    1   2  1.575000    16.586705446    23.895476321    25.259890766   0   0   0 # feok
   1436    1   2  1.575000    19.493664052    23.895476321    29.833224099   0   0   0 # feok
   1437    1   2  1.575000    18.040184749     1.237976321    20.686557432   0   0   0 # feok
   1438    1   2  1.575000    16.586705446    23.895476321    28.141090766   0   0   0 # feok
   1439    1   2  1.575000    19.493664052    23.895476321    18.994424099   0   0   0 # feok
   1440    1   2  1.575000    18.040184749     1.237976321    23.567757432   0   0   0 # feok
   1441    1   1 -1.050000    22.254507279    15.587726321     6.120490766   0   0   0 # obsk
   1442    1   1 -1.050000    25.161465884    15.587726321    10.693824099   0   0   0 # obsk
   1443    1   1 -1.050000    23.707986581    18.105226321    15.267157432   0   0   0 # obsk
   1444    1   1 -1.050000    20.946375906    17.853476321     6.120490766   0   0   0 # obsk
   1445    1   1 -1.050000    23.853334512    17.853476321    10.693824099   0   0   0 # obsk
   1446    1   1 -1.050000    22.399855209    20.370976321    15.267157432   0   0   0 # obsk
   1447    1   1 -1.050000    23.998682442    18.105226321     6.120490766   0   0   0 # obsk
   1448    1   1 -1.050000    22.545203139    15.587726321    10.693824099   0   0   0 # obsk
   1449    1   1 -1.050000    21.091723836    18.105226321    15.267157432   0   0   0 # obsk
   1450    1   1 -1.050000    23.998682442    14.580726321    12.980490766   0   0   0 # obsk
   1451    1   1 -1.050000    22.545203139    17.098226321     3.833824099   0   0   0 # obsk
   1452    1   1 -1.050000    21.091723836    19.615726321     8.407157432   0   0   0 # obsk
   1453    1   1 -1.050000    20.946375906    19.867476321    12.980490766   0   0   0 # obsk
   1454    1   1 -1.050000    23.853334512    14.832476321     3.833824099   0   0   0 # obsk
   1455    1   1 -1.050000    22.399855209    17.349976321     8.407157432   0   0   0 # obsk
   1456    1   1 -1.050000    22.254507279    17.098226321    12.980490766   0   0   0 # obsk
   1457    1   1 -1.050000    25.161465884    17.098226321     3.833824099   0   0   0 # obsk
   1458    1   1 -1.050000    23.707986581    19.615726321     8.407157432   0   0   0 # obsk
   1459    1   2  1.575000    20.946375906    16.342976321     7.561090766   0   0   0 # feok
   1460    1   2  1.575000    23.853334512    16.342976321    12.134424099   0   0   0 # feok
   1461    1   2  1.575000    22.399855209    18.860476321     2.987757432   0   0   0 # feok
   1462    1   2  1.575000    20.946375906    16.342976321     4.679890766   0   0   0 # feok
   1463    1   2  1.575000    23.853334512    16.342976321     9.253224099   0   0   0 # feok
   1464    1   2  1.575000    22.399855209    18.860476321    13.826557432   0   0   0 # feok
   1465    1   2  1.575000    20.946375906    16.342976321    11.539890766   0   0   0 # feok
   1466    1   2  1.575000    23.853334512    16.342976321    16.113224099   0   0   0 # feok
   1467    1   2  1.575000    22.399855209    18.860476321     6.966557432   0   0   0 # feok
   1468    1   2  1.575000    20.946375906    16.342976321    14.421090766   0   0   0 # feok
   1469    1   2  1.575000    23.853334512    16.342976321     5.274424099   0   0   0 # feok
   1470    1   2  1.575000    22.399855209    18.860476321     9.847757432   0   0   0 # feok
   1471    1   1 -1.050000    22.254507279    15.587726321    19.840490766   0   0   0 # obsk
   1472    1   1 -1.050000    25.161465884    15.587726321    24.413824099   0   0   0 # obsk
   1473    1   1 -1.050000    23.707986581    18.105226321    28.987157432   0   0   0 # obsk
   1474    1   1 -1.050000    20.946375906    17.853476321    19.840490766   0   0   0 # obsk
   1475    1   1 -1.050000    23.853334512    17.853476321    24.413824099   0   0   0 # obsk
   1476    1   1 -1.050000    22.399855209    20.370976321    28.987157432   0   0   0 # obsk
   1477    1   1 -1.050000    23.998682442    18.105226321    19.840490766   0   0   0 # obsk
   1478    1   1 -1.050000    22.545203139    15.587726321    24.413824099   0   0   0 # obsk
   1479    1   1 -1.129000    21.091723836    18.105226321    28.987157432   0   0   0 # obsk
   1480    1   1 -1.050000    23.998682442    14.580726321    26.700490766   0   0   0 # obsk
   1481    1   1 -1.050000    22.545203139    17.098226321    17.553824099   0   0   0 # obsk
   1482    1   1 -1.050000    21.091723836    19.615726321    22.127157432   0   0   0 # obsk
   1483    1   1 -1.050000    20.946375906    19.867476321    26.700490766   0   0   0 # obsk
   1484    1   1 -1.050000    23.853334512    14.832476321    17.553824099   0   0   0 # obsk
   1485    1   1 -1.050000    22.399855209    17.349976321    22.127157432   0   0   0 # obsk
   1486    1   1 -1.050000    22.254507279    17.098226321    26.700490766   0   0   0 # obsk
   1487    1   1 -1.050000    25.161465884    17.098226321    17.553824099   0   0   0 # obsk
   1488    1   1 -1.050000    23.707986581    19.615726321    22.127157432   0   0   0 # obsk
   1489    1   2  1.575000    20.946375906    16.342976321    21.281090766   0   0   0 # feok
   1490    1   2  1.575000    23.853334512    16.342976321    25.854424099   0   0   0 # feok
   1491    1   2  1.575000    22.399855209    18.860476321    16.707757432   0   0   0 # feok
   1492    1   2  1.575000    20.946375906    16.342976321    18.399890766   0   0   0 # feok
   1493    1   2  1.575000    23.853334512    16.342976321    22.973224099   0   0   0 # feok
   1494    1   2  1.575000    22.399855209    18.860476321    27.546557432   0   0   0 # feok
   1495    1   2  1.575000    20.946375906    16.342976321    25.259890766   0   0   0 # feok
   1496    1   2  1.575000    23.853334512    16.342976321    29.833224099   0   0   0 # feok
   1497    1   2  1.575000    22.399855209    18.860476321    20.686557432   0   0   0 # feok
   1498    1   2  1.575000    20.946375906    16.342976321    28.141090766   0   0   0 # feok
   1499    1   2  1.575000    23.853334512    16.342976321    18.994424099   0   0   0 # feok
   1500    1   2  1.575000    22.399855209    18.860476321    23.567757432   0   0   0 # feok
   1501    1   1 -1.050000     0.453085187    13.070226321     6.120490766   0   0   0 # obsk
   1502    1   1 -1.050000     3.360043792    13.070226321    10.693824099   0   0   0 # obsk
   1503    1   1 -1.050000     1.906564489    15.587726321    15.267157432   0   0   0 # obsk
   1504    1   1 -1.050000    25.306813814    15.335976321     6.120490766   0   0   0 # obsk
   1505    1   1 -1.050000     2.051912420    15.335976321    10.693824099   0   0   0 # obsk
   1506    1   1 -1.050000     0.598433117    17.853476321    15.267157432   0   0   0 # obsk
   1507    1   1 -1.050000     2.197260350    15.587726321     6.120490766   0   0   0 # obsk
   1508    1   1 -1.050000     0.743781047    13.070226321    10.693824099   0   0   0 # obsk
   1509    1   1 -1.050000    25.452161744    15.587726321    15.267157432   0   0   0 # obsk
   1510    1   1 -1.050000     2.197260350    12.063226321    12.980490766   0   0   0 # obsk
   1511    1   1 -1.050000     0.743781047    14.580726321     3.833824099   0   0   0 # obsk
   1512    1   1 -1.050000    25.452161744    17.098226321     8.407157432   0   0   0 # obsk
   1513    1   1 -1.050000    25.306813814    17.349976321    12.980490766   0   0   0 # obsk
   1514    1   1 -1.050000     2.051912420    12.314976321     3.833824099   0   0   0 # obsk
   1515    1   1 -1.050000     0.598433117    14.832476321     8.407157432   0   0   0 # obsk
   1516    1   1 -1.050000     0.453085187    14.580726321    12.980490766   0   0   0 # obsk
   1517    1   1 -1.050000     3.360043792    14.580726321     3.833824099   0   0   0 # obsk
   1518    1   1 -1.050000     1.906564489    17.098226321     8.407157432   0   0   0 # obsk
   1519    1   2  1.575000    25.306813814    13.825476321     7.561090766   0   0   0 # feok
   1520    1   2  1.575000     2.051912420    13.825476321    12.134424099   0   0   0 # feok
   1521    1   2  1.575000     0.598433117    16.342976321     2.987757432   0   0   0 # feok
   1522    1   2  1.575000    25.306813814    13.825476321     4.679890766   0   0   0 # feok
   1523    1   2  1.575000     2.051912420    13.825476321     9.253224099   0   0   0 # feok
   1524    1   2  1.575000     0.598433117    16.342976321    13.826557432   0   0   0 # feok
   1525    1   2  1.575000    25.306813814    13.825476321    11.539890766   0   0   0 # feok
   1526    1   2  1.575000     2.051912420    13.825476321    16.113224099   0   0   0 # feok
   1527    1   2  1.575000     0.598433117    16.342976321     6.966557432   0   0   0 # feok
   1528    1   2  1.575000    25.306813814    13.825476321    14.421090766   0   0   0 # feok
   1529    1   2  1.575000     2.051912420    13.825476321     5.274424099   0   0   0 # feok
   1530    1   2  1.575000     0.598433117    16.342976321     9.847757432   0   0   0 # feok
   1531    1   1 -1.050000     0.453085187    13.070226321    19.840490766   0   0   0 # obsk
   1532    1   1 -1.050000     3.360043792    13.070226321    24.413824099   0   0   0 # obsk
   1533    1   1 -1.050000     1.906564489    15.587726321    28.987157432   0   0   0 # obsk
   1534    1   1 -1.050000    25.306813814    15.335976321    19.840490766   0   0   0 # obsk
   1535    1   1 -1.050000     2.051912420    15.335976321    24.413824099   0   0   0 # obsk
   1536    1   1 -1.050000     0.598433117    17.853476321    28.987157432   0   0   0 # obsk
   1537    1   1 -1.050000     2.197260350    15.587726321    19.840490766   0   0   0 # obsk
   1538    1   1 -1.050000     0.743781047    13.070226321    24.413824099   0   0   0 # obsk
   1539    1   1 -1.050000    25.452161744    15.587726321    28.987157432   0   0   0 # obsk
   1540    1   1 -1.050000     2.197260350    12.063226321    26.700490766   0   0   0 # obsk
   1541    1   1 -1.050000     0.743781047    14.580726321    17.553824099   0   0   0 # obsk
   1542    1   1 -1.050000    25.452161744    17.098226321    22.127157432   0   0   0 # obsk
   1543    1   1 -1.050000    25.306813814    17.349976321    26.700490766   0   0   0 # obsk
   1544    1   1 -1.050000     2.051912420    12.314976321    17.553824099   0   0   0 # obsk
   1545    1   1 -1.050000     0.598433117    14.832476321    22.127157432   0   0   0 # obsk
   1546    1   1 -1.050000     0.453085187    14.580726321    26.700490766   0   0   0 # obsk
   1547    1   1 -1.050000     3.360043792    14.580726321    17.553824099   0   0   0 # obsk
   1548    1   1 -1.050000     1.906564489    17.098226321    22.127157432   0   0   0 # obsk
   1549    1   2  1.575000    25.306813814    13.825476321    21.281090766   0   0   0 # feok
   1550    1   2  1.575000     2.051912420    13.825476321    25.854424099   0   0   0 # feok
   1551    1   2  1.575000     0.598433117    16.342976321    16.707757432   0   0   0 # feok
   1552    1   2  1.575000    25.306813814    13.825476321    18.399890766   0   0   0 # feok
   1553    1   2  1.575000     2.051912420    13.825476321    22.973224099   0   0   0 # feok
   1554    1   2  1.575000     0.598433117    16.342976321    27.546557432   0   0   0 # feok
   1555    1   2  1.575000    25.306813814    13.825476321    25.259890766   0   0   0 # feok
   1556    1   2  1.575000     2.051912420    13.825476321    29.833224099   0   0   0 # feok
   1557    1   2  1.575000     0.598433117    16.342976321    20.686557432   0   0   0 # feok
   1558    1   2  1.575000    25.306813814    13.825476321    28.141090766   0   0   0 # feok
   1559    1   2  1.575000     2.051912420    13.825476321    18.994424099   0   0   0 # feok
   1560    1   2  1.575000     0.598433117    16.342976321    23.567757432   0   0   0 # feok
   1561    1   1 -1.050000     4.813523095    10.552726321     6.120490766   0   0   0 # obsk
   1562    1   1 -1.050000     7.720481700    10.552726321    10.693824099   0   0   0 # obsk
   1563    1   1 -1.050000     6.267002397    13.070226321    15.267157432   0   0   0 # obsk
   1564    1   1 -1.050000     3.505391722    12.818476321     6.120490766   0   0   0 # obsk
   1565    1   1 -1.050000     6.412350328    12.818476321    10.693824099   0   0   0 # obsk
   1566    1   1 -1.050000     4.958871025    15.335976321    15.267157432   0   0   0 # obsk
   1567    1   1 -1.050000     6.557698258    13.070226321     6.120490766   0   0   0 # obsk
   1568    1   1 -1.050000     5.104218955    10.552726321    10.693824099   0   0   0 # obsk
   1569    1   1 -1.050000     3.650739653    13.070226321    15.267157432   0   0   0 # obsk
   1570    1   1 -1.050000     6.557698258     9.545726321    12.980490766   0   0   0 # obsk
   1571    1   1 -1.050000     5.104218955    12.063226321     3.833824099   0   0   0 # obsk
   1572    1   1 -1.050000     3.650739653    14.580726321     8.407157432   0   0   0 # obsk
   1573    1   1 -1.050000     3.505391722    14.832476321    12.980490766   0   0   0 # obsk
   1574    1   1 -1.050000     6.412350328     9.797476321     3.833824099   0   0   0 # obsk
   1575    1   1 -1.050000     4.958871025    12.314976321     8.407157432   0   0   0 # obsk
   1576    1   1 -1.050000     4.813523095    12.063226321    12.980490766   0   0   0 # obsk
   1577    1   1 -1.050000     7.720481700    12.063226321     3.833824099   0   0   0 # obsk
   1578    1   1 -1.050000     6.267002397    14.580726321     8.407157432   0   0   0 # obsk
   1579    1   2  1.575000     3.505391722    11.307976321     7.561090766   0   0   0 # feok
   1580    1   2  1.575000     6.412350328    11.307976321    12.134424099   0   0   0 # feok
   1581    1   2  1.575000     4.958871025    13.825476321     2.987757432   0   0   0 # feok
   1582    1   2  1.575000     3.505391722    11.307976321     4.679890766   0   0   0 # feok
   1583    1   2  1.575000     6.412350328    11.307976321     9.253224099   0   0   0 # feok
   1584    1   2  1.575000     4.958871025    13.825476321    13.826557432   0   0   0 # feok
   1585    1   2  1.575000     3.505391722    11.307976321    11.539890766   0   0   0 # feok
   1586    1   2  1.575000     6.412350328    11.307976321    16.113224099   0   0   0 # feok
   1587    1   2  1.575000     4.958871025    13.825476321     6.966557432   0   0   0 # feok
   1588    1   2  1.575000     3.505391722    11.307976321    14.421090766   0   0   0 # feok
   1589    1   2  1.575000     6.412350328    11.307976321     5.274424099   0   0   0 # feok
   1590    1   2  1.575000     4.958871025    13.825476321     9.847757432   0   0   0 # feok
   1591    1   1 -1.050000     4.813523095    10.552726321    19.840490766   0   0   0 # obsk
   1592    1   1 -1.050000     7.720481700    10.552726321    24.413824099   0   0   0 # obsk
   1593    1   1 -1.050000     6.267002397    13.070226321    28.987157432   0   0   0 # obsk
   1594    1   1 -1.050000     3.505391722    12.818476321    19.840490766   0   0   0 # obsk
   1595    1   1 -1.050000     6.412350328    12.818476321    24.413824099   0   0   0 # obsk
   1596    1   1 -1.050000     4.958871025    15.335976321    28.987157432   0   0   0 # obsk
   1597    1   1 -1.050000     6.557698258    13.070226321    19.840490766   0   0   0 # obsk
   1598    1   1 -1.050000     5.104218955    10.552726321    24.413824099   0   0   0 # obsk
   1599    1   1 -1.050000     3.650739653    13.070226321    28.987157432   0   0   0 # obsk
   1600    1   1 -1.050000     6.557698258     9.545726321    26.700490766   0   0   0 # obsk
   1601    1   1 -1.050000     5.104218955    12.063226321    17.553824099   0   0   0 # obsk
   1602    1   1 -1.050000     3.650739653    14.580726321    22.127157432   0   0   0 # obsk
   1603    1   1 -1.050000     3.505391722    14.832476321    26.700490766   0   0   0 # obsk
   1604    1   1 -1.050000     6.412350328     9.797476321    17.553824099   0   0   0 # obsk
   1605    1   1 -1.050000     4.958871025    12.314976321    22.127157432   0   0   0 # obsk
   1606    1   1 -1.050000     4.813523095    12.063226321    26.700490766   0   0   0 # obsk
   1607    1   1 -1.050000     7.720481700    12.063226321    17.553824099   0   0   0 # obsk
   1608    1   1 -1.050000     6.267002397    14.580726321    22.127157432   0   0   0 # obsk
   1609    1   2  1.575000     3.505391722    11.307976321    21.281090766   0   0   0 # feok
   1610    1   2  1.575000     6.412350328    11.307976321    25.854424099   0   0   0 # feok
   1611    1   2  1.575000     4.958871025    13.825476321    16.707757432   0   0   0 # feok
   1612    1   2  1.575000     3.505391722    11.307976321    18.399890766   0   0   0 # feok
   1613    1   2  1.575000     6.412350328    11.307976321    22.973224099   0   0   0 # feok
   1614    1   2  1.575000     4.958871025    13.825476321    27.546557432   0   0   0 # feok
   1615    1   2  1.575000     3.505391722    11.307976321    25.259890766   0   0   0 # feok
   1616    1   2  1.575000     6.412350328    11.307976321    29.833224099   0   0   0 # feok
   1617    1   2  1.575000     4.958871025    13.825476321    20.686557432   0   0   0 # feok
   1618    1   2  1.575000     3.505391722    11.307976321    28.141090766   0   0   0 # feok
   1619    1   2  1.575000     6.412350328    11.307976321    18.994424099   0   0   0 # feok
   1620    1   2  1.575000     4.958871025    13.825476321    23.567757432   0   0   0 # feok
   1621    1   1 -1.050000     9.173961003     8.035226321     6.120490766   0   0   0 # obsk
   1622    1   1 -1.050000    12.080919608     8.035226321    10.693824099   0   0   0 # obsk
   1623    1   1 -1.050000    10.627440305    10.552726321    15.267157432   0   0   0 # obsk
   1624    1   1 -1.050000     7.865829630    10.300976321     6.120490766   0   0   0 # obsk
   1625    1   1 -1.050000    10.772788236    10.300976321    10.693824099   0   0   0 # obsk
   1626    1   1 -1.050000     9.319308933    12.818476321    15.267157432   0   0   0 # obsk
   1627    1   1 -1.050000    10.918136166    10.552726321     6.120490766   0   0   0 # obsk
   1628    1   1 -1.050000     9.464656863     8.035226321    10.693824099   0   0   0 # obsk
   1629    1   1 -1.050000     8.011177561    10.552726321    15.267157432   0   0   0 # obsk
   1630    1   1 -1.050000    10.918136166     7.028226321    12.980490766   0   0   0 # obsk
   1631    1   1 -1.050000     9.464656863     9.545726321     3.833824099   0   0   0 # obsk
   1632    1   1 -1.050000     8.011177561    12.063226321     8.407157432   0   0   0 # obsk
   1633    1   1 -1.050000     7.865829630    12.314976321    12.980490766   0   0   0 # obsk
   1634    1   1 -1.050000    10.772788236     7.279976321     3.833824099   0   0   0 # obsk
   1635    1   1 -1.050000     9.319308933     9.797476321     8.407157432   0   0   0 # obsk
   1636    1   1 -1.050000     9.173961003     9.545726321    12.980490766   0   0   0 # obsk
   1637    1   1 -1.050000    12.080919608     9.545726321     3.833824099   0   0   0 # obsk
   1638    1   1 -1.050000    10.627440305    12.063226321     8.407157432   0   0   0 # obsk
   1639    1   2  1.575000     7.865829630     8.790476321     7.561090766   0   0   0 # feok
   1640    1   2  1.575000    10.772788236     8.790476321    12.134424099   0   0   0 # feok
   1641    1   2  1.575000     9.319308933    11.307976321     2.987757432   0   0   0 # feok
   1642    1   2  1.575000     7.865829630     8.790476321     4.679890766   0   0   0 # feok
   1643    1   2  1.575000    10.772788236     8.790476321     9.253224099   0   0   0 # feok
   1644    1   2  1.575000     9.319308933    11.307976321    13.826557432   0   0   0 # feok
   1645    1   2  1.575000     7.865829630     8.790476321    11.539890766   0   0   0 # feok
   1646    1   2  1.575000    10.772788236     8.790476321    16.113224099   0   0   0 # feok
   1647    1   2  1.575000     9.319308933    11.307976321     6.966557432   0   0   0 # feok
   1648    1   2  1.575000     7.865829630     8.790476321    14.421090766   0   0   0 # feok
   1649    1   2  1.575000    10.772788236     8.790476321     5.274424099   0   0   0 # feok
   1650    1   2  1.575000     9.319308933    11.307976321     9.847757432   0   0   0 # feok
   1651    1   1 -1.050000     9.173961003     8.035226321    19.840490766   0   0   0 # obsk
   1652    1   1 -1.050000    12.080919608     8.035226321    24.413824099   0   0   0 # obsk
   1653    1   1 -1.050000    10.627440305    10.552726321    28.987157432   0   0   0 # obsk
   1654    1   1 -1.050000     7.865829630    10.300976321    19.840490766   0   0   0 # obsk
   1655    1   1 -1.050000    10.772788236    10.300976321    24.413824099   0   0   0 # obsk
   1656    1   1 -1.050000     9.319308933    12.818476321    28.987157432   0   0   0 # obsk
   1657    1   1 -1.050000    10.918136166    10.552726321    19.840490766   0   0   0 # obsk
   1658    1   1 -1.050000     9.464656863     8.035226321    24.413824099   0   0   0 # obsk
   1659    1   1 -1.050000     8.011177561    10.552726321    28.987157432   0   0   0 # obsk
   1660    1   1 -1.050000    10.918136166     7.028226321    26.700490766   0   0   0 # obsk
   1661    1   1 -1.050000     9.464656863     9.545726321    17.553824099   0   0   0 # obsk
   1662    1   1 -1.050000     8.011177561    12.063226321    22.127157432   0   0   0 # obsk
   1663    1   1 -1.050000     7.865829630    12.314976321    26.700490766   0   0   0 # obsk
   1664    1   1 -1.050000    10.772788236     7.279976321    17.553824099   0   0   0 # obsk
   1665    1   1 -1.050000     9.319308933     9.797476321    22.127157432   0   0   0 # obsk
   1666    1   1 -1.050000     9.173961003     9.545726321    26.700490766   0   0   0 # obsk
   1667    1   1 -1.050000    12.080919608     9.545726321    17.553824099   0   0   0 # obsk
   1668    1   1 -1.050000    10.627440305    12.063226321    22.127157432   0   0   0 # obsk
   1669    1   2  1.575000     7.865829630     8.790476321    21.281090766   0   0   0 # feok
   1670    1   2  1.575000    10.772788236     8.790476321    25.854424099   0   0   0 # feok
   1671    1   2  1.575000     9.319308933    11.307976321    16.707757432   0   0   0 # feok
   1672    1   2  1.575000     7.865829630     8.790476321    18.399890766   0   0   0 # feok
   1673    1   2  1.575000    10.772788236     8.790476321    22.973224099   0   0   0 # feok
   1674    1   2  1.575000     9.319308933    11.307976321    27.546557432   0   0   0 # feok
   1675    1   2  1.575000     7.865829630     8.790476321    25.259890766   0   0   0 # feok
   1676    1   2  1.575000    10.772788236     8.790476321    29.833224099   0   0   0 # feok
   1677    1   2  1.575000     9.319308933    11.307976321    20.686557432   0   0   0 # feok
   1678    1   2  1.575000     7.865829630     8.790476321    28.141090766   0   0   0 # feok
   1679    1   2  1.575000    10.772788236     8.790476321    18.994424099   0   0   0 # feok
   1680    1   2  1.575000     9.319308933    11.307976321    23.567757432   0   0   0 # feok
   1681    1   1 -1.050000    13.534398911     5.517726321     6.120490766   0   0   0 # obsk
   1682    1   1 -1.050000    16.441357516     5.517726321    10.693824099   0   0   0 # obsk
   1683    1   1 -1.050000    14.987878213     8.035226321    15.267157432   0   0   0 # obsk
   1684    1   1 -1.050000    12.226267538     7.783476321     6.120490766   0   0   0 # obsk
   1685    1   1 -1.050000    15.133226144     7.783476321    10.693824099   0   0   0 # obsk
   1686    1   1 -1.050000    13.679746841    10.300976321    15.267157432   0   0   0 # obsk
   1687    1   1 -1.050000    15.278574074     8.035226321     6.120490766   0   0   0 # obsk
   1688    1   1 -1.050000    13.825094771     5.517726321    10.693824099   0   0   0 # obsk
   1689    1   1 -1.050000    12.371615469     8.035226321    15.267157432   0   0   0 # obsk
   1690    1   1 -1.050000    15.278574074     4.510726321    12.980490766   0   0   0 # obsk
   1691    1   1 -1.050000    13.825094771     7.028226321     3.833824099   0   0   0 # obsk
   1692    1   1 -1.050000    12.371615469     9.545726321     8.407157432   0   0   0 # obsk
   1693    1   1 -1.050000    12.226267538     9.797476321    12.980490766   0   0   0 # obsk
   1694    1   1 -1.050000    15.133226144     4.762476321     3.833824099   0   0   0 # obsk
   1695    1   1 -1.050000    13.679746841     7.279976321     8.407157432   0   0   0 # obsk
   1696    1   1 -1.050000    13.534398911     7.028226321    12.980490766   0   0   0 # obsk
   1697    1   1 -1.050000    16.441357516     7.028226321     3.833824099   0   0   0 # obsk
   1698    1   1 -1.050000    14.987878213     9.545726321     8.407157432   0   0   0 # obsk
   1699    1   2  1.575000    12.226267538     6.272976321     7.561090766   0   0   0 # feok
   1700    1   2  1.575000    15.133226144     6.272976321    12.134424099   0   0   0 # feok
   1701    1   2  1.575000    13.679746841     8.790476321     2.987757432   0   0   0 # feok
   1702    1   2  1.575000    12.226267538     6.272976321     4.679890766   0   0   0 # feok
   1703    1   2  1.575000    15.133226144     6.272976321     9.253224099   0   0   0 # feok
   1704    1   2  1.575000    13.679746841     8.790476321    13.826557432   0   0   0 # feok
   1705    1   2  1.575000    12.226267538     6.272976321    11.539890766   0   0   0 # feok
   1706    1   2  1.575000    15.133226144     6.272976321    16.113224099   0   0   0 # feok
   1707    1   2  1.575000    13.679746841     8.790476321     6.966557432   0   0   0 # feok
   1708    1   2  1.575000    12.226267538     6.272976321    14.421090766   0   0   0 # feok
   1709    1   2  1.575000    15.133226144     6.272976321     5.274424099   0   0   0 # feok
   1710    1   2  1.575000    13.679746841     8.790476321     9.847757432   0   0   0 # feok
   1711    1   1 -1.050000    13.534398911     5.517726321    19.840490766   0   0   0 # obsk
   1712    1   1 -1.050000    16.441357516     5.517726321    24.413824099   0   0   0 # obsk
   1713    1   1 -1.050000    14.987878213     8.035226321    28.987157432   0   0   0 # obsk
   1714    1   1 -1.050000    12.226267538     7.783476321    19.840490766   0   0   0 # obsk
   1715    1   1 -1.050000    15.133226144     7.783476321    24.413824099   0   0   0 # obsk
   1716    1   1 -1.050000    13.679746841    10.300976321    28.987157432   0   0   0 # obsk
   1717    1   1 -1.050000    15.278574074     8.035226321    19.840490766   0   0   0 # obsk
   1718    1   1 -1.050000    13.825094771     5.517726321    24.413824099   0   0   0 # obsk
   1719    1   1 -1.050000    12.371615469     8.035226321    28.987157432   0   0   0 # obsk
   1720    1   1 -1.050000    15.278574074     4.510726321    26.700490766   0   0   0 # obsk
   1721    1   1 -1.050000    13.825094771     7.028226321    17.553824099   0   0   0 # obsk
   1722    1   1 -1.050000    12.371615469     9.545726321    22.127157432   0   0   0 # obsk
   1723    1   1 -1.050000    12.226267538     9.797476321    26.700490766   0   0   0 # obsk
   1724    1   1 -1.050000    15.133226144     4.762476321    17.553824099   0   0   0 # obsk
   1725    1   1 -1.050000    13.679746841     7.279976321    22.127157432   0   0   0 # obsk
   1726    1   1 -1.050000    13.534398911     7.028226321    26.700490766   0   0   0 # obsk
   1727    1   1 -1.050000    16.441357516     7.028226321    17.553824099   0   0   0 # obsk
   1728    1   1 -1.050000    14.987878213     9.545726321    22.127157432   0   0   0 # obsk
   1729    1   2  1.575000    12.226267538     6.272976321    21.281090766   0   0   0 # feok
   1730    1   2  1.575000    15.133226144     6.272976321    25.854424099   0   0   0 # feok
   1731    1   2  1.575000    13.679746841     8.790476321    16.707757432   0   0   0 # feok
   1732    1   2  1.575000    12.226267538     6.272976321    18.399890766   0   0   0 # feok
   1733    1   2  1.575000    15.133226144     6.272976321    22.973224099   0   0   0 # feok
   1734    1   2  1.575000    13.679746841     8.790476321    27.546557432   0   0   0 # feok
   1735    1   2  1.575000    12.226267538     6.272976321    25.259890766   0   0   0 # feok
   1736    1   2  1.575000    15.133226144     6.272976321    29.833224099   0   0   0 # feok
   1737    1   2  1.575000    13.679746841     8.790476321    20.686557432   0   0   0 # feok
   1738    1   2  1.575000    12.226267538     6.272976321    28.141090766   0   0   0 # feok
   1739    1   2  1.575000    15.133226144     6.272976321    18.994424099   0   0   0 # feok
   1740    1   2  1.575000    13.679746841     8.790476321    23.567757432   0   0   0 # feok
   1741    1   1 -1.050000    17.894836819     3.000226321     6.120490766   0   0   0 # obsk
   1742    1   1 -1.050000    20.801795424     3.000226321    10.693824099   0   0   0 # obsk
   1743    1   1 -1.050000    19.348316122     5.517726321    15.267157432   0   0   0 # obsk
   1744    1   1 -1.050000    16.586705446     5.265976321     6.120490766   0   0   0 # obsk
   1745    1   1 -1.050000    19.493664052     5.265976321    10.693824099   0   0   0 # obsk
   1746    1   1 -1.050000    18.040184749     7.783476321    15.267157432   0   0   0 # obsk
   1747    1   1 -1.050000    19.639011982     5.517726321     6.120490766   0   0   0 # obsk
   1748    1   1 -1.050000    18.185532679     3.000226321    10.693824099   0   0   0 # obsk
   1749    1   1 -1.050000    16.732053377     5.517726321    15.267157432   0   0   0 # obsk
   1750    1   1 -1.050000    19.639011982     1.993226321    12.980490766   0   0   0 # obsk
   1751    1   1 -1.050000    18.185532679     4.510726321     3.833824099   0   0   0 # obsk
   1752    1   1 -1.050000    16.732053377     7.028226321     8.407157432   0   0   0 # obsk
   1753    1   1 -1.050000    16.586705446     7.279976321    12.980490766   0   0   0 # obsk
   1754    1   1 -1.050000    19.493664052     2.244976321     3.833824099   0   0   0 # obsk
   1755    1   1 -1.050000    18.040184749     4.762476321     8.407157432   0   0   0 # obsk
   1756    1   1 -1.050000    17.894836819     4.510726321    12.980490766   0   0   0 # obsk
   1757    1   1 -1.050000    20.801795424     4.510726321     3.833824099   0   0   0 # obsk
   1758    1   1 -1.050000    19.348316122     7.028226321     8.407157432   0   0   0 # obsk
   1759    1   2  1.575000    16.586705446     3.755476321     7.561090766   0   0   0 # feok
   1760    1   2  1.575000    19.493664052     3.755476321    12.134424099   0   0   0 # feok
   1761    1   2  1.575000    18.040184749     6.272976321     2.987757432   0   0   0 # feok
   1762    1   2  1.575000    16.586705446     3.755476321     4.679890766   0   0   0 # feok
   1763    1   2  1.575000    19.493664052     3.755476321     9.253224099   0   0   0 # feok
   1764    1   2  1.575000    18.040184749     6.272976321    13.826557432   0   0   0 # feok
   1765    1   2  1.575000    16.586705446     3.755476321    11.539890766   0   0   0 # feok
   1766    1   2  1.575000    19.493664052     3.755476321    16.113224099   0   0   0 # feok
   1767    1   2  1.575000    18.040184749     6.272976321     6.966557432   0   0   0 # feok
   1768    1   2  1.575000    16.586705446     3.755476321    14.421090766   0   0   0 # feok
   1769    1   2  1.575000    19.493664052     3.755476321     5.274424099   0   0   0 # feok
   1770    1   2  1.575000    18.040184749     6.272976321     9.847757432   0   0   0 # feok
   1771    1   1 -1.050000    17.894836819     3.000226321    19.840490766   0   0   0 # obsk
   1772    1   1 -1.050000    20.801795424     3.000226321    24.413824099   0   0   0 # obsk
   1773    1   1 -1.050000    19.348316122     5.517726321    28.987157432   0   0   0 # obsk
   1774    1   1 -1.050000    16.586705446     5.265976321    19.840490766   0   0   0 # obsk
   1775    1   1 -1.050000    19.493664052     5.265976321    24.413824099   0   0   0 # obsk
   1776    1   1 -1.050000    18.040184749     7.783476321    28.987157432   0   0   0 # obsk
   1777    1   1 -1.050000    19.639011982     5.517726321    19.840490766   0   0   0 # obsk
   1778    1   1 -1.050000    18.185532679     3.000226321    24.413824099   0   0   0 # obsk
   1779    1   1 -1.050000    16.732053377     5.517726321    28.987157432   0   0   0 # obsk
   1780    1   1 -1.050000    19.639011982     1.993226321    26.700490766   0   0   0 # obsk
   1781    1   1 -1.050000    18.185532679     4.510726321    17.553824099   0   0   0 # obsk
   1782    1   1 -1.050000    16.732053377     7.028226321    22.127157432   0   0   0 # obsk
   1783    1   1 -1.050000    16.586705446     7.279976321    26.700490766   0   0   0 # obsk
   1784    1   1 -1.050000    19.493664052     2.244976321    17.553824099   0   0   0 # obsk
   1785    1   1 -1.050000    18.040184749     4.762476321    22.127157432   0   0   0 # obsk
   1786    1   1 -1.050000    17.894836819     4.510726321    26.700490766   0   0   0 # obsk
   1787    1   1 -1.050000    20.801795424     4.510726321    17.553824099   0   0   0 # obsk
   1788    1   1 -1.050000    19.348316122     7.028226321    22.127157432   0   0   0 # obsk
   1789    1   2  1.575000    16.586705446     3.755476321    21.281090766   0   0   0 # feok
   1790    1   2  1.575000    19.493664052     3.755476321    25.854424099   0   0   0 # feok
   1791    1   2  1.575000    18.040184749     6.272976321    16.707757432   0   0   0 # feok
   1792    1   2  1.575000    16.586705446     3.755476321    18.399890766   0   0   0 # feok
   1793    1   2  1.575000    19.493664052     3.755476321    22.973224099   0   0   0 # feok
   1794    1   2  1.575000    18.040184749     6.272976321    27.546557432   0   0   0 # feok
   1795    1   2  1.575000    16.586705446     3.755476321    25.259890766   0   0   0 # feok
   1796    1   2  1.575000    19.493664052     3.755476321    29.833224099   0   0   0 # feok
   1797    1   2  1.575000    18.040184749     6.272976321    20.686557432   0   0   0 # feok
   1798    1   2  1.575000    16.586705446     3.755476321    28.141090766   0   0   0 # feok
   1799    1   2  1.575000    19.493664052     3.755476321    18.994424099   0   0   0 # feok
   1800    1   2  1.575000    18.040184749     6.272976321    23.567757432   0   0   0 # feok
   1801    1   3 -1.029000    19.571607893    17.853476321    31.041818092   0   0   0 # ohk
   1802    1   3 -1.029000     6.490294169     5.265976321    31.041818092   0   0   0 # ohk
   1803    1   4  0.346000    20.382372438    17.796515866    31.635856811   0   0   0 # hoy
   1804    1   4  0.346000     5.482720728     5.300428030    31.119517083   0   0   0 # hoy

Bonds

     1   1   1801   1803
     2   1   1802   1804

Angles

     1   1   1076   1801   1803
     2   1   1256   1802   1804

