LAMMPS data file for hem-d1-unitcell

    128 atoms
   12 bonds
   24 angles
      0 dihedrals
      0 impropers

   4 atom types
   1 bond types
   1 angle types

     2.178352345    10.898952345 xlo xhi
    -0.435814931     4.599185069 ylo yhi
   -80.030143284   109.053856716 zlo zhi

Masses

   1  15.999400 # ohk
   2  55.847000 # feok
   3   1.007940 # hoy
   4  15.999400 # obsk

Pair Coeffs # lj/cut/coul/long

   1   0.1554000000   3.1655413253 # ohk
   2   0.0000090298   4.0722178483 # feok
   3   0.0000000000   0.0000000000 # hoy
   4   0.1554000000   3.1655413253 # obsk

Bond Coeffs # harmonic

   1   554.1348     1.0000 # ohk-hoy

Angle Coeffs # harmonic

   1    30.0000   109.4700 # feok-ohk-hoy

Atoms # full

      1      1   1 -0.950000     4.215089978     0.755250000     1.932070431   0   0   0 # ohk
      2      1   2  1.575000     2.906958605     0.000000000     3.372670431   0   0   0 # feok
      3      1   1 -0.950000     2.761610675     1.762250000    27.085403764   0   0   0 # ohk
      4      1   1 -0.950000     5.813917211     1.510500000    27.085403764   0   0   0 # ohk
      5      1   2  1.575000     5.813917211     0.000000000    25.644803764   0   0   0 # feok
      6      1   1 -0.950000     2.906958605     3.524500000     1.932070431   0   0   0 # ohk
      7      1   1 -0.950000     5.959265141     3.272750000     1.932070431   0   0   0 # ohk
      8      1   1 -0.950000     7.267396513     1.007000000     1.932070431   0   0   0 # ohk
      9      1   1 -0.950000     8.575527886     3.272750000     1.932070431   0   0   0 # ohk
     10      1   2  1.575000     4.360437908     2.517500000     2.778137098   0   0   0 # feok
     11      1   2  1.575000     7.267396513     2.517500000     3.372670431   0   0   0 # feok
     12      1   1 -0.950000     7.122048583     4.279750000    27.085403764   0   0   0 # ohk
     13      1   1 -0.950000     4.505785838     4.279750000    27.085403764   0   0   0 # ohk
     14      1   2  1.575000     4.360437908     2.517500000    26.239337098   0   0   0 # feok
     15      1   1 -0.950000    10.319703049     0.755250000     1.932070431   0   0   0 # ohk
     16      1   2  1.575000     8.720875816     0.000000000     2.778137098   0   0   0 # feok
     17      1   1 -0.950000    10.174355119     4.028000000    27.085403764   0   0   0 # ohk
     18      1   1 -0.950000     8.866223746     1.762250000    27.085403764   0   0   0 # ohk
     19      1   2  1.575000    10.174355119     2.517500000    25.644803764   0   0   0 # feok
     20      1   2  1.575000     8.720875816     0.000000000    26.239337098   0   0   0 # feok
     21      1   3  0.425000     4.127156608     0.755250000     1.200000048   0   0   0 # hoy
     22      1   3  0.425000     2.806781014     1.695698146    27.884026001   0   0   0 # hoy
     23      1   3  0.425000     5.859087550     1.443948146    27.884026001   0   0   0 # hoy
     24      1   3  0.425000     2.819025236     3.524500000     1.200000048   0   0   0 # hoy
     25      1   3  0.425000     5.871331771     3.272750000     1.200000048   0   0   0 # hoy
     26      1   3  0.425000     7.179463144     1.007000000     1.200000048   0   0   0 # hoy
     27      1   3  0.425000     8.487594516     3.272750000     1.200000048   0   0   0 # hoy
     28      1   3  0.425000     7.167218922     4.213198146    27.884026001   0   0   0 # hoy
     29      1   3  0.425000     4.550956178     4.213198146    27.884026001   0   0   0 # hoy
     30      1   3  0.425000    10.231769679     0.755250000     1.200000048   0   0   0 # hoy
     31      1   3  0.425000    10.219525458     3.961448146    27.884026001   0   0   0 # hoy
     32      1   3  0.425000     8.911394086     1.695698146    27.884026001   0   0   0 # hoy
     33      1   4 -1.050000     2.761610675     1.762250000    13.365403764   0   0   0 # obsk
     34      1   4 -1.050000     2.906958605     1.510500000     8.792070431   0   0   0 # obsk
     35      1   4 -1.050000     3.052306536     1.762250000     4.218737098   0   0   0 # obsk
     36      1   4 -1.050000     2.761610675     3.272750000     6.505403764   0   0   0 # obsk
     37      1   2  1.575000     2.906958605     0.000000000    10.232670431   0   0   0 # feok
     38      1   2  1.575000     2.906958605     0.000000000     7.351470431   0   0   0 # feok
     39      1   2  1.575000     2.906958605     0.000000000    14.211470431   0   0   0 # feok
     40      1   4 -1.050000     2.906958605     1.510500000    22.512070431   0   0   0 # obsk
     41      1   4 -1.050000     3.052306536     1.762250000    17.938737098   0   0   0 # obsk
     42      1   4 -1.050000     4.215089978     0.755250000    15.652070431   0   0   0 # obsk
     43      1   4 -1.050000     2.761610675     3.272750000    20.225403764   0   0   0 # obsk
     44      1   2  1.575000     2.906958605     0.000000000    23.952670431   0   0   0 # feok
     45      1   2  1.575000     2.906958605     0.000000000    21.071470431   0   0   0 # feok
     46      1   2  1.575000     2.906958605     0.000000000    17.092670431   0   0   0 # feok
     47      1   4 -1.050000     5.813917211     1.510500000    13.365403764   0   0   0 # obsk
     48      1   4 -1.050000     4.505785838     0.755250000     6.505403764   0   0   0 # obsk
     49      1   4 -1.050000     4.360437908     1.007000000    11.078737098   0   0   0 # obsk
     50      1   4 -1.050000     7.122048583     0.755250000     6.505403764   0   0   0 # obsk
     51      1   2  1.575000     5.813917211     0.000000000    11.924803764   0   0   0 # feok
     52      1   2  1.575000     5.813917211     0.000000000     5.064803764   0   0   0 # feok
     53      1   2  1.575000     5.813917211     0.000000000     7.946003764   0   0   0 # feok
     54      1   4 -1.050000     4.505785838     0.755250000    20.225403764   0   0   0 # obsk
     55      1   4 -1.050000     4.360437908     1.007000000    24.798737098   0   0   0 # obsk
     56      1   4 -1.050000     7.122048583     0.755250000    20.225403764   0   0   0 # obsk
     57      1   2  1.575000     5.813917211     0.000000000    14.806003764   0   0   0 # feok
     58      1   2  1.575000     5.813917211     0.000000000    18.784803764   0   0   0 # feok
     59      1   2  1.575000     5.813917211     0.000000000    21.666003764   0   0   0 # feok
     60      1   4 -1.050000     4.215089978     4.279750000     8.792070431   0   0   0 # obsk
     61      1   4 -1.050000     3.052306536     3.272750000    11.078737098   0   0   0 # obsk
     62      1   4 -1.050000     4.215089978     4.279750000    22.512070431   0   0   0 # obsk
     63      1   4 -1.050000     3.052306536     3.272750000    24.798737098   0   0   0 # obsk
     64      1   4 -1.050000     2.906958605     3.524500000    15.652070431   0   0   0 # obsk
     65      1   4 -1.050000     5.668569280     1.762250000     4.218737098   0   0   0 # obsk
     66      1   4 -1.050000     8.575527886     1.762250000     8.792070431   0   0   0 # obsk
     67      1   4 -1.050000     7.122048583     4.279750000    13.365403764   0   0   0 # obsk
     68      1   4 -1.050000     4.360437908     4.028000000     4.218737098   0   0   0 # obsk
     69      1   4 -1.050000     7.267396513     4.028000000     8.792070431   0   0   0 # obsk
     70      1   4 -1.050000     7.412744444     4.279750000     4.218737098   0   0   0 # obsk
     71      1   4 -1.050000     5.959265141     1.762250000     8.792070431   0   0   0 # obsk
     72      1   4 -1.050000     4.505785838     4.279750000    13.365403764   0   0   0 # obsk
     73      1   4 -1.050000     7.412744444     0.755250000    11.078737098   0   0   0 # obsk
     74      1   4 -1.050000     5.813917211     3.524500000     6.505403764   0   0   0 # obsk
     75      1   4 -1.050000     5.668569280     3.272750000    11.078737098   0   0   0 # obsk
     76      1   2  1.575000     4.360437908     2.517500000     5.659337098   0   0   0 # feok
     77      1   2  1.575000     7.267396513     2.517500000    10.232670431   0   0   0 # feok
     78      1   2  1.575000     7.267396513     2.517500000     7.351470431   0   0   0 # feok
     79      1   2  1.575000     4.360437908     2.517500000     9.638137098   0   0   0 # feok
     80      1   2  1.575000     7.267396513     2.517500000    14.211470431   0   0   0 # feok
     81      1   2  1.575000     4.360437908     2.517500000    12.519337098   0   0   0 # feok
     82      1   4 -1.050000     5.668569280     1.762250000    17.938737098   0   0   0 # obsk
     83      1   4 -1.050000     8.575527886     1.762250000    22.512070431   0   0   0 # obsk
     84      1   4 -1.050000     4.360437908     4.028000000    17.938737098   0   0   0 # obsk
     85      1   4 -1.050000     7.267396513     4.028000000    22.512070431   0   0   0 # obsk
     86      1   4 -1.050000     7.412744444     4.279750000    17.938737098   0   0   0 # obsk
     87      1   4 -1.050000     5.959265141     1.762250000    22.512070431   0   0   0 # obsk
     88      1   4 -1.050000     7.412744444     0.755250000    24.798737098   0   0   0 # obsk
     89      1   4 -1.050000     5.959265141     3.272750000    15.652070431   0   0   0 # obsk
     90      1   4 -1.050000     7.267396513     1.007000000    15.652070431   0   0   0 # obsk
     91      1   4 -1.050000     5.813917211     3.524500000    20.225403764   0   0   0 # obsk
     92      1   4 -1.050000     5.668569280     3.272750000    24.798737098   0   0   0 # obsk
     93      1   4 -1.050000     8.575527886     3.272750000    15.652070431   0   0   0 # obsk
     94      1   2  1.575000     4.360437908     2.517500000    19.379337098   0   0   0 # feok
     95      1   2  1.575000     7.267396513     2.517500000    23.952670431   0   0   0 # feok
     96      1   2  1.575000     4.360437908     2.517500000    16.498137098   0   0   0 # feok
     97      1   2  1.575000     7.267396513     2.517500000    21.071470431   0   0   0 # feok
     98      1   2  1.575000     4.360437908     2.517500000    23.358137098   0   0   0 # feok
     99      1   2  1.575000     7.267396513     2.517500000    17.092670431   0   0   0 # feok
    100      1   4 -1.050000     8.720875816     1.510500000     4.218737098   0   0   0 # obsk
    101      1   4 -1.050000    10.174355119     4.028000000    13.365403764   0   0   0 # obsk
    102      1   4 -1.050000     8.866223746     1.762250000    13.365403764   0   0   0 # obsk
    103      1   4 -1.050000     8.866223746     3.272750000     6.505403764   0   0   0 # obsk
    104      1   4 -1.050000     8.720875816     3.524500000    11.078737098   0   0   0 # obsk
    105      1   4 -1.050000    10.174355119     1.007000000     6.505403764   0   0   0 # obsk
    106      1   4 -1.050000    10.029007189     0.755250000    11.078737098   0   0   0 # obsk
    107      1   2  1.575000     8.720875816     0.000000000     5.659337098   0   0   0 # feok
    108      1   2  1.575000    10.174355119     2.517500000    11.924803764   0   0   0 # feok
    109      1   2  1.575000     8.720875816     0.000000000     9.638137098   0   0   0 # feok
    110      1   2  1.575000    10.174355119     2.517500000     5.064803764   0   0   0 # feok
    111      1   2  1.575000     8.720875816     0.000000000    12.519337098   0   0   0 # feok
    112      1   2  1.575000    10.174355119     2.517500000     7.946003764   0   0   0 # feok
    113      1   4 -1.050000     8.720875816     1.510500000    17.938737098   0   0   0 # obsk
    114      1   4 -1.050000    10.319703049     0.755250000    15.652070431   0   0   0 # obsk
    115      1   4 -1.050000     8.866223746     3.272750000    20.225403764   0   0   0 # obsk
    116      1   4 -1.050000     8.720875816     3.524500000    24.798737098   0   0   0 # obsk
    117      1   4 -1.050000    10.174355119     1.007000000    20.225403764   0   0   0 # obsk
    118      1   4 -1.050000    10.029007189     0.755250000    24.798737098   0   0   0 # obsk
    119      1   2  1.575000     8.720875816     0.000000000    19.379337098   0   0   0 # feok
    120      1   2  1.575000    10.174355119     2.517500000    14.806003764   0   0   0 # feok
    121      1   2  1.575000     8.720875816     0.000000000    16.498137098   0   0   0 # feok
    122      1   2  1.575000     8.720875816     0.000000000    23.358137098   0   0   0 # feok
    123      1   2  1.575000    10.174355119     2.517500000    18.784803764   0   0   0 # feok
    124      1   2  1.575000    10.174355119     2.517500000    21.666003764   0   0   0 # feok
    125      1   4 -1.050000    10.029007189     4.279750000     4.218737098   0   0   0 # obsk
    126      1   4 -1.050000    10.319703049     4.279750000     8.792070431   0   0   0 # obsk
    127      1   4 -1.050000    10.029007189     4.279750000    17.938737098   0   0   0 # obsk
    128      1   4 -1.050000    10.319703049     4.279750000    22.512070431   0   0   0 # obsk

Bonds

     1   1      1     21
     2   1      3     22
     3   1      4     23
     4   1      6     24
     5   1      7     25
     6   1      8     26
     7   1      9     27
     8   1     12     28
     9   1     13     29
    10   1     15     30
    11   1     17     31
    12   1     18     32

Angles

     1   1      2      1     21
     2   1     10      1     21
     3   1     14      3     22
     4   1     19      3     22
     5   1      5      4     23
     6   1     14      4     23
     7   1     10      6     24
     8   1      2      6     24
     9   1     10      7     25
    10   1     11      7     25
    11   1     16      8     26
    12   1     11      8     26
    13   1     11      9     27
    14   1     16      9     27
    15   1      5     12     28
    16   1     20     12     28
    17   1     14     13     29
    18   1      5     13     29
    19   1     16     15     30
    20   1      2     15     30
    21   1     19     17     31
    22   1     20     17     31
    23   1     20     18     32
    24   1     19     18     32
