LAMMPS data file for kao-SiO-surf

   2040 atoms
   480 bonds
   960 angles
      0 dihedrals
      0 impropers

   5 atom types
   1 bond types
   1 angle types

     0.147218160    25.917218160 xlo xhi
     0.203896709    27.029896709 ylo yhi
   -76.921813634   107.214486366 zlo zhi

Masses

   1  26.981540 # aoy
   2  28.085500 # sty
   3  15.999400 # oby
   4  15.999400 # ohy
   5   1.007940 # hoy

Pair Coeffs # lj/cut/coul/long

   1   0.0000013298   4.2712357233 # aoy
   2   0.0000018405   3.3020269922 # sty
   3   0.1554000000   3.1655413253 # oby
   4   0.1554000000   3.1655413253 # ohy
   5   0.0000000000   0.0000000000 # hoy

Bond Coeffs # harmonic

   1   554.1348     1.0000 # ohy-hoy

Angle Coeffs # harmonic

   1    30.0000   109.4700 # aoy-ohy-hoy

Atoms # full

      1      1   1  1.575000    25.090388309     4.401836405    25.159553019   0   0   0 # aoy
      2      1   1  1.575000    24.945893061     7.303633477    25.295086806   0   0   0 # aoy
      3      1   1  1.575000    22.384652079     8.801274934    25.159549084   0   0   0 # aoy
      4      1   1  1.575000    22.530559080     2.848365587    25.230887803   0   0   0 # aoy
      5      1   2  2.100000    25.805697056     3.107174125    28.112768900   0   0   0 # sty
      6      1   2  2.100000    25.745642157     5.791435618    27.898767961   0   0   0 # sty
      7      1   2  2.100000    23.349648892     7.501762690    27.970101936   0   0   0 # sty
      8      1   2  2.100000    23.260200549     1.602265940    28.034300789   0   0   0 # sty
      9      1   3 -1.050000    25.801796790     5.840381317    26.443561990   0   0   0 # oby
     10      1   3 -1.050000    25.538987103     4.370212200    28.704842786   0   0   0 # oby
     11      1   3 -1.050000    24.648527036     1.972073010    28.654907830   0   0   0 # oby
     12      1   3 -1.050000    24.731483950     6.875891611    28.761901171   0   0   0 # oby
     13      1   3 -1.050000    23.340178477     7.466842499    26.415029560   0   0   0 # oby
     14      1   3 -1.050000    23.082452722     1.329524178    26.322291550   0   0   0 # oby
     15      1   3 -1.050000    23.158123016    26.858639092    28.683436331   0  -1   0 # oby
     16      1   3 -1.050000    22.089877804     6.475647352    28.298235312   0   0   0 # oby
     17      1   3 -1.050000    22.037977696     2.347147387    28.640635702   0   0   0 # oby
     18      1   4 -0.950000     0.224243244     8.571291044    26.286620893   1   0   0 # ohy
     19      1   4 -0.950000    21.866436959     1.422807677    24.345466492   0   0   0 # ohy
     20      1   4 -0.950000    23.469005691     4.111191394    26.343688020   0   0   0 # ohy
     21      1   4 -0.950000    24.441595591     5.758535089    24.296411349   0   0   0 # ohy
     22      1   4 -0.950000    24.049293022     8.569692863    24.396278196   0   0   0 # ohy
     23      1   4 -0.950000    24.140225172     3.157883456    24.339217668   0   0   0 # ohy
     24      1   5  0.425000    25.397816025     9.502510418    26.058374710   0   0   0 # hoy
     25      1   5  0.425000    21.345596409     1.525685619    23.425254945   0   0   0 # hoy
     26      1   5  0.425000    22.933650719     4.874914093    26.714627477   0   0   0 # hoy
     27      1   5  0.425000    24.179324253     5.611037091    23.376208931   0   0   0 # hoy
     28      1   5  0.425000    24.327320880     8.606105104    23.361941771   0   0   0 # hoy
     29      1   5  0.425000    24.247219141     2.467345917    23.490346541   0   0   0 # hoy
     30      1   1  1.575000     1.224842000     4.103381129    18.034978799   0   0   0 # aoy
     31      1   1  1.575000     1.080346752     7.005178201    18.170512586   0   0   0 # aoy
     32      1   2  2.100000     1.940150747     2.808718849    20.988194680   0   0   0 # sty
     33      1   2  2.100000     1.880095848     5.492980342    20.774193741   0   0   0 # sty
     34      1   3 -1.050000     2.174686192     2.685329911    19.197720154   0   0   0 # oby
     35      1   3 -1.050000     1.936250481     5.541926041    19.318987770   0   0   0 # oby
     36      1   3 -1.050000     1.673440794     4.071756924    21.580268566   0   0   0 # oby
     37      1   3 -1.050000     0.782980727     1.673617734    21.530333610   0   0   0 # oby
     38      1   3 -1.050000     0.865937641     6.577436335    21.637326951   0   0   0 # oby
     39      1   4 -0.950000     2.128696935     8.272835768    19.162046673   0   0   0 # ohy
     40      1   4 -0.950000     2.611600824     3.717845567    17.214641797   0   0   0 # ohy
     41      1   4 -0.950000     2.740059192     7.094516428    17.114775085   0   0   0 # ohy
     42      1   4 -0.950000     0.576049282     5.460079813    17.171837129   0   0   0 # ohy
     43      1   4 -0.950000     0.274678863     2.859428180    17.214643448   0   0   0 # ohy
     44      1   5  0.425000     1.532269716     9.204055142    18.933800490   0   0   0 # hoy
     45      1   5  0.425000     3.123465632     4.234239975    16.358639589   0   0   0 # hoy
     46      1   5  0.425000     3.081381054     7.021710108    16.287297099   0   0   0 # hoy
     47      1   5  0.425000     0.313777944     5.312581815    16.251634711   0   0   0 # hoy
     48      1   5  0.425000     0.461774571     8.307649828    16.237367551   0   0   0 # hoy
     49      1   5  0.425000     0.381672832     2.168890641    16.365772321   0   0   0 # hoy
     50      1   1  1.575000    23.655212411     4.401836405    10.693491715   0   0   0 # aoy
     51      1   1  1.575000    23.510717163     7.303633477    10.829025502   0   0   0 # aoy
     52      1   1  1.575000    20.949476181     8.801274934    10.693487780   0   0   0 # aoy
     53      1   1  1.575000    21.095383182     2.848365587    10.764826499   0   0   0 # aoy
     54      1   2  2.100000    24.370521158     3.107174125    13.646707596   0   0   0 # sty
     55      1   2  2.100000    24.310466259     5.791435618    13.432706657   0   0   0 # sty
     56      1   2  2.100000    21.914472994     7.501762690    13.504040632   0   0   0 # sty
     57      1   2  2.100000    21.825024651     1.602265940    13.568239485   0   0   0 # sty
     58      1   3 -1.050000    24.366620892     5.840381317    11.977500686   0   0   0 # oby
     59      1   3 -1.050000    24.103811205     4.370212200    14.238781482   0   0   0 # oby
     60      1   3 -1.050000    23.213351138     1.972073010    14.188846526   0   0   0 # oby
     61      1   3 -1.050000    23.296308052     6.875891611    14.295839867   0   0   0 # oby
     62      1   3 -1.050000    21.905002579     7.466842499    11.948968256   0   0   0 # oby
     63      1   3 -1.050000    21.647276824     1.329524178    11.856230246   0   0   0 # oby
     64      1   3 -1.050000    21.722947118    26.858639092    14.217375027   0  -1   0 # oby
     65      1   3 -1.050000    20.654701906     6.475647352    13.832174008   0   0   0 # oby
     66      1   3 -1.050000    20.602801798     2.347147387    14.174574398   0   0   0 # oby
     67      1   4 -0.950000    24.559067346     8.571291044    11.820559589   0   0   0 # ohy
     68      1   4 -0.950000    20.431261061     1.422807677     9.879405188   0   0   0 # ohy
     69      1   4 -0.950000    22.033829793     4.111191394    11.877626716   0   0   0 # ohy
     70      1   4 -0.950000    23.006419693     5.758535089     9.830350045   0   0   0 # ohy
     71      1   4 -0.950000    22.614117124     8.569692863     9.930216892   0   0   0 # ohy
     72      1   4 -0.950000    22.705049274     3.157883456     9.873156364   0   0   0 # ohy
     73      1   5  0.425000    23.962640127     9.502510418    11.592313406   0   0   0 # hoy
     74      1   5  0.425000    19.910420511     1.525685619     8.959193641   0   0   0 # hoy
     75      1   5  0.425000    21.498474821     4.874914093    12.248566173   0   0   0 # hoy
     76      1   5  0.425000    22.744148355     5.611037091     8.910147627   0   0   0 # hoy
     77      1   5  0.425000    22.892144982     8.606105104     8.895880467   0   0   0 # hoy
     78      1   5  0.425000    22.812043243     2.467345917     9.024285237   0   0   0 # hoy
     79      1   1  1.575000    25.559666102     4.103381129     3.568917495   0   0   0 # aoy
     80      1   1  1.575000    25.415170854     7.005178201     3.704451282   0   0   0 # aoy
     81      1   2  2.100000     0.504974849     2.808718849     6.522133376   0   0   0 # sty
     82      1   2  2.100000     0.444919950     5.492980342     6.308132437   0   0   0 # sty
     83      1   3 -1.050000     0.739510294     2.685329911     4.731658850   0   0   0 # oby
     84      1   3 -1.050000     0.501074583     5.541926041     4.852926466   0   0   0 # oby
     85      1   3 -1.050000     0.238264896     4.071756924     7.114207262   1   0   0 # oby
     86      1   3 -1.050000    25.117804829     1.673617734     7.064272306   0   0   0 # oby
     87      1   3 -1.050000    25.200761743     6.577436335     7.171265647   0   0   0 # oby
     88      1   4 -0.950000     0.693521037     8.272835768     4.695985369   0   0   0 # ohy
     89      1   4 -0.950000     1.176424926     3.717845567     2.748580493   0   0   0 # ohy
     90      1   4 -0.950000     1.304883294     7.094516428     2.648713781   0   0   0 # ohy
     91      1   4 -0.950000    24.910873384     5.460079813     2.705775825   0   0   0 # ohy
     92      1   4 -0.950000    24.609502965     2.859428180     2.748582144   0   0   0 # ohy
     93      1   5  0.425000    25.867093818     9.204055142     4.467739186  -1   0   0 # hoy
     94      1   5  0.425000     1.688289734     4.234239975     1.892578285   0   0   0 # hoy
     95      1   5  0.425000     1.646205156     7.021710108     1.821235795   0   0   0 # hoy
     96      1   5  0.425000    24.648602046     5.312581815     1.785573407   0   0   0 # hoy
     97      1   5  0.425000    24.796598673     8.307649828     1.771306247   0   0   0 # hoy
     98      1   5  0.425000    24.716496934     2.168890641     1.899711017   0   0   0 # hoy
     99      1   1  1.575000    24.289105770     8.502819658    18.034974864   0   0   0 # aoy
    100      1   1  1.575000    24.435012771     2.549910311    18.106313583   0   0   0 # aoy
    101      1   2  2.100000    25.254102583     7.203307414    20.845527716   0   0   0 # sty
    102      1   2  2.100000    25.164654240     1.303810664    20.909726569   0   0   0 # sty
    103      1   3 -1.050000    25.244632168     7.168387223    19.290455340   0   0   0 # oby
    104      1   3 -1.050000    24.986906413     1.031068902    19.197717330   0   0   0 # oby
    105      1   3 -1.050000    23.994331495     6.177192076    21.173661092   0   0   0 # oby
    106      1   3 -1.050000    23.942431387     2.048692111    21.516061482   0   0   0 # oby
    107      1   4 -0.950000    23.770890650     1.124352401    17.220892272   0   0   0 # ohy
    108      1   4 -0.950000    25.373459382     3.812736118    19.219113800   0   0   0 # ohy
    109      1   4 -0.950000     0.183746713     8.271237587    17.271703976   0   0   0 # ohy
    110      1   5  0.425000    23.250050100     1.227230343    16.300680725   0   0   0 # hoy
    111      1   5  0.425000    24.838104410     4.576458817    19.590053257   0   0   0 # hoy
    112      1   1  1.575000    22.853929872     8.502819658     3.568913560   0   0   0 # aoy
    113      1   1  1.575000    22.999836873     2.549910311     3.640252279   0   0   0 # aoy
    114      1   2  2.100000    23.818926685     7.203307414     6.379466412   0   0   0 # sty
    115      1   2  2.100000    23.729478342     1.303810664     6.443665265   0   0   0 # sty
    116      1   3 -1.050000    23.809456270     7.168387223     4.824394036   0   0   0 # oby
    117      1   3 -1.050000    23.551730515     1.031068902     4.731656026   0   0   0 # oby
    118      1   3 -1.050000    22.559155597     6.177192076     6.707599788   0   0   0 # oby
    119      1   3 -1.050000    22.507255489     2.048692111     7.050000178   0   0   0 # oby
    120      1   4 -0.950000    22.335714752     1.124352401     2.754830968   0   0   0 # ohy
    121      1   4 -0.950000    23.938283484     3.812736118     4.753052496   0   0   0 # ohy
    122      1   4 -0.950000    24.518570815     8.271237587     2.805642672   0   0   0 # ohy
    123      1   5  0.425000    21.814874202     1.227230343     1.834619421   0   0   0 # hoy
    124      1   5  0.425000    23.402928512     4.576458817     5.123991953   0   0   0 # hoy
    125      1   3 -1.050000     0.270232501     2.983785187    26.322294374   0   0   0 # oby
    126      1   4 -0.950000     0.707147133     4.016300843    24.339216017   0   0   0 # ohy
    127      1   4 -0.950000     0.835605501     7.392971704    24.239349305   0   0   0 # ohy
    128      1   5  0.425000     1.219011941     4.532695251    23.483213809   0   0   0 # hoy
    129      1   5  0.425000     1.176927363     7.320165384    23.411871319   0   0   0 # hoy
    130      1   3 -1.050000    24.605056603     2.983785187    11.856233070   0   0   0 # oby
    131      1   4 -0.950000    25.041971235     4.016300843     9.873154713   0   0   0 # ohy
    132      1   4 -0.950000    25.170429603     7.392971704     9.773288001   0   0   0 # ohy
    133      1   5  0.425000    25.553836043     4.532695251     9.017152505   0   0   0 # hoy
    134      1   5  0.425000    25.511751465     7.320165384     8.945810015   0   0   0 # hoy
    135      1   1  1.575000    19.936388309     4.401836405    25.159553019   0   0   0 # aoy
    136      1   1  1.575000    19.791893061     7.303633477    25.295086806   0   0   0 # aoy
    137      1   1  1.575000    17.230652079     8.801274934    25.159549084   0   0   0 # aoy
    138      1   1  1.575000    17.376559080     2.848365587    25.230887803   0   0   0 # aoy
    139      1   2  2.100000    20.651697056     3.107174125    28.112768900   0   0   0 # sty
    140      1   2  2.100000    20.591642157     5.791435618    27.898767961   0   0   0 # sty
    141      1   2  2.100000    18.195648892     7.501762690    27.970101936   0   0   0 # sty
    142      1   2  2.100000    18.106200549     1.602265940    28.034300789   0   0   0 # sty
    143      1   3 -1.050000    20.886232501     2.983785187    26.322294374   0   0   0 # oby
    144      1   3 -1.050000    20.647796790     5.840381317    26.443561990   0   0   0 # oby
    145      1   3 -1.050000    20.384987103     4.370212200    28.704842786   0   0   0 # oby
    146      1   3 -1.050000    19.494527036     1.972073010    28.654907830   0   0   0 # oby
    147      1   3 -1.050000    19.577483950     6.875891611    28.761901171   0   0   0 # oby
    148      1   3 -1.050000    18.186178477     7.466842499    26.415029560   0   0   0 # oby
    149      1   3 -1.050000    17.928452722     1.329524178    26.322291550   0   0   0 # oby
    150      1   3 -1.050000    18.004123016    26.858639092    28.683436331   0  -1   0 # oby
    151      1   3 -1.050000    16.935877804     6.475647352    28.298235312   0   0   0 # oby
    152      1   3 -1.050000    16.883977696     2.347147387    28.640635702   0   0   0 # oby
    153      1   4 -0.950000    20.840243244     8.571291044    26.286620893   0   0   0 # ohy
    154      1   4 -0.950000    16.712436959     1.422807677    24.345466492   0   0   0 # ohy
    155      1   4 -0.950000    21.323147133     4.016300843    24.339216017   0   0   0 # ohy
    156      1   4 -0.950000    21.451605501     7.392971704    24.239349305   0   0   0 # ohy
    157      1   4 -0.950000    18.315005691     4.111191394    26.343688020   0   0   0 # ohy
    158      1   4 -0.950000    19.287595591     5.758535089    24.296411349   0   0   0 # ohy
    159      1   4 -0.950000    18.895293022     8.569692863    24.396278196   0   0   0 # ohy
    160      1   4 -0.950000    18.986225172     3.157883456    24.339217668   0   0   0 # ohy
    161      1   5  0.425000    20.243816025     9.502510418    26.058374710   0   0   0 # hoy
    162      1   5  0.425000    16.191596409     1.525685619    23.425254945   0   0   0 # hoy
    163      1   5  0.425000    21.835011941     4.532695251    23.483213809   0   0   0 # hoy
    164      1   5  0.425000    21.792927363     7.320165384    23.411871319   0   0   0 # hoy
    165      1   5  0.425000    17.779650719     4.874914093    26.714627477   0   0   0 # hoy
    166      1   5  0.425000    19.025324253     5.611037091    23.376208931   0   0   0 # hoy
    167      1   5  0.425000    19.173320880     8.606105104    23.361941771   0   0   0 # hoy
    168      1   5  0.425000    19.093219141     2.467345917    23.490346541   0   0   0 # hoy
    169      1   1  1.575000    21.840842000     4.103381129    18.034978799   0   0   0 # aoy
    170      1   1  1.575000    21.696346752     7.005178201    18.170512586   0   0   0 # aoy
    171      1   1  1.575000    19.135105770     8.502819658    18.034974864   0   0   0 # aoy
    172      1   1  1.575000    19.281012771     2.549910311    18.106313583   0   0   0 # aoy
    173      1   2  2.100000    22.556150747     2.808718849    20.988194680   0   0   0 # sty
    174      1   2  2.100000    22.496095848     5.492980342    20.774193741   0   0   0 # sty
    175      1   2  2.100000    20.100102583     7.203307414    20.845527716   0   0   0 # sty
    176      1   2  2.100000    20.010654240     1.303810664    20.909726569   0   0   0 # sty
    177      1   3 -1.050000    22.790686192     2.685329911    19.197720154   0   0   0 # oby
    178      1   3 -1.050000    22.552250481     5.541926041    19.318987770   0   0   0 # oby
    179      1   3 -1.050000    22.289440794     4.071756924    21.580268566   0   0   0 # oby
    180      1   3 -1.050000    21.398980727     1.673617734    21.530333610   0   0   0 # oby
    181      1   3 -1.050000    21.481937641     6.577436335    21.637326951   0   0   0 # oby
    182      1   3 -1.050000    20.090632168     7.168387223    19.290455340   0   0   0 # oby
    183      1   3 -1.050000    19.832906413     1.031068902    19.197717330   0   0   0 # oby
    184      1   3 -1.050000    18.840331495     6.177192076    21.173661092   0   0   0 # oby
    185      1   3 -1.050000    18.788431387     2.048692111    21.516061482   0   0   0 # oby
    186      1   4 -0.950000    22.744696935     8.272835768    19.162046673   0   0   0 # ohy
    187      1   4 -0.950000    18.616890650     1.124352401    17.220892272   0   0   0 # ohy
    188      1   4 -0.950000    23.227600824     3.717845567    17.214641797   0   0   0 # ohy
    189      1   4 -0.950000    23.356059192     7.094516428    17.114775085   0   0   0 # ohy
    190      1   4 -0.950000    20.219459382     3.812736118    19.219113800   0   0   0 # ohy
    191      1   4 -0.950000    21.192049282     5.460079813    17.171837129   0   0   0 # ohy
    192      1   4 -0.950000    20.799746713     8.271237587    17.271703976   0   0   0 # ohy
    193      1   4 -0.950000    20.890678863     2.859428180    17.214643448   0   0   0 # ohy
    194      1   5  0.425000    22.148269716     9.204055142    18.933800490   0   0   0 # hoy
    195      1   5  0.425000    18.096050100     1.227230343    16.300680725   0   0   0 # hoy
    196      1   5  0.425000    23.739465632     4.234239975    16.358639589   0   0   0 # hoy
    197      1   5  0.425000    23.697381054     7.021710108    16.287297099   0   0   0 # hoy
    198      1   5  0.425000    19.684104410     4.576458817    19.590053257   0   0   0 # hoy
    199      1   5  0.425000    20.929777944     5.312581815    16.251634711   0   0   0 # hoy
    200      1   5  0.425000    21.077774571     8.307649828    16.237367551   0   0   0 # hoy
    201      1   5  0.425000    20.997672832     2.168890641    16.365772321   0   0   0 # hoy
    202      1   1  1.575000    18.501212411     4.401836405    10.693491715   0   0   0 # aoy
    203      1   1  1.575000    18.356717163     7.303633477    10.829025502   0   0   0 # aoy
    204      1   1  1.575000    15.795476181     8.801274934    10.693487780   0   0   0 # aoy
    205      1   1  1.575000    15.941383182     2.848365587    10.764826499   0   0   0 # aoy
    206      1   2  2.100000    19.216521158     3.107174125    13.646707596   0   0   0 # sty
    207      1   2  2.100000    19.156466259     5.791435618    13.432706657   0   0   0 # sty
    208      1   2  2.100000    16.760472994     7.501762690    13.504040632   0   0   0 # sty
    209      1   2  2.100000    16.671024651     1.602265940    13.568239485   0   0   0 # sty
    210      1   3 -1.050000    19.451056603     2.983785187    11.856233070   0   0   0 # oby
    211      1   3 -1.050000    19.212620892     5.840381317    11.977500686   0   0   0 # oby
    212      1   3 -1.050000    18.949811205     4.370212200    14.238781482   0   0   0 # oby
    213      1   3 -1.050000    18.059351138     1.972073010    14.188846526   0   0   0 # oby
    214      1   3 -1.050000    18.142308052     6.875891611    14.295839867   0   0   0 # oby
    215      1   3 -1.050000    16.751002579     7.466842499    11.948968256   0   0   0 # oby
    216      1   3 -1.050000    16.493276824     1.329524178    11.856230246   0   0   0 # oby
    217      1   3 -1.050000    16.568947118    26.858639092    14.217375027   0  -1   0 # oby
    218      1   3 -1.050000    15.500701906     6.475647352    13.832174008   0   0   0 # oby
    219      1   3 -1.050000    15.448801798     2.347147387    14.174574398   0   0   0 # oby
    220      1   4 -0.950000    19.405067346     8.571291044    11.820559589   0   0   0 # ohy
    221      1   4 -0.950000    15.277261061     1.422807677     9.879405188   0   0   0 # ohy
    222      1   4 -0.950000    19.887971235     4.016300843     9.873154713   0   0   0 # ohy
    223      1   4 -0.950000    20.016429603     7.392971704     9.773288001   0   0   0 # ohy
    224      1   4 -0.950000    16.879829793     4.111191394    11.877626716   0   0   0 # ohy
    225      1   4 -0.950000    17.852419693     5.758535089     9.830350045   0   0   0 # ohy
    226      1   4 -0.950000    17.460117124     8.569692863     9.930216892   0   0   0 # ohy
    227      1   4 -0.950000    17.551049274     3.157883456     9.873156364   0   0   0 # ohy
    228      1   5  0.425000    18.808640127     9.502510418    11.592313406   0   0   0 # hoy
    229      1   5  0.425000    14.756420511     1.525685619     8.959193641   0   0   0 # hoy
    230      1   5  0.425000    20.399836043     4.532695251     9.017152505   0   0   0 # hoy
    231      1   5  0.425000    20.357751465     7.320165384     8.945810015   0   0   0 # hoy
    232      1   5  0.425000    16.344474821     4.874914093    12.248566173   0   0   0 # hoy
    233      1   5  0.425000    17.590148355     5.611037091     8.910147627   0   0   0 # hoy
    234      1   5  0.425000    17.738144982     8.606105104     8.895880467   0   0   0 # hoy
    235      1   5  0.425000    17.658043243     2.467345917     9.024285237   0   0   0 # hoy
    236      1   1  1.575000    20.405666102     4.103381129     3.568917495   0   0   0 # aoy
    237      1   1  1.575000    20.261170854     7.005178201     3.704451282   0   0   0 # aoy
    238      1   1  1.575000    17.699929872     8.502819658     3.568913560   0   0   0 # aoy
    239      1   1  1.575000    17.845836873     2.549910311     3.640252279   0   0   0 # aoy
    240      1   2  2.100000    21.120974849     2.808718849     6.522133376   0   0   0 # sty
    241      1   2  2.100000    21.060919950     5.492980342     6.308132437   0   0   0 # sty
    242      1   2  2.100000    18.664926685     7.203307414     6.379466412   0   0   0 # sty
    243      1   2  2.100000    18.575478342     1.303810664     6.443665265   0   0   0 # sty
    244      1   3 -1.050000    21.355510294     2.685329911     4.731658850   0   0   0 # oby
    245      1   3 -1.050000    21.117074583     5.541926041     4.852926466   0   0   0 # oby
    246      1   3 -1.050000    20.854264896     4.071756924     7.114207262   0   0   0 # oby
    247      1   3 -1.050000    19.963804829     1.673617734     7.064272306   0   0   0 # oby
    248      1   3 -1.050000    20.046761743     6.577436335     7.171265647   0   0   0 # oby
    249      1   3 -1.050000    18.655456270     7.168387223     4.824394036   0   0   0 # oby
    250      1   3 -1.050000    18.397730515     1.031068902     4.731656026   0   0   0 # oby
    251      1   3 -1.050000    17.405155597     6.177192076     6.707599788   0   0   0 # oby
    252      1   3 -1.050000    17.353255489     2.048692111     7.050000178   0   0   0 # oby
    253      1   4 -0.950000    21.309521037     8.272835768     4.695985369   0   0   0 # ohy
    254      1   4 -0.950000    17.181714752     1.124352401     2.754830968   0   0   0 # ohy
    255      1   4 -0.950000    21.792424926     3.717845567     2.748580493   0   0   0 # ohy
    256      1   4 -0.950000    21.920883294     7.094516428     2.648713781   0   0   0 # ohy
    257      1   4 -0.950000    18.784283484     3.812736118     4.753052496   0   0   0 # ohy
    258      1   4 -0.950000    19.756873384     5.460079813     2.705775825   0   0   0 # ohy
    259      1   4 -0.950000    19.364570815     8.271237587     2.805642672   0   0   0 # ohy
    260      1   4 -0.950000    19.455502965     2.859428180     2.748582144   0   0   0 # ohy
    261      1   5  0.425000    20.713093818     9.204055142     4.467739186   0   0   0 # hoy
    262      1   5  0.425000    16.660874202     1.227230343     1.834619421   0   0   0 # hoy
    263      1   5  0.425000    22.304289734     4.234239975     1.892578285   0   0   0 # hoy
    264      1   5  0.425000    22.262205156     7.021710108     1.821235795   0   0   0 # hoy
    265      1   5  0.425000    18.248928512     4.576458817     5.123991953   0   0   0 # hoy
    266      1   5  0.425000    19.494602046     5.312581815     1.785573407   0   0   0 # hoy
    267      1   5  0.425000    19.642598673     8.307649828     1.771306247   0   0   0 # hoy
    268      1   5  0.425000    19.562496934     2.168890641     1.899711017   0   0   0 # hoy
    269      1   1  1.575000    14.782388309     4.401836405    25.159553019   0   0   0 # aoy
    270      1   1  1.575000    14.637893061     7.303633477    25.295086806   0   0   0 # aoy
    271      1   1  1.575000    12.076652079     8.801274934    25.159549084   0   0   0 # aoy
    272      1   1  1.575000    12.222559080     2.848365587    25.230887803   0   0   0 # aoy
    273      1   2  2.100000    15.497697056     3.107174125    28.112768900   0   0   0 # sty
    274      1   2  2.100000    15.437642157     5.791435618    27.898767961   0   0   0 # sty
    275      1   2  2.100000    13.041648892     7.501762690    27.970101936   0   0   0 # sty
    276      1   2  2.100000    12.952200549     1.602265940    28.034300789   0   0   0 # sty
    277      1   3 -1.050000    15.732232501     2.983785187    26.322294374   0   0   0 # oby
    278      1   3 -1.050000    15.493796790     5.840381317    26.443561990   0   0   0 # oby
    279      1   3 -1.050000    15.230987103     4.370212200    28.704842786   0   0   0 # oby
    280      1   3 -1.050000    14.340527036     1.972073010    28.654907830   0   0   0 # oby
    281      1   3 -1.050000    14.423483950     6.875891611    28.761901171   0   0   0 # oby
    282      1   3 -1.050000    13.032178477     7.466842499    26.415029560   0   0   0 # oby
    283      1   3 -1.050000    12.774452722     1.329524178    26.322291550   0   0   0 # oby
    284      1   3 -1.050000    12.850123016    26.858639092    28.683436331   0  -1   0 # oby
    285      1   3 -1.050000    11.781877804     6.475647352    28.298235312   0   0   0 # oby
    286      1   3 -1.050000    11.729977696     2.347147387    28.640635702   0   0   0 # oby
    287      1   4 -0.950000    15.686243244     8.571291044    26.286620893   0   0   0 # ohy
    288      1   4 -0.950000    11.558436959     1.422807677    24.345466492   0   0   0 # ohy
    289      1   4 -0.950000    16.169147133     4.016300843    24.339216017   0   0   0 # ohy
    290      1   4 -0.950000    16.297605501     7.392971704    24.239349305   0   0   0 # ohy
    291      1   4 -0.950000    13.161005691     4.111191394    26.343688020   0   0   0 # ohy
    292      1   4 -0.950000    14.133595591     5.758535089    24.296411349   0   0   0 # ohy
    293      1   4 -0.950000    13.741293022     8.569692863    24.396278196   0   0   0 # ohy
    294      1   4 -0.950000    13.832225172     3.157883456    24.339217668   0   0   0 # ohy
    295      1   5  0.425000    15.089816025     9.502510418    26.058374710   0   0   0 # hoy
    296      1   5  0.425000    11.037596409     1.525685619    23.425254945   0   0   0 # hoy
    297      1   5  0.425000    16.681011941     4.532695251    23.483213809   0   0   0 # hoy
    298      1   5  0.425000    16.638927363     7.320165384    23.411871319   0   0   0 # hoy
    299      1   5  0.425000    12.625650719     4.874914093    26.714627477   0   0   0 # hoy
    300      1   5  0.425000    13.871324253     5.611037091    23.376208931   0   0   0 # hoy
    301      1   5  0.425000    14.019320880     8.606105104    23.361941771   0   0   0 # hoy
    302      1   5  0.425000    13.939219141     2.467345917    23.490346541   0   0   0 # hoy
    303      1   1  1.575000    16.686842000     4.103381129    18.034978799   0   0   0 # aoy
    304      1   1  1.575000    16.542346752     7.005178201    18.170512586   0   0   0 # aoy
    305      1   1  1.575000    13.981105770     8.502819658    18.034974864   0   0   0 # aoy
    306      1   1  1.575000    14.127012771     2.549910311    18.106313583   0   0   0 # aoy
    307      1   2  2.100000    17.402150747     2.808718849    20.988194680   0   0   0 # sty
    308      1   2  2.100000    17.342095848     5.492980342    20.774193741   0   0   0 # sty
    309      1   2  2.100000    14.946102583     7.203307414    20.845527716   0   0   0 # sty
    310      1   2  2.100000    14.856654240     1.303810664    20.909726569   0   0   0 # sty
    311      1   3 -1.050000    17.636686192     2.685329911    19.197720154   0   0   0 # oby
    312      1   3 -1.050000    17.398250481     5.541926041    19.318987770   0   0   0 # oby
    313      1   3 -1.050000    17.135440794     4.071756924    21.580268566   0   0   0 # oby
    314      1   3 -1.050000    16.244980727     1.673617734    21.530333610   0   0   0 # oby
    315      1   3 -1.050000    16.327937641     6.577436335    21.637326951   0   0   0 # oby
    316      1   3 -1.050000    14.936632168     7.168387223    19.290455340   0   0   0 # oby
    317      1   3 -1.050000    14.678906413     1.031068902    19.197717330   0   0   0 # oby
    318      1   3 -1.050000    13.686331495     6.177192076    21.173661092   0   0   0 # oby
    319      1   3 -1.050000    13.634431387     2.048692111    21.516061482   0   0   0 # oby
    320      1   4 -0.950000    17.590696935     8.272835768    19.162046673   0   0   0 # ohy
    321      1   4 -0.950000    13.462890650     1.124352401    17.220892272   0   0   0 # ohy
    322      1   4 -0.950000    18.073600824     3.717845567    17.214641797   0   0   0 # ohy
    323      1   4 -0.950000    18.202059192     7.094516428    17.114775085   0   0   0 # ohy
    324      1   4 -0.950000    15.065459382     3.812736118    19.219113800   0   0   0 # ohy
    325      1   4 -0.950000    16.038049282     5.460079813    17.171837129   0   0   0 # ohy
    326      1   4 -0.950000    15.645746713     8.271237587    17.271703976   0   0   0 # ohy
    327      1   4 -0.950000    15.736678863     2.859428180    17.214643448   0   0   0 # ohy
    328      1   5  0.425000    16.994269716     9.204055142    18.933800490   0   0   0 # hoy
    329      1   5  0.425000    12.942050100     1.227230343    16.300680725   0   0   0 # hoy
    330      1   5  0.425000    18.585465632     4.234239975    16.358639589   0   0   0 # hoy
    331      1   5  0.425000    18.543381054     7.021710108    16.287297099   0   0   0 # hoy
    332      1   5  0.425000    14.530104410     4.576458817    19.590053257   0   0   0 # hoy
    333      1   5  0.425000    15.775777944     5.312581815    16.251634711   0   0   0 # hoy
    334      1   5  0.425000    15.923774571     8.307649828    16.237367551   0   0   0 # hoy
    335      1   5  0.425000    15.843672832     2.168890641    16.365772321   0   0   0 # hoy
    336      1   1  1.575000    13.347212411     4.401836405    10.693491715   0   0   0 # aoy
    337      1   1  1.575000    13.202717163     7.303633477    10.829025502   0   0   0 # aoy
    338      1   1  1.575000    10.641476181     8.801274934    10.693487780   0   0   0 # aoy
    339      1   1  1.575000    10.787383182     2.848365587    10.764826499   0   0   0 # aoy
    340      1   2  2.100000    14.062521158     3.107174125    13.646707596   0   0   0 # sty
    341      1   2  2.100000    14.002466259     5.791435618    13.432706657   0   0   0 # sty
    342      1   2  2.100000    11.606472994     7.501762690    13.504040632   0   0   0 # sty
    343      1   2  2.100000    11.517024651     1.602265940    13.568239485   0   0   0 # sty
    344      1   3 -1.050000    14.297056603     2.983785187    11.856233070   0   0   0 # oby
    345      1   3 -1.050000    14.058620892     5.840381317    11.977500686   0   0   0 # oby
    346      1   3 -1.050000    13.795811205     4.370212200    14.238781482   0   0   0 # oby
    347      1   3 -1.050000    12.905351138     1.972073010    14.188846526   0   0   0 # oby
    348      1   3 -1.050000    12.988308052     6.875891611    14.295839867   0   0   0 # oby
    349      1   3 -1.050000    11.597002579     7.466842499    11.948968256   0   0   0 # oby
    350      1   3 -1.050000    11.339276824     1.329524178    11.856230246   0   0   0 # oby
    351      1   3 -1.050000    11.414947118    26.858639092    14.217375027   0  -1   0 # oby
    352      1   3 -1.050000    10.346701906     6.475647352    13.832174008   0   0   0 # oby
    353      1   3 -1.050000    10.294801798     2.347147387    14.174574398   0   0   0 # oby
    354      1   4 -0.950000    14.251067346     8.571291044    11.820559589   0   0   0 # ohy
    355      1   4 -0.950000    10.123261061     1.422807677     9.879405188   0   0   0 # ohy
    356      1   4 -0.950000    14.733971235     4.016300843     9.873154713   0   0   0 # ohy
    357      1   4 -0.950000    14.862429603     7.392971704     9.773288001   0   0   0 # ohy
    358      1   4 -0.950000    11.725829793     4.111191394    11.877626716   0   0   0 # ohy
    359      1   4 -0.950000    12.698419693     5.758535089     9.830350045   0   0   0 # ohy
    360      1   4 -0.950000    12.306117124     8.569692863     9.930216892   0   0   0 # ohy
    361      1   4 -0.950000    12.397049274     3.157883456     9.873156364   0   0   0 # ohy
    362      1   5  0.425000    13.654640127     9.502510418    11.592313406   0   0   0 # hoy
    363      1   5  0.425000     9.602420511     1.525685619     8.959193641   0   0   0 # hoy
    364      1   5  0.425000    15.245836043     4.532695251     9.017152505   0   0   0 # hoy
    365      1   5  0.425000    15.203751465     7.320165384     8.945810015   0   0   0 # hoy
    366      1   5  0.425000    11.190474821     4.874914093    12.248566173   0   0   0 # hoy
    367      1   5  0.425000    12.436148355     5.611037091     8.910147627   0   0   0 # hoy
    368      1   5  0.425000    12.584144982     8.606105104     8.895880467   0   0   0 # hoy
    369      1   5  0.425000    12.504043243     2.467345917     9.024285237   0   0   0 # hoy
    370      1   1  1.575000    15.251666102     4.103381129     3.568917495   0   0   0 # aoy
    371      1   1  1.575000    15.107170854     7.005178201     3.704451282   0   0   0 # aoy
    372      1   1  1.575000    12.545929872     8.502819658     3.568913560   0   0   0 # aoy
    373      1   1  1.575000    12.691836873     2.549910311     3.640252279   0   0   0 # aoy
    374      1   2  2.100000    15.966974849     2.808718849     6.522133376   0   0   0 # sty
    375      1   2  2.100000    15.906919950     5.492980342     6.308132437   0   0   0 # sty
    376      1   2  2.100000    13.510926685     7.203307414     6.379466412   0   0   0 # sty
    377      1   2  2.100000    13.421478342     1.303810664     6.443665265   0   0   0 # sty
    378      1   3 -1.050000    16.201510294     2.685329911     4.731658850   0   0   0 # oby
    379      1   3 -1.050000    15.963074583     5.541926041     4.852926466   0   0   0 # oby
    380      1   3 -1.050000    15.700264896     4.071756924     7.114207262   0   0   0 # oby
    381      1   3 -1.050000    14.809804829     1.673617734     7.064272306   0   0   0 # oby
    382      1   3 -1.050000    14.892761743     6.577436335     7.171265647   0   0   0 # oby
    383      1   3 -1.050000    13.501456270     7.168387223     4.824394036   0   0   0 # oby
    384      1   3 -1.050000    13.243730515     1.031068902     4.731656026   0   0   0 # oby
    385      1   3 -1.050000    12.251155597     6.177192076     6.707599788   0   0   0 # oby
    386      1   3 -1.050000    12.199255489     2.048692111     7.050000178   0   0   0 # oby
    387      1   4 -0.950000    16.155521037     8.272835768     4.695985369   0   0   0 # ohy
    388      1   4 -0.950000    12.027714752     1.124352401     2.754830968   0   0   0 # ohy
    389      1   4 -0.950000    16.638424926     3.717845567     2.748580493   0   0   0 # ohy
    390      1   4 -0.950000    16.766883294     7.094516428     2.648713781   0   0   0 # ohy
    391      1   4 -0.950000    13.630283484     3.812736118     4.753052496   0   0   0 # ohy
    392      1   4 -0.950000    14.602873384     5.460079813     2.705775825   0   0   0 # ohy
    393      1   4 -0.950000    14.210570815     8.271237587     2.805642672   0   0   0 # ohy
    394      1   4 -0.950000    14.301502965     2.859428180     2.748582144   0   0   0 # ohy
    395      1   5  0.425000    15.559093818     9.204055142     4.467739186   0   0   0 # hoy
    396      1   5  0.425000    11.506874202     1.227230343     1.834619421   0   0   0 # hoy
    397      1   5  0.425000    17.150289734     4.234239975     1.892578285   0   0   0 # hoy
    398      1   5  0.425000    17.108205156     7.021710108     1.821235795   0   0   0 # hoy
    399      1   5  0.425000    13.094928512     4.576458817     5.123991953   0   0   0 # hoy
    400      1   5  0.425000    14.340602046     5.312581815     1.785573407   0   0   0 # hoy
    401      1   5  0.425000    14.488598673     8.307649828     1.771306247   0   0   0 # hoy
    402      1   5  0.425000    14.408496934     2.168890641     1.899711017   0   0   0 # hoy
    403      1   1  1.575000     9.628388309     4.401836405    25.159553019   0   0   0 # aoy
    404      1   1  1.575000     9.483893061     7.303633477    25.295086806   0   0   0 # aoy
    405      1   1  1.575000     6.922652079     8.801274934    25.159549084   0   0   0 # aoy
    406      1   1  1.575000     7.068559080     2.848365587    25.230887803   0   0   0 # aoy
    407      1   2  2.100000    10.343697056     3.107174125    28.112768900   0   0   0 # sty
    408      1   2  2.100000    10.283642157     5.791435618    27.898767961   0   0   0 # sty
    409      1   2  2.100000     7.887648892     7.501762690    27.970101936   0   0   0 # sty
    410      1   2  2.100000     7.798200549     1.602265940    28.034300789   0   0   0 # sty
    411      1   3 -1.050000    10.578232501     2.983785187    26.322294374   0   0   0 # oby
    412      1   3 -1.050000    10.339796790     5.840381317    26.443561990   0   0   0 # oby
    413      1   3 -1.050000    10.076987103     4.370212200    28.704842786   0   0   0 # oby
    414      1   3 -1.050000     9.186527036     1.972073010    28.654907830   0   0   0 # oby
    415      1   3 -1.050000     9.269483950     6.875891611    28.761901171   0   0   0 # oby
    416      1   3 -1.050000     7.878178477     7.466842499    26.415029560   0   0   0 # oby
    417      1   3 -1.050000     7.620452722     1.329524178    26.322291550   0   0   0 # oby
    418      1   3 -1.050000     7.696123016    26.858639092    28.683436331   0  -1   0 # oby
    419      1   3 -1.050000     6.627877804     6.475647352    28.298235312   0   0   0 # oby
    420      1   3 -1.050000     6.575977696     2.347147387    28.640635702   0   0   0 # oby
    421      1   4 -0.950000    10.532243244     8.571291044    26.286620893   0   0   0 # ohy
    422      1   4 -0.950000     6.404436959     1.422807677    24.345466492   0   0   0 # ohy
    423      1   4 -0.950000    11.015147133     4.016300843    24.339216017   0   0   0 # ohy
    424      1   4 -0.950000    11.143605501     7.392971704    24.239349305   0   0   0 # ohy
    425      1   4 -0.950000     8.007005691     4.111191394    26.343688020   0   0   0 # ohy
    426      1   4 -0.950000     8.979595591     5.758535089    24.296411349   0   0   0 # ohy
    427      1   4 -0.950000     8.587293022     8.569692863    24.396278196   0   0   0 # ohy
    428      1   4 -0.950000     8.678225172     3.157883456    24.339217668   0   0   0 # ohy
    429      1   5  0.425000     9.935816025     9.502510418    26.058374710   0   0   0 # hoy
    430      1   5  0.425000     5.883596409     1.525685619    23.425254945   0   0   0 # hoy
    431      1   5  0.425000    11.527011941     4.532695251    23.483213809   0   0   0 # hoy
    432      1   5  0.425000    11.484927363     7.320165384    23.411871319   0   0   0 # hoy
    433      1   5  0.425000     7.471650719     4.874914093    26.714627477   0   0   0 # hoy
    434      1   5  0.425000     8.717324253     5.611037091    23.376208931   0   0   0 # hoy
    435      1   5  0.425000     8.865320880     8.606105104    23.361941771   0   0   0 # hoy
    436      1   5  0.425000     8.785219141     2.467345917    23.490346541   0   0   0 # hoy
    437      1   1  1.575000    11.532842000     4.103381129    18.034978799   0   0   0 # aoy
    438      1   1  1.575000    11.388346752     7.005178201    18.170512586   0   0   0 # aoy
    439      1   1  1.575000     8.827105770     8.502819658    18.034974864   0   0   0 # aoy
    440      1   1  1.575000     8.973012771     2.549910311    18.106313583   0   0   0 # aoy
    441      1   2  2.100000    12.248150747     2.808718849    20.988194680   0   0   0 # sty
    442      1   2  2.100000    12.188095848     5.492980342    20.774193741   0   0   0 # sty
    443      1   2  2.100000     9.792102583     7.203307414    20.845527716   0   0   0 # sty
    444      1   2  2.100000     9.702654240     1.303810664    20.909726569   0   0   0 # sty
    445      1   3 -1.050000    12.482686192     2.685329911    19.197720154   0   0   0 # oby
    446      1   3 -1.050000    12.244250481     5.541926041    19.318987770   0   0   0 # oby
    447      1   3 -1.050000    11.981440794     4.071756924    21.580268566   0   0   0 # oby
    448      1   3 -1.050000    11.090980727     1.673617734    21.530333610   0   0   0 # oby
    449      1   3 -1.050000    11.173937641     6.577436335    21.637326951   0   0   0 # oby
    450      1   3 -1.050000     9.782632168     7.168387223    19.290455340   0   0   0 # oby
    451      1   3 -1.050000     9.524906413     1.031068902    19.197717330   0   0   0 # oby
    452      1   3 -1.050000     8.532331495     6.177192076    21.173661092   0   0   0 # oby
    453      1   3 -1.050000     8.480431387     2.048692111    21.516061482   0   0   0 # oby
    454      1   4 -0.950000    12.436696935     8.272835768    19.162046673   0   0   0 # ohy
    455      1   4 -0.950000     8.308890650     1.124352401    17.220892272   0   0   0 # ohy
    456      1   4 -0.950000    12.919600824     3.717845567    17.214641797   0   0   0 # ohy
    457      1   4 -0.950000    13.048059192     7.094516428    17.114775085   0   0   0 # ohy
    458      1   4 -0.950000     9.911459382     3.812736118    19.219113800   0   0   0 # ohy
    459      1   4 -0.950000    10.884049282     5.460079813    17.171837129   0   0   0 # ohy
    460      1   4 -0.950000    10.491746713     8.271237587    17.271703976   0   0   0 # ohy
    461      1   4 -0.950000    10.582678863     2.859428180    17.214643448   0   0   0 # ohy
    462      1   5  0.425000    11.840269716     9.204055142    18.933800490   0   0   0 # hoy
    463      1   5  0.425000     7.788050100     1.227230343    16.300680725   0   0   0 # hoy
    464      1   5  0.425000    13.431465632     4.234239975    16.358639589   0   0   0 # hoy
    465      1   5  0.425000    13.389381054     7.021710108    16.287297099   0   0   0 # hoy
    466      1   5  0.425000     9.376104410     4.576458817    19.590053257   0   0   0 # hoy
    467      1   5  0.425000    10.621777944     5.312581815    16.251634711   0   0   0 # hoy
    468      1   5  0.425000    10.769774571     8.307649828    16.237367551   0   0   0 # hoy
    469      1   5  0.425000    10.689672832     2.168890641    16.365772321   0   0   0 # hoy
    470      1   1  1.575000     8.193212411     4.401836405    10.693491715   0   0   0 # aoy
    471      1   1  1.575000     8.048717163     7.303633477    10.829025502   0   0   0 # aoy
    472      1   1  1.575000     5.487476181     8.801274934    10.693487780   0   0   0 # aoy
    473      1   1  1.575000     5.633383182     2.848365587    10.764826499   0   0   0 # aoy
    474      1   2  2.100000     8.908521158     3.107174125    13.646707596   0   0   0 # sty
    475      1   2  2.100000     8.848466259     5.791435618    13.432706657   0   0   0 # sty
    476      1   2  2.100000     6.452472994     7.501762690    13.504040632   0   0   0 # sty
    477      1   2  2.100000     6.363024651     1.602265940    13.568239485   0   0   0 # sty
    478      1   3 -1.050000     9.143056603     2.983785187    11.856233070   0   0   0 # oby
    479      1   3 -1.050000     8.904620892     5.840381317    11.977500686   0   0   0 # oby
    480      1   3 -1.050000     8.641811205     4.370212200    14.238781482   0   0   0 # oby
    481      1   3 -1.050000     7.751351138     1.972073010    14.188846526   0   0   0 # oby
    482      1   3 -1.050000     7.834308052     6.875891611    14.295839867   0   0   0 # oby
    483      1   3 -1.050000     6.443002579     7.466842499    11.948968256   0   0   0 # oby
    484      1   3 -1.050000     6.185276824     1.329524178    11.856230246   0   0   0 # oby
    485      1   3 -1.050000     6.260947118    26.858639092    14.217375027   0  -1   0 # oby
    486      1   3 -1.050000     5.192701906     6.475647352    13.832174008   0   0   0 # oby
    487      1   3 -1.050000     5.140801798     2.347147387    14.174574398   0   0   0 # oby
    488      1   4 -0.950000     9.097067346     8.571291044    11.820559589   0   0   0 # ohy
    489      1   4 -0.950000     4.969261061     1.422807677     9.879405188   0   0   0 # ohy
    490      1   4 -0.950000     9.579971235     4.016300843     9.873154713   0   0   0 # ohy
    491      1   4 -0.950000     9.708429603     7.392971704     9.773288001   0   0   0 # ohy
    492      1   4 -0.950000     6.571829793     4.111191394    11.877626716   0   0   0 # ohy
    493      1   4 -0.950000     7.544419693     5.758535089     9.830350045   0   0   0 # ohy
    494      1   4 -0.950000     7.152117124     8.569692863     9.930216892   0   0   0 # ohy
    495      1   4 -0.950000     7.243049274     3.157883456     9.873156364   0   0   0 # ohy
    496      1   5  0.425000     8.500640127     9.502510418    11.592313406   0   0   0 # hoy
    497      1   5  0.425000     4.448420511     1.525685619     8.959193641   0   0   0 # hoy
    498      1   5  0.425000    10.091836043     4.532695251     9.017152505   0   0   0 # hoy
    499      1   5  0.425000    10.049751465     7.320165384     8.945810015   0   0   0 # hoy
    500      1   5  0.425000     6.036474821     4.874914093    12.248566173   0   0   0 # hoy
    501      1   5  0.425000     7.282148355     5.611037091     8.910147627   0   0   0 # hoy
    502      1   5  0.425000     7.430144982     8.606105104     8.895880467   0   0   0 # hoy
    503      1   5  0.425000     7.350043243     2.467345917     9.024285237   0   0   0 # hoy
    504      1   1  1.575000    10.097666102     4.103381129     3.568917495   0   0   0 # aoy
    505      1   1  1.575000     9.953170854     7.005178201     3.704451282   0   0   0 # aoy
    506      1   1  1.575000     7.391929872     8.502819658     3.568913560   0   0   0 # aoy
    507      1   1  1.575000     7.537836873     2.549910311     3.640252279   0   0   0 # aoy
    508      1   2  2.100000    10.812974849     2.808718849     6.522133376   0   0   0 # sty
    509      1   2  2.100000    10.752919950     5.492980342     6.308132437   0   0   0 # sty
    510      1   2  2.100000     8.356926685     7.203307414     6.379466412   0   0   0 # sty
    511      1   2  2.100000     8.267478342     1.303810664     6.443665265   0   0   0 # sty
    512      1   3 -1.050000    11.047510294     2.685329911     4.731658850   0   0   0 # oby
    513      1   3 -1.050000    10.809074583     5.541926041     4.852926466   0   0   0 # oby
    514      1   3 -1.050000    10.546264896     4.071756924     7.114207262   0   0   0 # oby
    515      1   3 -1.050000     9.655804829     1.673617734     7.064272306   0   0   0 # oby
    516      1   3 -1.050000     9.738761743     6.577436335     7.171265647   0   0   0 # oby
    517      1   3 -1.050000     8.347456270     7.168387223     4.824394036   0   0   0 # oby
    518      1   3 -1.050000     8.089730515     1.031068902     4.731656026   0   0   0 # oby
    519      1   3 -1.050000     7.097155597     6.177192076     6.707599788   0   0   0 # oby
    520      1   3 -1.050000     7.045255489     2.048692111     7.050000178   0   0   0 # oby
    521      1   4 -0.950000    11.001521037     8.272835768     4.695985369   0   0   0 # ohy
    522      1   4 -0.950000     6.873714752     1.124352401     2.754830968   0   0   0 # ohy
    523      1   4 -0.950000    11.484424926     3.717845567     2.748580493   0   0   0 # ohy
    524      1   4 -0.950000    11.612883294     7.094516428     2.648713781   0   0   0 # ohy
    525      1   4 -0.950000     8.476283484     3.812736118     4.753052496   0   0   0 # ohy
    526      1   4 -0.950000     9.448873384     5.460079813     2.705775825   0   0   0 # ohy
    527      1   4 -0.950000     9.056570815     8.271237587     2.805642672   0   0   0 # ohy
    528      1   4 -0.950000     9.147502965     2.859428180     2.748582144   0   0   0 # ohy
    529      1   5  0.425000    10.405093818     9.204055142     4.467739186   0   0   0 # hoy
    530      1   5  0.425000     6.352874202     1.227230343     1.834619421   0   0   0 # hoy
    531      1   5  0.425000    11.996289734     4.234239975     1.892578285   0   0   0 # hoy
    532      1   5  0.425000    11.954205156     7.021710108     1.821235795   0   0   0 # hoy
    533      1   5  0.425000     7.940928512     4.576458817     5.123991953   0   0   0 # hoy
    534      1   5  0.425000     9.186602046     5.312581815     1.785573407   0   0   0 # hoy
    535      1   5  0.425000     9.334598673     8.307649828     1.771306247   0   0   0 # hoy
    536      1   5  0.425000     9.254496934     2.168890641     1.899711017   0   0   0 # hoy
    537      1   1  1.575000     4.474388309     4.401836405    25.159553019   0   0   0 # aoy
    538      1   1  1.575000     4.329893061     7.303633477    25.295086806   0   0   0 # aoy
    539      1   1  1.575000     1.768652079     8.801274934    25.159549084   0   0   0 # aoy
    540      1   1  1.575000     1.914559080     2.848365587    25.230887803   0   0   0 # aoy
    541      1   2  2.100000     5.189697056     3.107174125    28.112768900   0   0   0 # sty
    542      1   2  2.100000     5.129642157     5.791435618    27.898767961   0   0   0 # sty
    543      1   2  2.100000     2.733648892     7.501762690    27.970101936   0   0   0 # sty
    544      1   2  2.100000     2.644200549     1.602265940    28.034300789   0   0   0 # sty
    545      1   3 -1.050000     5.424232501     2.983785187    26.322294374   0   0   0 # oby
    546      1   3 -1.050000     5.185796790     5.840381317    26.443561990   0   0   0 # oby
    547      1   3 -1.050000     4.922987103     4.370212200    28.704842786   0   0   0 # oby
    548      1   3 -1.050000     4.032527036     1.972073010    28.654907830   0   0   0 # oby
    549      1   3 -1.050000     4.115483950     6.875891611    28.761901171   0   0   0 # oby
    550      1   3 -1.050000     2.724178477     7.466842499    26.415029560   0   0   0 # oby
    551      1   3 -1.050000     2.466452722     1.329524178    26.322291550   0   0   0 # oby
    552      1   3 -1.050000     2.542123016    26.858639092    28.683436331   0  -1   0 # oby
    553      1   3 -1.050000     1.473877804     6.475647352    28.298235312   0   0   0 # oby
    554      1   3 -1.050000     1.421977696     2.347147387    28.640635702   0   0   0 # oby
    555      1   4 -0.950000     5.378243244     8.571291044    26.286620893   0   0   0 # ohy
    556      1   4 -0.950000     5.861147133     4.016300843    24.339216017   0   0   0 # ohy
    557      1   4 -0.950000     5.989605501     7.392971704    24.239349305   0   0   0 # ohy
    558      1   4 -0.950000     2.853005691     4.111191394    26.343688020   0   0   0 # ohy
    559      1   4 -0.950000     3.825595591     5.758535089    24.296411349   0   0   0 # ohy
    560      1   4 -0.950000     3.433293022     8.569692863    24.396278196   0   0   0 # ohy
    561      1   4 -0.950000     3.524225172     3.157883456    24.339217668   0   0   0 # ohy
    562      1   5  0.425000     4.781816025     9.502510418    26.058374710   0   0   0 # hoy
    563      1   5  0.425000     6.373011941     4.532695251    23.483213809   0   0   0 # hoy
    564      1   5  0.425000     6.330927363     7.320165384    23.411871319   0   0   0 # hoy
    565      1   5  0.425000     2.317650719     4.874914093    26.714627477   0   0   0 # hoy
    566      1   5  0.425000     3.563324253     5.611037091    23.376208931   0   0   0 # hoy
    567      1   5  0.425000     3.711320880     8.606105104    23.361941771   0   0   0 # hoy
    568      1   5  0.425000     3.631219141     2.467345917    23.490346541   0   0   0 # hoy
    569      1   1  1.575000     6.378842000     4.103381129    18.034978799   0   0   0 # aoy
    570      1   1  1.575000     6.234346752     7.005178201    18.170512586   0   0   0 # aoy
    571      1   1  1.575000     3.673105770     8.502819658    18.034974864   0   0   0 # aoy
    572      1   1  1.575000     3.819012771     2.549910311    18.106313583   0   0   0 # aoy
    573      1   2  2.100000     7.094150747     2.808718849    20.988194680   0   0   0 # sty
    574      1   2  2.100000     7.034095848     5.492980342    20.774193741   0   0   0 # sty
    575      1   2  2.100000     4.638102583     7.203307414    20.845527716   0   0   0 # sty
    576      1   2  2.100000     4.548654240     1.303810664    20.909726569   0   0   0 # sty
    577      1   3 -1.050000     7.328686192     2.685329911    19.197720154   0   0   0 # oby
    578      1   3 -1.050000     7.090250481     5.541926041    19.318987770   0   0   0 # oby
    579      1   3 -1.050000     6.827440794     4.071756924    21.580268566   0   0   0 # oby
    580      1   3 -1.050000     5.936980727     1.673617734    21.530333610   0   0   0 # oby
    581      1   3 -1.050000     6.019937641     6.577436335    21.637326951   0   0   0 # oby
    582      1   3 -1.050000     4.628632168     7.168387223    19.290455340   0   0   0 # oby
    583      1   3 -1.050000     4.370906413     1.031068902    19.197717330   0   0   0 # oby
    584      1   3 -1.050000     3.378331495     6.177192076    21.173661092   0   0   0 # oby
    585      1   3 -1.050000     3.326431387     2.048692111    21.516061482   0   0   0 # oby
    586      1   4 -0.950000     7.282696935     8.272835768    19.162046673   0   0   0 # ohy
    587      1   4 -0.950000     7.765600824     3.717845567    17.214641797   0   0   0 # ohy
    588      1   4 -0.950000     7.894059192     7.094516428    17.114775085   0   0   0 # ohy
    589      1   4 -0.950000     4.757459382     3.812736118    19.219113800   0   0   0 # ohy
    590      1   4 -0.950000     5.730049282     5.460079813    17.171837129   0   0   0 # ohy
    591      1   4 -0.950000     5.337746713     8.271237587    17.271703976   0   0   0 # ohy
    592      1   4 -0.950000     5.428678863     2.859428180    17.214643448   0   0   0 # ohy
    593      1   5  0.425000     6.686269716     9.204055142    18.933800490   0   0   0 # hoy
    594      1   5  0.425000     8.277465632     4.234239975    16.358639589   0   0   0 # hoy
    595      1   5  0.425000     8.235381054     7.021710108    16.287297099   0   0   0 # hoy
    596      1   5  0.425000     4.222104410     4.576458817    19.590053257   0   0   0 # hoy
    597      1   5  0.425000     5.467777944     5.312581815    16.251634711   0   0   0 # hoy
    598      1   5  0.425000     5.615774571     8.307649828    16.237367551   0   0   0 # hoy
    599      1   5  0.425000     5.535672832     2.168890641    16.365772321   0   0   0 # hoy
    600      1   1  1.575000     3.039212411     4.401836405    10.693491715   0   0   0 # aoy
    601      1   1  1.575000     2.894717163     7.303633477    10.829025502   0   0   0 # aoy
    602      1   1  1.575000     0.333476181     8.801274934    10.693487780   0   0   0 # aoy
    603      1   1  1.575000     0.479383182     2.848365587    10.764826499   0   0   0 # aoy
    604      1   2  2.100000     3.754521158     3.107174125    13.646707596   0   0   0 # sty
    605      1   2  2.100000     3.694466259     5.791435618    13.432706657   0   0   0 # sty
    606      1   2  2.100000     1.298472994     7.501762690    13.504040632   0   0   0 # sty
    607      1   2  2.100000     1.209024651     1.602265940    13.568239485   0   0   0 # sty
    608      1   3 -1.050000     3.989056603     2.983785187    11.856233070   0   0   0 # oby
    609      1   3 -1.050000     3.750620892     5.840381317    11.977500686   0   0   0 # oby
    610      1   3 -1.050000     3.487811205     4.370212200    14.238781482   0   0   0 # oby
    611      1   3 -1.050000     2.597351138     1.972073010    14.188846526   0   0   0 # oby
    612      1   3 -1.050000     2.680308052     6.875891611    14.295839867   0   0   0 # oby
    613      1   3 -1.050000     1.289002579     7.466842499    11.948968256   0   0   0 # oby
    614      1   3 -1.050000     1.031276824     1.329524178    11.856230246   0   0   0 # oby
    615      1   3 -1.050000     1.106947118    26.858639092    14.217375027   0  -1   0 # oby
    616      1   3 -1.050000    25.808701906     6.475647352    13.832174008   0   0   0 # oby
    617      1   3 -1.050000    25.756801798     2.347147387    14.174574398   0   0   0 # oby
    618      1   4 -0.950000     3.943067346     8.571291044    11.820559589   0   0   0 # ohy
    619      1   4 -0.950000     4.425971235     4.016300843     9.873154713   0   0   0 # ohy
    620      1   4 -0.950000     4.554429603     7.392971704     9.773288001   0   0   0 # ohy
    621      1   4 -0.950000     1.417829793     4.111191394    11.877626716   0   0   0 # ohy
    622      1   4 -0.950000     2.390419693     5.758535089     9.830350045   0   0   0 # ohy
    623      1   4 -0.950000     1.998117124     8.569692863     9.930216892   0   0   0 # ohy
    624      1   4 -0.950000     2.089049274     3.157883456     9.873156364   0   0   0 # ohy
    625      1   5  0.425000     3.346640127     9.502510418    11.592313406   0   0   0 # hoy
    626      1   5  0.425000     4.937836043     4.532695251     9.017152505   0   0   0 # hoy
    627      1   5  0.425000     4.895751465     7.320165384     8.945810015   0   0   0 # hoy
    628      1   5  0.425000     0.882474821     4.874914093    12.248566173   0   0   0 # hoy
    629      1   5  0.425000     2.128148355     5.611037091     8.910147627   0   0   0 # hoy
    630      1   5  0.425000     2.276144982     8.606105104     8.895880467   0   0   0 # hoy
    631      1   5  0.425000     2.196043243     2.467345917     9.024285237   0   0   0 # hoy
    632      1   1  1.575000     4.943666102     4.103381129     3.568917495   0   0   0 # aoy
    633      1   1  1.575000     4.799170854     7.005178201     3.704451282   0   0   0 # aoy
    634      1   1  1.575000     2.237929872     8.502819658     3.568913560   0   0   0 # aoy
    635      1   1  1.575000     2.383836873     2.549910311     3.640252279   0   0   0 # aoy
    636      1   2  2.100000     5.658974849     2.808718849     6.522133376   0   0   0 # sty
    637      1   2  2.100000     5.598919950     5.492980342     6.308132437   0   0   0 # sty
    638      1   2  2.100000     3.202926685     7.203307414     6.379466412   0   0   0 # sty
    639      1   2  2.100000     3.113478342     1.303810664     6.443665265   0   0   0 # sty
    640      1   3 -1.050000     5.893510294     2.685329911     4.731658850   0   0   0 # oby
    641      1   3 -1.050000     5.655074583     5.541926041     4.852926466   0   0   0 # oby
    642      1   3 -1.050000     5.392264896     4.071756924     7.114207262   0   0   0 # oby
    643      1   3 -1.050000     4.501804829     1.673617734     7.064272306   0   0   0 # oby
    644      1   3 -1.050000     4.584761743     6.577436335     7.171265647   0   0   0 # oby
    645      1   3 -1.050000     3.193456270     7.168387223     4.824394036   0   0   0 # oby
    646      1   3 -1.050000     2.935730515     1.031068902     4.731656026   0   0   0 # oby
    647      1   3 -1.050000     1.943155597     6.177192076     6.707599788   0   0   0 # oby
    648      1   3 -1.050000     1.891255489     2.048692111     7.050000178   0   0   0 # oby
    649      1   4 -0.950000     5.847521037     8.272835768     4.695985369   0   0   0 # ohy
    650      1   4 -0.950000     6.330424926     3.717845567     2.748580493   0   0   0 # ohy
    651      1   4 -0.950000     6.458883294     7.094516428     2.648713781   0   0   0 # ohy
    652      1   4 -0.950000     3.322283484     3.812736118     4.753052496   0   0   0 # ohy
    653      1   4 -0.950000     4.294873384     5.460079813     2.705775825   0   0   0 # ohy
    654      1   4 -0.950000     3.902570815     8.271237587     2.805642672   0   0   0 # ohy
    655      1   4 -0.950000     3.993502965     2.859428180     2.748582144   0   0   0 # ohy
    656      1   5  0.425000     5.251093818     9.204055142     4.467739186   0   0   0 # hoy
    657      1   5  0.425000     6.842289734     4.234239975     1.892578285   0   0   0 # hoy
    658      1   5  0.425000     6.800205156     7.021710108     1.821235795   0   0   0 # hoy
    659      1   5  0.425000     2.786928512     4.576458817     5.123991953   0   0   0 # hoy
    660      1   5  0.425000     4.032602046     5.312581815     1.785573407   0   0   0 # hoy
    661      1   5  0.425000     4.180598673     8.307649828     1.771306247   0   0   0 # hoy
    662      1   5  0.425000     4.100496934     2.168890641     1.899711017   0   0   0 # hoy
    663      1   1  1.575000    25.528452697    13.045326651     3.568917495   0   0   0 # aoy
    664      1   1  1.575000    25.383957449    15.947123723     3.704451282   0   0   0 # aoy
    665      1   2  2.100000     0.473761444    11.750664371     6.522133376   0   0   0 # sty
    666      1   2  2.100000     0.413706545    14.434925864     6.308132437   0   0   0 # sty
    667      1   3 -1.050000     0.708296889    11.627275433     4.731658850   0   0   0 # oby
    668      1   3 -1.050000     0.469861178    14.483871563     4.852926466   0   0   0 # oby
    669      1   3 -1.050000     0.207051491    13.013702446     7.114207262   1   0   0 # oby
    670      1   3 -1.050000    25.086591424    10.615563256     7.064272306   0   0   0 # oby
    671      1   3 -1.050000    25.169548338    15.519381857     7.171265647   0   0   0 # oby
    672      1   4 -0.950000     0.662307632    17.214781290     4.695985369   0   0   0 # ohy
    673      1   4 -0.950000     1.145211521    12.659791089     2.748580493   0   0   0 # ohy
    674      1   4 -0.950000     1.273669889    16.036461950     2.648713781   0   0   0 # ohy
    675      1   4 -0.950000    24.879659979    14.402025335     2.705775825   0   0   0 # ohy
    676      1   5  0.425000    25.835880413    18.146000664     4.467739186  -1   0   0 # hoy
    677      1   5  0.425000     1.657076329    13.176185497     1.892578285   0   0   0 # hoy
    678      1   5  0.425000     1.614991751    15.963655630     1.821235795   0   0   0 # hoy
    679      1   5  0.425000    24.617388641    14.254527337     1.785573407   0   0   0 # hoy
    680      1   5  0.425000    24.765385268    17.249595350     1.771306247   0   0   0 # hoy
    681      1   5  0.425000    24.685283529    11.110836163     1.899711017   0   0   0 # hoy
    682      1   1  1.575000    24.257892365    17.444765180    18.034974864   0   0   0 # aoy
    683      1   1  1.575000    24.403799366    11.491855833    18.106313583   0   0   0 # aoy
    684      1   2  2.100000    25.222889178    16.145252936    20.845527716   0   0   0 # sty
    685      1   2  2.100000    25.133440835    10.245756186    20.909726569   0   0   0 # sty
    686      1   3 -1.050000    25.213418763    16.110332745    19.290455340   0   0   0 # oby
    687      1   3 -1.050000    24.955693008     9.973014424    19.197717330   0   0   0 # oby
    688      1   3 -1.050000    25.031363302     8.676129338    21.558862111   0   0   0 # oby
    689      1   3 -1.050000    23.963118090    15.119137598    21.173661092   0   0   0 # oby
    690      1   3 -1.050000    23.911217982    10.990637633    21.516061482   0   0   0 # oby
    691      1   4 -0.950000    23.739677245    10.066297923    17.220892272   0   0   0 # ohy
    692      1   4 -0.950000    25.342245977    12.754681640    19.219113800   0   0   0 # ohy
    693      1   4 -0.950000     0.152533308    17.213183109    17.271703976   0   0   0 # ohy
    694      1   4 -0.950000     0.243465458    11.801373702    17.214643448   0   0   0 # ohy
    695      1   5  0.425000    23.218836695    10.169175865    16.300680725   0   0   0 # hoy
    696      1   5  0.425000    24.806891005    13.518404339    19.590053257   0   0   0 # hoy
    697      1   1  1.575000    19.905174904    13.343781927    25.159553019   0   0   0 # aoy
    698      1   1  1.575000    19.760679656    16.245578999    25.295086806   0   0   0 # aoy
    699      1   1  1.575000    17.199438674    17.743220456    25.159549084   0   0   0 # aoy
    700      1   1  1.575000    17.345345675    11.790311109    25.230887803   0   0   0 # aoy
    701      1   2  2.100000    20.620483651    12.049119647    28.112768900   0   0   0 # sty
    702      1   2  2.100000    20.560428752    14.733381140    27.898767961   0   0   0 # sty
    703      1   2  2.100000    18.164435487    16.443708212    27.970101936   0   0   0 # sty
    704      1   2  2.100000    18.074987144    10.544211462    28.034300789   0   0   0 # sty
    705      1   3 -1.050000    20.855019096    11.925730709    26.322294374   0   0   0 # oby
    706      1   3 -1.050000    20.616583385    14.782326839    26.443561990   0   0   0 # oby
    707      1   3 -1.050000    20.353773698    13.312157722    28.704842786   0   0   0 # oby
    708      1   3 -1.050000    19.463313631    10.914018532    28.654907830   0   0   0 # oby
    709      1   3 -1.050000    19.546270545    15.817837133    28.761901171   0   0   0 # oby
    710      1   3 -1.050000    18.154965072    16.408788021    26.415029560   0   0   0 # oby
    711      1   3 -1.050000    17.897239317    10.271469700    26.322291550   0   0   0 # oby
    712      1   3 -1.050000    17.972909611     8.974584614    28.683436331   0   0   0 # oby
    713      1   3 -1.050000    16.904664399    15.417592874    28.298235312   0   0   0 # oby
    714      1   3 -1.050000    16.852764291    11.289092909    28.640635702   0   0   0 # oby
    715      1   4 -0.950000    20.809029839    17.513236566    26.286620893   0   0   0 # ohy
    716      1   4 -0.950000    16.681223554    10.364753199    24.345466492   0   0   0 # ohy
    717      1   4 -0.950000    21.291933728    12.958246365    24.339216017   0   0   0 # ohy
    718      1   4 -0.950000    21.420392096    16.334917226    24.239349305   0   0   0 # ohy
    719      1   4 -0.950000    18.283792286    13.053136916    26.343688020   0   0   0 # ohy
    720      1   4 -0.950000    19.256382186    14.700480611    24.296411349   0   0   0 # ohy
    721      1   4 -0.950000    18.864079617    17.511638385    24.396278196   0   0   0 # ohy
    722      1   4 -0.950000    18.955011767    12.099828978    24.339217668   0   0   0 # ohy
    723      1   5  0.425000    20.212602620    18.444455940    26.058374710   0   0   0 # hoy
    724      1   5  0.425000    16.160383004    10.467631141    23.425254945   0   0   0 # hoy
    725      1   5  0.425000    21.803798536    13.474640773    23.483213809   0   0   0 # hoy
    726      1   5  0.425000    21.761713958    16.262110906    23.411871319   0   0   0 # hoy
    727      1   5  0.425000    17.748437314    13.816859615    26.714627477   0   0   0 # hoy
    728      1   5  0.425000    18.994110848    14.552982613    23.376208931   0   0   0 # hoy
    729      1   5  0.425000    19.142107475    17.548050626    23.361941771   0   0   0 # hoy
    730      1   5  0.425000    19.062005736    11.409291439    23.490346541   0   0   0 # hoy
    731      1   1  1.575000    21.809628595    13.045326651    18.034978799   0   0   0 # aoy
    732      1   1  1.575000    21.665133347    15.947123723    18.170512586   0   0   0 # aoy
    733      1   1  1.575000    19.103892365    17.444765180    18.034974864   0   0   0 # aoy
    734      1   1  1.575000    19.249799366    11.491855833    18.106313583   0   0   0 # aoy
    735      1   2  2.100000    22.524937342    11.750664371    20.988194680   0   0   0 # sty
    736      1   2  2.100000    22.464882443    14.434925864    20.774193741   0   0   0 # sty
    737      1   2  2.100000    20.068889178    16.145252936    20.845527716   0   0   0 # sty
    738      1   2  2.100000    19.979440835    10.245756186    20.909726569   0   0   0 # sty
    739      1   3 -1.050000    22.759472787    11.627275433    19.197720154   0   0   0 # oby
    740      1   3 -1.050000    22.521037076    14.483871563    19.318987770   0   0   0 # oby
    741      1   3 -1.050000    22.258227389    13.013702446    21.580268566   0   0   0 # oby
    742      1   3 -1.050000    21.367767322    10.615563256    21.530333610   0   0   0 # oby
    743      1   3 -1.050000    21.450724236    15.519381857    21.637326951   0   0   0 # oby
    744      1   3 -1.050000    20.059418763    16.110332745    19.290455340   0   0   0 # oby
    745      1   3 -1.050000    19.801693008     9.973014424    19.197717330   0   0   0 # oby
    746      1   3 -1.050000    19.877363302     8.676129338    21.558862111   0   0   0 # oby
    747      1   3 -1.050000    18.809118090    15.119137598    21.173661092   0   0   0 # oby
    748      1   3 -1.050000    18.757217982    10.990637633    21.516061482   0   0   0 # oby
    749      1   4 -0.950000    22.713483530    17.214781290    19.162046673   0   0   0 # ohy
    750      1   4 -0.950000    18.585677245    10.066297923    17.220892272   0   0   0 # ohy
    751      1   4 -0.950000    23.196387419    12.659791089    17.214641797   0   0   0 # ohy
    752      1   4 -0.950000    23.324845787    16.036461950    17.114775085   0   0   0 # ohy
    753      1   4 -0.950000    20.188245977    12.754681640    19.219113800   0   0   0 # ohy
    754      1   4 -0.950000    21.160835877    14.402025335    17.171837129   0   0   0 # ohy
    755      1   4 -0.950000    20.768533308    17.213183109    17.271703976   0   0   0 # ohy
    756      1   4 -0.950000    20.859465458    11.801373702    17.214643448   0   0   0 # ohy
    757      1   5  0.425000    22.117056311    18.146000664    18.933800490   0   0   0 # hoy
    758      1   5  0.425000    18.064836695    10.169175865    16.300680725   0   0   0 # hoy
    759      1   5  0.425000    23.708252227    13.176185497    16.358639589   0   0   0 # hoy
    760      1   5  0.425000    23.666167649    15.963655630    16.287297099   0   0   0 # hoy
    761      1   5  0.425000    19.652891005    13.518404339    19.590053257   0   0   0 # hoy
    762      1   5  0.425000    20.898564539    14.254527337    16.251634711   0   0   0 # hoy
    763      1   5  0.425000    21.046561166    17.249595350    16.237367551   0   0   0 # hoy
    764      1   5  0.425000    20.966459427    11.110836163    16.365772321   0   0   0 # hoy
    765      1   1  1.575000    18.469999006    13.343781927    10.693491715   0   0   0 # aoy
    766      1   1  1.575000    18.325503758    16.245578999    10.829025502   0   0   0 # aoy
    767      1   1  1.575000    15.764262776    17.743220456    10.693487780   0   0   0 # aoy
    768      1   1  1.575000    15.910169777    11.790311109    10.764826499   0   0   0 # aoy
    769      1   2  2.100000    19.185307753    12.049119647    13.646707596   0   0   0 # sty
    770      1   2  2.100000    19.125252854    14.733381140    13.432706657   0   0   0 # sty
    771      1   2  2.100000    16.729259589    16.443708212    13.504040632   0   0   0 # sty
    772      1   2  2.100000    16.639811246    10.544211462    13.568239485   0   0   0 # sty
    773      1   3 -1.050000    19.419843198    11.925730709    11.856233070   0   0   0 # oby
    774      1   3 -1.050000    19.181407487    14.782326839    11.977500686   0   0   0 # oby
    775      1   3 -1.050000    18.918597800    13.312157722    14.238781482   0   0   0 # oby
    776      1   3 -1.050000    18.028137733    10.914018532    14.188846526   0   0   0 # oby
    777      1   3 -1.050000    18.111094647    15.817837133    14.295839867   0   0   0 # oby
    778      1   3 -1.050000    16.719789174    16.408788021    11.948968256   0   0   0 # oby
    779      1   3 -1.050000    16.462063419    10.271469700    11.856230246   0   0   0 # oby
    780      1   3 -1.050000    16.537733713     8.974584614    14.217375027   0   0   0 # oby
    781      1   3 -1.050000    15.469488501    15.417592874    13.832174008   0   0   0 # oby
    782      1   3 -1.050000    15.417588393    11.289092909    14.174574398   0   0   0 # oby
    783      1   4 -0.950000    19.373853941    17.513236566    11.820559589   0   0   0 # ohy
    784      1   4 -0.950000    15.246047656    10.364753199     9.879405188   0   0   0 # ohy
    785      1   4 -0.950000    19.856757830    12.958246365     9.873154713   0   0   0 # ohy
    786      1   4 -0.950000    19.985216198    16.334917226     9.773288001   0   0   0 # ohy
    787      1   4 -0.950000    16.848616388    13.053136916    11.877626716   0   0   0 # ohy
    788      1   4 -0.950000    17.821206288    14.700480611     9.830350045   0   0   0 # ohy
    789      1   4 -0.950000    17.428903719    17.511638385     9.930216892   0   0   0 # ohy
    790      1   4 -0.950000    17.519835869    12.099828978     9.873156364   0   0   0 # ohy
    791      1   5  0.425000    18.777426722    18.444455940    11.592313406   0   0   0 # hoy
    792      1   5  0.425000    14.725207106    10.467631141     8.959193641   0   0   0 # hoy
    793      1   5  0.425000    20.368622638    13.474640773     9.017152505   0   0   0 # hoy
    794      1   5  0.425000    20.326538060    16.262110906     8.945810015   0   0   0 # hoy
    795      1   5  0.425000    16.313261416    13.816859615    12.248566173   0   0   0 # hoy
    796      1   5  0.425000    17.558934950    14.552982613     8.910147627   0   0   0 # hoy
    797      1   5  0.425000    17.706931577    17.548050626     8.895880467   0   0   0 # hoy
    798      1   5  0.425000    17.626829838    11.409291439     9.024285237   0   0   0 # hoy
    799      1   1  1.575000    20.374452697    13.045326651     3.568917495   0   0   0 # aoy
    800      1   1  1.575000    20.229957449    15.947123723     3.704451282   0   0   0 # aoy
    801      1   1  1.575000    17.668716467    17.444765180     3.568913560   0   0   0 # aoy
    802      1   1  1.575000    17.814623468    11.491855833     3.640252279   0   0   0 # aoy
    803      1   2  2.100000    21.089761444    11.750664371     6.522133376   0   0   0 # sty
    804      1   2  2.100000    21.029706545    14.434925864     6.308132437   0   0   0 # sty
    805      1   2  2.100000    18.633713280    16.145252936     6.379466412   0   0   0 # sty
    806      1   2  2.100000    18.544264937    10.245756186     6.443665265   0   0   0 # sty
    807      1   3 -1.050000    21.324296889    11.627275433     4.731658850   0   0   0 # oby
    808      1   3 -1.050000    21.085861178    14.483871563     4.852926466   0   0   0 # oby
    809      1   3 -1.050000    20.823051491    13.013702446     7.114207262   0   0   0 # oby
    810      1   3 -1.050000    19.932591424    10.615563256     7.064272306   0   0   0 # oby
    811      1   3 -1.050000    20.015548338    15.519381857     7.171265647   0   0   0 # oby
    812      1   3 -1.050000    18.624242865    16.110332745     4.824394036   0   0   0 # oby
    813      1   3 -1.050000    18.366517110     9.973014424     4.731656026   0   0   0 # oby
    814      1   3 -1.050000    18.442187404     8.676129338     7.092800807   0   0   0 # oby
    815      1   3 -1.050000    17.373942192    15.119137598     6.707599788   0   0   0 # oby
    816      1   3 -1.050000    17.322042084    10.990637633     7.050000178   0   0   0 # oby
    817      1   4 -0.950000    21.278307632    17.214781290     4.695985369   0   0   0 # ohy
    818      1   4 -0.950000    17.150501347    10.066297923     2.754830968   0   0   0 # ohy
    819      1   4 -0.950000    21.761211521    12.659791089     2.748580493   0   0   0 # ohy
    820      1   4 -0.950000    21.889669889    16.036461950     2.648713781   0   0   0 # ohy
    821      1   4 -0.950000    18.753070079    12.754681640     4.753052496   0   0   0 # ohy
    822      1   4 -0.950000    19.725659979    14.402025335     2.705775825   0   0   0 # ohy
    823      1   4 -0.950000    19.333357410    17.213183109     2.805642672   0   0   0 # ohy
    824      1   4 -0.950000    19.424289560    11.801373702     2.748582144   0   0   0 # ohy
    825      1   5  0.425000    20.681880413    18.146000664     4.467739186   0   0   0 # hoy
    826      1   5  0.425000    16.629660797    10.169175865     1.834619421   0   0   0 # hoy
    827      1   5  0.425000    22.273076329    13.176185497     1.892578285   0   0   0 # hoy
    828      1   5  0.425000    22.230991751    15.963655630     1.821235795   0   0   0 # hoy
    829      1   5  0.425000    18.217715107    13.518404339     5.123991953   0   0   0 # hoy
    830      1   5  0.425000    19.463388641    14.254527337     1.785573407   0   0   0 # hoy
    831      1   5  0.425000    19.611385268    17.249595350     1.771306247   0   0   0 # hoy
    832      1   5  0.425000    19.531283529    11.110836163     1.899711017   0   0   0 # hoy
    833      1   1  1.575000    16.655628595    13.045326651    18.034978799   0   0   0 # aoy
    834      1   1  1.575000    16.511133347    15.947123723    18.170512586   0   0   0 # aoy
    835      1   1  1.575000    13.949892365    17.444765180    18.034974864   0   0   0 # aoy
    836      1   1  1.575000    14.095799366    11.491855833    18.106313583   0   0   0 # aoy
    837      1   2  2.100000    17.370937342    11.750664371    20.988194680   0   0   0 # sty
    838      1   2  2.100000    17.310882443    14.434925864    20.774193741   0   0   0 # sty
    839      1   2  2.100000    14.914889178    16.145252936    20.845527716   0   0   0 # sty
    840      1   2  2.100000    14.825440835    10.245756186    20.909726569   0   0   0 # sty
    841      1   3 -1.050000    17.605472787    11.627275433    19.197720154   0   0   0 # oby
    842      1   3 -1.050000    17.367037076    14.483871563    19.318987770   0   0   0 # oby
    843      1   3 -1.050000    17.104227389    13.013702446    21.580268566   0   0   0 # oby
    844      1   3 -1.050000    16.213767322    10.615563256    21.530333610   0   0   0 # oby
    845      1   3 -1.050000    16.296724236    15.519381857    21.637326951   0   0   0 # oby
    846      1   3 -1.050000    14.905418763    16.110332745    19.290455340   0   0   0 # oby
    847      1   3 -1.050000    14.647693008     9.973014424    19.197717330   0   0   0 # oby
    848      1   3 -1.050000    14.723363302     8.676129338    21.558862111   0   0   0 # oby
    849      1   3 -1.050000    13.655118090    15.119137598    21.173661092   0   0   0 # oby
    850      1   3 -1.050000    13.603217982    10.990637633    21.516061482   0   0   0 # oby
    851      1   4 -0.950000    17.559483530    17.214781290    19.162046673   0   0   0 # ohy
    852      1   4 -0.950000    13.431677245    10.066297923    17.220892272   0   0   0 # ohy
    853      1   4 -0.950000    18.042387419    12.659791089    17.214641797   0   0   0 # ohy
    854      1   4 -0.950000    18.170845787    16.036461950    17.114775085   0   0   0 # ohy
    855      1   4 -0.950000    15.034245977    12.754681640    19.219113800   0   0   0 # ohy
    856      1   4 -0.950000    16.006835877    14.402025335    17.171837129   0   0   0 # ohy
    857      1   4 -0.950000    15.614533308    17.213183109    17.271703976   0   0   0 # ohy
    858      1   4 -0.950000    15.705465458    11.801373702    17.214643448   0   0   0 # ohy
    859      1   5  0.425000    16.963056311    18.146000664    18.933800490   0   0   0 # hoy
    860      1   5  0.425000    12.910836695    10.169175865    16.300680725   0   0   0 # hoy
    861      1   5  0.425000    18.554252227    13.176185497    16.358639589   0   0   0 # hoy
    862      1   5  0.425000    18.512167649    15.963655630    16.287297099   0   0   0 # hoy
    863      1   5  0.425000    14.498891005    13.518404339    19.590053257   0   0   0 # hoy
    864      1   5  0.425000    15.744564539    14.254527337    16.251634711   0   0   0 # hoy
    865      1   5  0.425000    15.892561166    17.249595350    16.237367551   0   0   0 # hoy
    866      1   5  0.425000    15.812459427    11.110836163    16.365772321   0   0   0 # hoy
    867      1   1  1.575000    15.220452697    13.045326651     3.568917495   0   0   0 # aoy
    868      1   1  1.575000    15.075957449    15.947123723     3.704451282   0   0   0 # aoy
    869      1   1  1.575000    12.514716467    17.444765180     3.568913560   0   0   0 # aoy
    870      1   1  1.575000    12.660623468    11.491855833     3.640252279   0   0   0 # aoy
    871      1   2  2.100000    15.935761444    11.750664371     6.522133376   0   0   0 # sty
    872      1   2  2.100000    15.875706545    14.434925864     6.308132437   0   0   0 # sty
    873      1   2  2.100000    13.479713280    16.145252936     6.379466412   0   0   0 # sty
    874      1   2  2.100000    13.390264937    10.245756186     6.443665265   0   0   0 # sty
    875      1   3 -1.050000    16.170296889    11.627275433     4.731658850   0   0   0 # oby
    876      1   3 -1.050000    15.931861178    14.483871563     4.852926466   0   0   0 # oby
    877      1   3 -1.050000    15.669051491    13.013702446     7.114207262   0   0   0 # oby
    878      1   3 -1.050000    14.778591424    10.615563256     7.064272306   0   0   0 # oby
    879      1   3 -1.050000    14.861548338    15.519381857     7.171265647   0   0   0 # oby
    880      1   3 -1.050000    13.470242865    16.110332745     4.824394036   0   0   0 # oby
    881      1   3 -1.050000    13.212517110     9.973014424     4.731656026   0   0   0 # oby
    882      1   3 -1.050000    13.288187404     8.676129338     7.092800807   0   0   0 # oby
    883      1   3 -1.050000    12.219942192    15.119137598     6.707599788   0   0   0 # oby
    884      1   3 -1.050000    12.168042084    10.990637633     7.050000178   0   0   0 # oby
    885      1   4 -0.950000    16.124307632    17.214781290     4.695985369   0   0   0 # ohy
    886      1   4 -0.950000    11.996501347    10.066297923     2.754830968   0   0   0 # ohy
    887      1   4 -0.950000    16.607211521    12.659791089     2.748580493   0   0   0 # ohy
    888      1   4 -0.950000    16.735669889    16.036461950     2.648713781   0   0   0 # ohy
    889      1   4 -0.950000    13.599070079    12.754681640     4.753052496   0   0   0 # ohy
    890      1   4 -0.950000    14.571659979    14.402025335     2.705775825   0   0   0 # ohy
    891      1   4 -0.950000    14.179357410    17.213183109     2.805642672   0   0   0 # ohy
    892      1   4 -0.950000    14.270289560    11.801373702     2.748582144   0   0   0 # ohy
    893      1   5  0.425000    15.527880413    18.146000664     4.467739186   0   0   0 # hoy
    894      1   5  0.425000    11.475660797    10.169175865     1.834619421   0   0   0 # hoy
    895      1   5  0.425000    17.119076329    13.176185497     1.892578285   0   0   0 # hoy
    896      1   5  0.425000    17.076991751    15.963655630     1.821235795   0   0   0 # hoy
    897      1   5  0.425000    13.063715107    13.518404339     5.123991953   0   0   0 # hoy
    898      1   5  0.425000    14.309388641    14.254527337     1.785573407   0   0   0 # hoy
    899      1   5  0.425000    14.457385268    17.249595350     1.771306247   0   0   0 # hoy
    900      1   5  0.425000    14.377283529    11.110836163     1.899711017   0   0   0 # hoy
    901      1   1  1.575000     9.597174904    13.343781927    25.159553019   0   0   0 # aoy
    902      1   1  1.575000     9.452679656    16.245578999    25.295086806   0   0   0 # aoy
    903      1   1  1.575000     6.891438674    17.743220456    25.159549084   0   0   0 # aoy
    904      1   1  1.575000     7.037345675    11.790311109    25.230887803   0   0   0 # aoy
    905      1   2  2.100000    10.312483651    12.049119647    28.112768900   0   0   0 # sty
    906      1   2  2.100000    10.252428752    14.733381140    27.898767961   0   0   0 # sty
    907      1   2  2.100000     7.856435487    16.443708212    27.970101936   0   0   0 # sty
    908      1   2  2.100000     7.766987144    10.544211462    28.034300789   0   0   0 # sty
    909      1   3 -1.050000    10.547019096    11.925730709    26.322294374   0   0   0 # oby
    910      1   3 -1.050000    10.308583385    14.782326839    26.443561990   0   0   0 # oby
    911      1   3 -1.050000    10.045773698    13.312157722    28.704842786   0   0   0 # oby
    912      1   3 -1.050000     9.155313631    10.914018532    28.654907830   0   0   0 # oby
    913      1   3 -1.050000     9.238270545    15.817837133    28.761901171   0   0   0 # oby
    914      1   3 -1.050000     7.846965072    16.408788021    26.415029560   0   0   0 # oby
    915      1   3 -1.050000     7.589239317    10.271469700    26.322291550   0   0   0 # oby
    916      1   3 -1.050000     7.664909611     8.974584614    28.683436331   0   0   0 # oby
    917      1   3 -1.050000     6.596664399    15.417592874    28.298235312   0   0   0 # oby
    918      1   3 -1.050000     6.544764291    11.289092909    28.640635702   0   0   0 # oby
    919      1   4 -0.950000    10.501029839    17.513236566    26.286620893   0   0   0 # ohy
    920      1   4 -0.950000     6.373223554    10.364753199    24.345466492   0   0   0 # ohy
    921      1   4 -0.950000    10.983933728    12.958246365    24.339216017   0   0   0 # ohy
    922      1   4 -0.950000    11.112392096    16.334917226    24.239349305   0   0   0 # ohy
    923      1   4 -0.950000     7.975792286    13.053136916    26.343688020   0   0   0 # ohy
    924      1   4 -0.950000     8.948382186    14.700480611    24.296411349   0   0   0 # ohy
    925      1   4 -0.950000     8.556079617    17.511638385    24.396278196   0   0   0 # ohy
    926      1   4 -0.950000     8.647011767    12.099828978    24.339217668   0   0   0 # ohy
    927      1   5  0.425000     9.904602620    18.444455940    26.058374710   0   0   0 # hoy
    928      1   5  0.425000     5.852383004    10.467631141    23.425254945   0   0   0 # hoy
    929      1   5  0.425000    11.495798536    13.474640773    23.483213809   0   0   0 # hoy
    930      1   5  0.425000    11.453713958    16.262110906    23.411871319   0   0   0 # hoy
    931      1   5  0.425000     7.440437314    13.816859615    26.714627477   0   0   0 # hoy
    932      1   5  0.425000     8.686110848    14.552982613    23.376208931   0   0   0 # hoy
    933      1   5  0.425000     8.834107475    17.548050626    23.361941771   0   0   0 # hoy
    934      1   5  0.425000     8.754005736    11.409291439    23.490346541   0   0   0 # hoy
    935      1   1  1.575000    11.501628595    13.045326651    18.034978799   0   0   0 # aoy
    936      1   1  1.575000    11.357133347    15.947123723    18.170512586   0   0   0 # aoy
    937      1   1  1.575000     8.795892365    17.444765180    18.034974864   0   0   0 # aoy
    938      1   1  1.575000     8.941799366    11.491855833    18.106313583   0   0   0 # aoy
    939      1   2  2.100000    12.216937342    11.750664371    20.988194680   0   0   0 # sty
    940      1   2  2.100000    12.156882443    14.434925864    20.774193741   0   0   0 # sty
    941      1   2  2.100000     9.760889178    16.145252936    20.845527716   0   0   0 # sty
    942      1   2  2.100000     9.671440835    10.245756186    20.909726569   0   0   0 # sty
    943      1   3 -1.050000    12.451472787    11.627275433    19.197720154   0   0   0 # oby
    944      1   3 -1.050000    12.213037076    14.483871563    19.318987770   0   0   0 # oby
    945      1   3 -1.050000    11.950227389    13.013702446    21.580268566   0   0   0 # oby
    946      1   3 -1.050000    11.059767322    10.615563256    21.530333610   0   0   0 # oby
    947      1   3 -1.050000    11.142724236    15.519381857    21.637326951   0   0   0 # oby
    948      1   3 -1.050000     9.751418763    16.110332745    19.290455340   0   0   0 # oby
    949      1   3 -1.050000     9.493693008     9.973014424    19.197717330   0   0   0 # oby
    950      1   3 -1.050000     9.569363302     8.676129338    21.558862111   0   0   0 # oby
    951      1   3 -1.050000     8.501118090    15.119137598    21.173661092   0   0   0 # oby
    952      1   3 -1.050000     8.449217982    10.990637633    21.516061482   0   0   0 # oby
    953      1   4 -0.950000    12.405483530    17.214781290    19.162046673   0   0   0 # ohy
    954      1   4 -0.950000     8.277677245    10.066297923    17.220892272   0   0   0 # ohy
    955      1   4 -0.950000    12.888387419    12.659791089    17.214641797   0   0   0 # ohy
    956      1   4 -0.950000    13.016845787    16.036461950    17.114775085   0   0   0 # ohy
    957      1   4 -0.950000     9.880245977    12.754681640    19.219113800   0   0   0 # ohy
    958      1   4 -0.950000    10.852835877    14.402025335    17.171837129   0   0   0 # ohy
    959      1   4 -0.950000    10.460533308    17.213183109    17.271703976   0   0   0 # ohy
    960      1   4 -0.950000    10.551465458    11.801373702    17.214643448   0   0   0 # ohy
    961      1   5  0.425000    11.809056311    18.146000664    18.933800490   0   0   0 # hoy
    962      1   5  0.425000     7.756836695    10.169175865    16.300680725   0   0   0 # hoy
    963      1   5  0.425000    13.400252227    13.176185497    16.358639589   0   0   0 # hoy
    964      1   5  0.425000    13.358167649    15.963655630    16.287297099   0   0   0 # hoy
    965      1   5  0.425000     9.344891005    13.518404339    19.590053257   0   0   0 # hoy
    966      1   5  0.425000    10.590564539    14.254527337    16.251634711   0   0   0 # hoy
    967      1   5  0.425000    10.738561166    17.249595350    16.237367551   0   0   0 # hoy
    968      1   5  0.425000    10.658459427    11.110836163    16.365772321   0   0   0 # hoy
    969      1   1  1.575000     8.161999006    13.343781927    10.693491715   0   0   0 # aoy
    970      1   1  1.575000     8.017503758    16.245578999    10.829025502   0   0   0 # aoy
    971      1   1  1.575000     5.456262776    17.743220456    10.693487780   0   0   0 # aoy
    972      1   1  1.575000     5.602169777    11.790311109    10.764826499   0   0   0 # aoy
    973      1   2  2.100000     8.877307753    12.049119647    13.646707596   0   0   0 # sty
    974      1   2  2.100000     8.817252854    14.733381140    13.432706657   0   0   0 # sty
    975      1   2  2.100000     6.421259589    16.443708212    13.504040632   0   0   0 # sty
    976      1   2  2.100000     6.331811246    10.544211462    13.568239485   0   0   0 # sty
    977      1   3 -1.050000     9.111843198    11.925730709    11.856233070   0   0   0 # oby
    978      1   3 -1.050000     8.873407487    14.782326839    11.977500686   0   0   0 # oby
    979      1   3 -1.050000     8.610597800    13.312157722    14.238781482   0   0   0 # oby
    980      1   3 -1.050000     7.720137733    10.914018532    14.188846526   0   0   0 # oby
    981      1   3 -1.050000     7.803094647    15.817837133    14.295839867   0   0   0 # oby
    982      1   3 -1.050000     6.411789174    16.408788021    11.948968256   0   0   0 # oby
    983      1   3 -1.050000     6.154063419    10.271469700    11.856230246   0   0   0 # oby
    984      1   3 -1.050000     6.229733713     8.974584614    14.217375027   0   0   0 # oby
    985      1   3 -1.050000     5.161488501    15.417592874    13.832174008   0   0   0 # oby
    986      1   3 -1.050000     5.109588393    11.289092909    14.174574398   0   0   0 # oby
    987      1   4 -0.950000     9.065853941    17.513236566    11.820559589   0   0   0 # ohy
    988      1   4 -0.950000     4.938047656    10.364753199     9.879405188   0   0   0 # ohy
    989      1   4 -0.950000     9.548757830    12.958246365     9.873154713   0   0   0 # ohy
    990      1   4 -0.950000     9.677216198    16.334917226     9.773288001   0   0   0 # ohy
    991      1   4 -0.950000     6.540616388    13.053136916    11.877626716   0   0   0 # ohy
    992      1   4 -0.950000     7.513206288    14.700480611     9.830350045   0   0   0 # ohy
    993      1   4 -0.950000     7.120903719    17.511638385     9.930216892   0   0   0 # ohy
    994      1   4 -0.950000     7.211835869    12.099828978     9.873156364   0   0   0 # ohy
    995      1   5  0.425000     8.469426722    18.444455940    11.592313406   0   0   0 # hoy
    996      1   5  0.425000     4.417207106    10.467631141     8.959193641   0   0   0 # hoy
    997      1   5  0.425000    10.060622638    13.474640773     9.017152505   0   0   0 # hoy
    998      1   5  0.425000    10.018538060    16.262110906     8.945810015   0   0   0 # hoy
    999      1   5  0.425000     6.005261416    13.816859615    12.248566173   0   0   0 # hoy
   1000      1   5  0.425000     7.250934950    14.552982613     8.910147627   0   0   0 # hoy
   1001      1   5  0.425000     7.398931577    17.548050626     8.895880467   0   0   0 # hoy
   1002      1   5  0.425000     7.318829838    11.409291439     9.024285237   0   0   0 # hoy
   1003      1   1  1.575000    10.066452697    13.045326651     3.568917495   0   0   0 # aoy
   1004      1   1  1.575000     9.921957449    15.947123723     3.704451282   0   0   0 # aoy
   1005      1   1  1.575000     7.360716467    17.444765180     3.568913560   0   0   0 # aoy
   1006      1   1  1.575000     7.506623468    11.491855833     3.640252279   0   0   0 # aoy
   1007      1   2  2.100000    10.781761444    11.750664371     6.522133376   0   0   0 # sty
   1008      1   2  2.100000    10.721706545    14.434925864     6.308132437   0   0   0 # sty
   1009      1   2  2.100000     8.325713280    16.145252936     6.379466412   0   0   0 # sty
   1010      1   2  2.100000     8.236264937    10.245756186     6.443665265   0   0   0 # sty
   1011      1   3 -1.050000    11.016296889    11.627275433     4.731658850   0   0   0 # oby
   1012      1   3 -1.050000    10.777861178    14.483871563     4.852926466   0   0   0 # oby
   1013      1   3 -1.050000    10.515051491    13.013702446     7.114207262   0   0   0 # oby
   1014      1   3 -1.050000     9.624591424    10.615563256     7.064272306   0   0   0 # oby
   1015      1   3 -1.050000     9.707548338    15.519381857     7.171265647   0   0   0 # oby
   1016      1   3 -1.050000     8.316242865    16.110332745     4.824394036   0   0   0 # oby
   1017      1   3 -1.050000     8.058517110     9.973014424     4.731656026   0   0   0 # oby
   1018      1   3 -1.050000     8.134187404     8.676129338     7.092800807   0   0   0 # oby
   1019      1   3 -1.050000     7.065942192    15.119137598     6.707599788   0   0   0 # oby
   1020      1   3 -1.050000     7.014042084    10.990637633     7.050000178   0   0   0 # oby
   1021      1   4 -0.950000    10.970307632    17.214781290     4.695985369   0   0   0 # ohy
   1022      1   4 -0.950000     6.842501347    10.066297923     2.754830968   0   0   0 # ohy
   1023      1   4 -0.950000    11.453211521    12.659791089     2.748580493   0   0   0 # ohy
   1024      1   4 -0.950000    11.581669889    16.036461950     2.648713781   0   0   0 # ohy
   1025      1   4 -0.950000     8.445070079    12.754681640     4.753052496   0   0   0 # ohy
   1026      1   4 -0.950000     9.417659979    14.402025335     2.705775825   0   0   0 # ohy
   1027      1   4 -0.950000     9.025357410    17.213183109     2.805642672   0   0   0 # ohy
   1028      1   4 -0.950000     9.116289560    11.801373702     2.748582144   0   0   0 # ohy
   1029      1   5  0.425000    10.373880413    18.146000664     4.467739186   0   0   0 # hoy
   1030      1   5  0.425000     6.321660797    10.169175865     1.834619421   0   0   0 # hoy
   1031      1   5  0.425000    11.965076329    13.176185497     1.892578285   0   0   0 # hoy
   1032      1   5  0.425000    11.922991751    15.963655630     1.821235795   0   0   0 # hoy
   1033      1   5  0.425000     7.909715107    13.518404339     5.123991953   0   0   0 # hoy
   1034      1   5  0.425000     9.155388641    14.254527337     1.785573407   0   0   0 # hoy
   1035      1   5  0.425000     9.303385268    17.249595350     1.771306247   0   0   0 # hoy
   1036      1   5  0.425000     9.223283529    11.110836163     1.899711017   0   0   0 # hoy
   1037      1   1  1.575000     4.443174904    13.343781927    25.159553019   0   0   0 # aoy
   1038      1   1  1.575000     4.298679656    16.245578999    25.295086806   0   0   0 # aoy
   1039      1   1  1.575000     1.737438674    17.743220456    25.159549084   0   0   0 # aoy
   1040      1   1  1.575000     1.883345675    11.790311109    25.230887803   0   0   0 # aoy
   1041      1   2  2.100000     5.158483651    12.049119647    28.112768900   0   0   0 # sty
   1042      1   2  2.100000     5.098428752    14.733381140    27.898767961   0   0   0 # sty
   1043      1   2  2.100000     2.702435487    16.443708212    27.970101936   0   0   0 # sty
   1044      1   2  2.100000     2.612987144    10.544211462    28.034300789   0   0   0 # sty
   1045      1   3 -1.050000     5.393019096    11.925730709    26.322294374   0   0   0 # oby
   1046      1   3 -1.050000     5.154583385    14.782326839    26.443561990   0   0   0 # oby
   1047      1   3 -1.050000     4.891773698    13.312157722    28.704842786   0   0   0 # oby
   1048      1   3 -1.050000     4.001313631    10.914018532    28.654907830   0   0   0 # oby
   1049      1   3 -1.050000     4.084270545    15.817837133    28.761901171   0   0   0 # oby
   1050      1   3 -1.050000     2.692965072    16.408788021    26.415029560   0   0   0 # oby
   1051      1   3 -1.050000     2.435239317    10.271469700    26.322291550   0   0   0 # oby
   1052      1   3 -1.050000     2.510909611     8.974584614    28.683436331   0   0   0 # oby
   1053      1   3 -1.050000     1.442664399    15.417592874    28.298235312   0   0   0 # oby
   1054      1   3 -1.050000     1.390764291    11.289092909    28.640635702   0   0   0 # oby
   1055      1   4 -0.950000     5.347029839    17.513236566    26.286620893   0   0   0 # ohy
   1056      1   4 -0.950000     5.829933728    12.958246365    24.339216017   0   0   0 # ohy
   1057      1   4 -0.950000     5.958392096    16.334917226    24.239349305   0   0   0 # ohy
   1058      1   4 -0.950000     2.821792286    13.053136916    26.343688020   0   0   0 # ohy
   1059      1   4 -0.950000     3.794382186    14.700480611    24.296411349   0   0   0 # ohy
   1060      1   4 -0.950000     3.402079617    17.511638385    24.396278196   0   0   0 # ohy
   1061      1   4 -0.950000     3.493011767    12.099828978    24.339217668   0   0   0 # ohy
   1062      1   5  0.425000     4.750602620    18.444455940    26.058374710   0   0   0 # hoy
   1063      1   5  0.425000     6.341798536    13.474640773    23.483213809   0   0   0 # hoy
   1064      1   5  0.425000     6.299713958    16.262110906    23.411871319   0   0   0 # hoy
   1065      1   5  0.425000     2.286437314    13.816859615    26.714627477   0   0   0 # hoy
   1066      1   5  0.425000     3.532110848    14.552982613    23.376208931   0   0   0 # hoy
   1067      1   5  0.425000     3.680107475    17.548050626    23.361941771   0   0   0 # hoy
   1068      1   5  0.425000     3.600005736    11.409291439    23.490346541   0   0   0 # hoy
   1069      1   1  1.575000     6.347628595    13.045326651    18.034978799   0   0   0 # aoy
   1070      1   1  1.575000     6.203133347    15.947123723    18.170512586   0   0   0 # aoy
   1071      1   1  1.575000     3.641892365    17.444765180    18.034974864   0   0   0 # aoy
   1072      1   1  1.575000     3.787799366    11.491855833    18.106313583   0   0   0 # aoy
   1073      1   2  2.100000     7.062937342    11.750664371    20.988194680   0   0   0 # sty
   1074      1   2  2.100000     7.002882443    14.434925864    20.774193741   0   0   0 # sty
   1075      1   2  2.100000     4.606889178    16.145252936    20.845527716   0   0   0 # sty
   1076      1   2  2.100000     4.517440835    10.245756186    20.909726569   0   0   0 # sty
   1077      1   3 -1.050000     7.297472787    11.627275433    19.197720154   0   0   0 # oby
   1078      1   3 -1.050000     7.059037076    14.483871563    19.318987770   0   0   0 # oby
   1079      1   3 -1.050000     6.796227389    13.013702446    21.580268566   0   0   0 # oby
   1080      1   3 -1.050000     5.905767322    10.615563256    21.530333610   0   0   0 # oby
   1081      1   3 -1.050000     5.988724236    15.519381857    21.637326951   0   0   0 # oby
   1082      1   3 -1.050000     4.597418763    16.110332745    19.290455340   0   0   0 # oby
   1083      1   3 -1.050000     4.339693008     9.973014424    19.197717330   0   0   0 # oby
   1084      1   3 -1.050000     4.415363302     8.676129338    21.558862111   0   0   0 # oby
   1085      1   3 -1.050000     3.347118090    15.119137598    21.173661092   0   0   0 # oby
   1086      1   3 -1.050000     3.295217982    10.990637633    21.516061482   0   0   0 # oby
   1087      1   4 -0.950000     7.251483530    17.214781290    19.162046673   0   0   0 # ohy
   1088      1   4 -0.950000     7.734387419    12.659791089    17.214641797   0   0   0 # ohy
   1089      1   4 -0.950000     7.862845787    16.036461950    17.114775085   0   0   0 # ohy
   1090      1   4 -0.950000     4.726245977    12.754681640    19.219113800   0   0   0 # ohy
   1091      1   4 -0.950000     5.698835877    14.402025335    17.171837129   0   0   0 # ohy
   1092      1   4 -0.950000     5.306533308    17.213183109    17.271703976   0   0   0 # ohy
   1093      1   4 -0.950000     5.397465458    11.801373702    17.214643448   0   0   0 # ohy
   1094      1   5  0.425000     6.655056311    18.146000664    18.933800490   0   0   0 # hoy
   1095      1   5  0.425000     8.246252227    13.176185497    16.358639589   0   0   0 # hoy
   1096      1   5  0.425000     8.204167649    15.963655630    16.287297099   0   0   0 # hoy
   1097      1   5  0.425000     4.190891005    13.518404339    19.590053257   0   0   0 # hoy
   1098      1   5  0.425000     5.436564539    14.254527337    16.251634711   0   0   0 # hoy
   1099      1   5  0.425000     5.584561166    17.249595350    16.237367551   0   0   0 # hoy
   1100      1   5  0.425000     5.504459427    11.110836163    16.365772321   0   0   0 # hoy
   1101      1   1  1.575000     3.007999006    13.343781927    10.693491715   0   0   0 # aoy
   1102      1   1  1.575000     2.863503758    16.245578999    10.829025502   0   0   0 # aoy
   1103      1   1  1.575000     0.302262776    17.743220456    10.693487780   0   0   0 # aoy
   1104      1   1  1.575000     0.448169777    11.790311109    10.764826499   0   0   0 # aoy
   1105      1   2  2.100000     3.723307753    12.049119647    13.646707596   0   0   0 # sty
   1106      1   2  2.100000     3.663252854    14.733381140    13.432706657   0   0   0 # sty
   1107      1   2  2.100000     1.267259589    16.443708212    13.504040632   0   0   0 # sty
   1108      1   2  2.100000     1.177811246    10.544211462    13.568239485   0   0   0 # sty
   1109      1   3 -1.050000     3.957843198    11.925730709    11.856233070   0   0   0 # oby
   1110      1   3 -1.050000     3.719407487    14.782326839    11.977500686   0   0   0 # oby
   1111      1   3 -1.050000     3.456597800    13.312157722    14.238781482   0   0   0 # oby
   1112      1   3 -1.050000     2.566137733    10.914018532    14.188846526   0   0   0 # oby
   1113      1   3 -1.050000     2.649094647    15.817837133    14.295839867   0   0   0 # oby
   1114      1   3 -1.050000     1.257789174    16.408788021    11.948968256   0   0   0 # oby
   1115      1   3 -1.050000     1.000063419    10.271469700    11.856230246   0   0   0 # oby
   1116      1   3 -1.050000     1.075733713     8.974584614    14.217375027   0   0   0 # oby
   1117      1   3 -1.050000    25.777488501    15.417592874    13.832174008   0   0   0 # oby
   1118      1   3 -1.050000    25.725588393    11.289092909    14.174574398   0   0   0 # oby
   1119      1   4 -0.950000     3.911853941    17.513236566    11.820559589   0   0   0 # ohy
   1120      1   4 -0.950000     4.394757830    12.958246365     9.873154713   0   0   0 # ohy
   1121      1   4 -0.950000     4.523216198    16.334917226     9.773288001   0   0   0 # ohy
   1122      1   4 -0.950000     1.386616388    13.053136916    11.877626716   0   0   0 # ohy
   1123      1   4 -0.950000     2.359206288    14.700480611     9.830350045   0   0   0 # ohy
   1124      1   4 -0.950000     1.966903719    17.511638385     9.930216892   0   0   0 # ohy
   1125      1   4 -0.950000     2.057835869    12.099828978     9.873156364   0   0   0 # ohy
   1126      1   5  0.425000     3.315426722    18.444455940    11.592313406   0   0   0 # hoy
   1127      1   5  0.425000     4.906622638    13.474640773     9.017152505   0   0   0 # hoy
   1128      1   5  0.425000     4.864538060    16.262110906     8.945810015   0   0   0 # hoy
   1129      1   5  0.425000     0.851261416    13.816859615    12.248566173   0   0   0 # hoy
   1130      1   5  0.425000     2.096934950    14.552982613     8.910147627   0   0   0 # hoy
   1131      1   5  0.425000     2.244931577    17.548050626     8.895880467   0   0   0 # hoy
   1132      1   5  0.425000     2.164829838    11.409291439     9.024285237   0   0   0 # hoy
   1133      1   1  1.575000     4.912452697    13.045326651     3.568917495   0   0   0 # aoy
   1134      1   1  1.575000     4.767957449    15.947123723     3.704451282   0   0   0 # aoy
   1135      1   1  1.575000     2.206716467    17.444765180     3.568913560   0   0   0 # aoy
   1136      1   1  1.575000     2.352623468    11.491855833     3.640252279   0   0   0 # aoy
   1137      1   2  2.100000     5.627761444    11.750664371     6.522133376   0   0   0 # sty
   1138      1   2  2.100000     5.567706545    14.434925864     6.308132437   0   0   0 # sty
   1139      1   2  2.100000     3.171713280    16.145252936     6.379466412   0   0   0 # sty
   1140      1   2  2.100000     3.082264937    10.245756186     6.443665265   0   0   0 # sty
   1141      1   3 -1.050000     5.862296889    11.627275433     4.731658850   0   0   0 # oby
   1142      1   3 -1.050000     5.623861178    14.483871563     4.852926466   0   0   0 # oby
   1143      1   3 -1.050000     5.361051491    13.013702446     7.114207262   0   0   0 # oby
   1144      1   3 -1.050000     4.470591424    10.615563256     7.064272306   0   0   0 # oby
   1145      1   3 -1.050000     4.553548338    15.519381857     7.171265647   0   0   0 # oby
   1146      1   3 -1.050000     3.162242865    16.110332745     4.824394036   0   0   0 # oby
   1147      1   3 -1.050000     2.904517110     9.973014424     4.731656026   0   0   0 # oby
   1148      1   3 -1.050000     2.980187404     8.676129338     7.092800807   0   0   0 # oby
   1149      1   3 -1.050000     1.911942192    15.119137598     6.707599788   0   0   0 # oby
   1150      1   3 -1.050000     1.860042084    10.990637633     7.050000178   0   0   0 # oby
   1151      1   4 -0.950000     5.816307632    17.214781290     4.695985369   0   0   0 # ohy
   1152      1   4 -0.950000     6.299211521    12.659791089     2.748580493   0   0   0 # ohy
   1153      1   4 -0.950000     6.427669889    16.036461950     2.648713781   0   0   0 # ohy
   1154      1   4 -0.950000     3.291070079    12.754681640     4.753052496   0   0   0 # ohy
   1155      1   4 -0.950000     4.263659979    14.402025335     2.705775825   0   0   0 # ohy
   1156      1   4 -0.950000     3.871357410    17.213183109     2.805642672   0   0   0 # ohy
   1157      1   4 -0.950000     3.962289560    11.801373702     2.748582144   0   0   0 # ohy
   1158      1   5  0.425000     5.219880413    18.146000664     4.467739186   0   0   0 # hoy
   1159      1   5  0.425000     6.811076329    13.176185497     1.892578285   0   0   0 # hoy
   1160      1   5  0.425000     6.768991751    15.963655630     1.821235795   0   0   0 # hoy
   1161      1   5  0.425000     2.755715107    13.518404339     5.123991953   0   0   0 # hoy
   1162      1   5  0.425000     4.001388641    14.254527337     1.785573407   0   0   0 # hoy
   1163      1   5  0.425000     4.149385268    17.249595350     1.771306247   0   0   0 # hoy
   1164      1   5  0.425000     4.069283529    11.110836163     1.899711017   0   0   0 # hoy
   1165      1   1  1.575000    25.027961499    22.285727450    25.159553019   0   0   0 # aoy
   1166      1   1  1.575000    24.883466251    25.187524522    25.295086806   0   0   0 # aoy
   1167      1   1  1.575000    22.322225269    26.685165979    25.159549084   0   0   0 # aoy
   1168      1   1  1.575000    22.468132270    20.732256632    25.230887803   0   0   0 # aoy
   1169      1   2  2.100000    25.743270246    20.991065170    28.112768900   0   0   0 # sty
   1170      1   2  2.100000    25.683215347    23.675326663    27.898767961   0   0   0 # sty
   1171      1   2  2.100000    23.287222082    25.385653735    27.970101936   0   0   0 # sty
   1172      1   2  2.100000    23.197773739    19.486156985    28.034300789   0   0   0 # sty
   1173      1   3 -1.050000     0.207805691    20.867676232    26.322294374   1   0   0 # oby
   1174      1   3 -1.050000    25.739369980    23.724272362    26.443561990   0   0   0 # oby
   1175      1   3 -1.050000    25.476560293    22.254103245    28.704842786   0   0   0 # oby
   1176      1   3 -1.050000    24.586100226    19.855964055    28.654907830   0   0   0 # oby
   1177      1   3 -1.050000    24.669057140    24.759782656    28.761901171   0   0   0 # oby
   1178      1   3 -1.050000    23.277751667    25.350733544    26.415029560   0   0   0 # oby
   1179      1   3 -1.050000    23.020025912    19.213415223    26.322291550   0   0   0 # oby
   1180      1   3 -1.050000    23.095696206    17.916530137    28.683436331   0   0   0 # oby
   1181      1   3 -1.050000    22.027450994    24.359538397    28.298235312   0   0   0 # oby
   1182      1   3 -1.050000    21.975550886    20.231038432    28.640635702   0   0   0 # oby
   1183      1   4 -0.950000     0.161816434    26.455182089    26.286620893   1  -1   0 # ohy
   1184      1   4 -0.950000    21.804010149    19.306698722    24.345466492   0   0   0 # ohy
   1185      1   4 -0.950000    23.406578881    21.995082439    26.343688020   0   0   0 # ohy
   1186      1   4 -0.950000    24.379168781    23.642426134    24.296411349   0   0   0 # ohy
   1187      1   4 -0.950000    23.986866212    26.453583908    24.396278196   0   0   0 # ohy
   1188      1   4 -0.950000    24.077798362    21.041774501    24.339217668   0   0   0 # ohy
   1189      1   5  0.425000    21.283169599    19.409576664    23.425254945   0   0   0 # hoy
   1190      1   5  0.425000    22.871223909    22.758805138    26.714627477   0   0   0 # hoy
   1191      1   5  0.425000    24.116897443    23.494928136    23.376208931   0   0   0 # hoy
   1192      1   5  0.425000    24.264894070    26.489996149    23.361941771   0   0   0 # hoy
   1193      1   5  0.425000    24.184792331    20.351236962    23.490346541   0   0   0 # hoy
   1194      1   1  1.575000     1.162415190    21.987272174    18.034978799   0   0   0 # aoy
   1195      1   1  1.575000     1.017919942    24.889069246    18.170512586   0   0   0 # aoy
   1196      1   2  2.100000     1.877723937    20.692609894    20.988194680   0   0   0 # sty
   1197      1   2  2.100000     1.817669038    23.376871387    20.774193741   0   0   0 # sty
   1198      1   3 -1.050000     2.112259382    20.569220956    19.197720154   0   0   0 # oby
   1199      1   3 -1.050000     1.873823671    23.425817086    19.318987770   0   0   0 # oby
   1200      1   3 -1.050000     1.611013984    21.955647969    21.580268566   0   0   0 # oby
   1201      1   3 -1.050000     0.720553917    19.557508779    21.530333610   0   0   0 # oby
   1202      1   3 -1.050000     0.803510831    24.461327380    21.637326951   0   0   0 # oby
   1203      1   4 -0.950000     2.066270125    26.156726813    19.162046673   0   0   0 # ohy
   1204      1   4 -0.950000     2.549174014    21.601736612    17.214641797   0   0   0 # ohy
   1205      1   4 -0.950000     2.677632382    24.978407473    17.114775085   0   0   0 # ohy
   1206      1   4 -0.950000     0.513622472    23.343970858    17.171837129   0   0   0 # ohy
   1207      1   5  0.425000     3.061038822    22.118131020    16.358639589   0   0   0 # hoy
   1208      1   5  0.425000     3.018954244    24.905601153    16.287297099   0   0   0 # hoy
   1209      1   5  0.425000     0.399347761    26.191540873    16.237367551   0   0   0 # hoy
   1210      1   5  0.425000     0.319246022    20.052781686    16.365772321   0   0   0 # hoy
   1211      1   1  1.575000    23.592785601    22.285727450    10.693491715   0   0   0 # aoy
   1212      1   1  1.575000    23.448290353    25.187524522    10.829025502   0   0   0 # aoy
   1213      1   1  1.575000    20.887049371    26.685165979    10.693487780   0   0   0 # aoy
   1214      1   1  1.575000    21.032956372    20.732256632    10.764826499   0   0   0 # aoy
   1215      1   2  2.100000    24.308094348    20.991065170    13.646707596   0   0   0 # sty
   1216      1   2  2.100000    24.248039449    23.675326663    13.432706657   0   0   0 # sty
   1217      1   2  2.100000    21.852046184    25.385653735    13.504040632   0   0   0 # sty
   1218      1   2  2.100000    21.762597841    19.486156985    13.568239485   0   0   0 # sty
   1219      1   3 -1.050000    24.542629793    20.867676232    11.856233070   0   0   0 # oby
   1220      1   3 -1.050000    24.304194082    23.724272362    11.977500686   0   0   0 # oby
   1221      1   3 -1.050000    24.041384395    22.254103245    14.238781482   0   0   0 # oby
   1222      1   3 -1.050000    23.150924328    19.855964055    14.188846526   0   0   0 # oby
   1223      1   3 -1.050000    23.233881242    24.759782656    14.295839867   0   0   0 # oby
   1224      1   3 -1.050000    21.842575769    25.350733544    11.948968256   0   0   0 # oby
   1225      1   3 -1.050000    21.584850014    19.213415223    11.856230246   0   0   0 # oby
   1226      1   3 -1.050000    21.660520308    17.916530137    14.217375027   0   0   0 # oby
   1227      1   3 -1.050000    20.592275096    24.359538397    13.832174008   0   0   0 # oby
   1228      1   3 -1.050000    20.540374988    20.231038432    14.174574398   0   0   0 # oby
   1229      1   4 -0.950000    24.496640536    26.455182089    11.820559589   0  -1   0 # ohy
   1230      1   4 -0.950000    20.368834251    19.306698722     9.879405188   0   0   0 # ohy
   1231      1   4 -0.950000    21.971402983    21.995082439    11.877626716   0   0   0 # ohy
   1232      1   4 -0.950000    22.943992883    23.642426134     9.830350045   0   0   0 # ohy
   1233      1   4 -0.950000    22.551690314    26.453583908     9.930216892   0   0   0 # ohy
   1234      1   4 -0.950000    22.642622464    21.041774501     9.873156364   0   0   0 # ohy
   1235      1   5  0.425000    19.847993701    19.409576664     8.959193641   0   0   0 # hoy
   1236      1   5  0.425000    21.436048011    22.758805138    12.248566173   0   0   0 # hoy
   1237      1   5  0.425000    22.681721545    23.494928136     8.910147627   0   0   0 # hoy
   1238      1   5  0.425000    22.829718172    26.489996149     8.895880467   0   0   0 # hoy
   1239      1   5  0.425000    22.749616433    20.351236962     9.024285237   0   0   0 # hoy
   1240      1   1  1.575000    25.497239292    21.987272174     3.568917495   0   0   0 # aoy
   1241      1   1  1.575000    25.352744044    24.889069246     3.704451282   0   0   0 # aoy
   1242      1   2  2.100000     0.442548039    20.692609894     6.522133376   0   0   0 # sty
   1243      1   2  2.100000     0.382493140    23.376871387     6.308132437   0   0   0 # sty
   1244      1   3 -1.050000     0.677083484    20.569220956     4.731658850   0   0   0 # oby
   1245      1   3 -1.050000     0.438647773    23.425817086     4.852926466   0   0   0 # oby
   1246      1   3 -1.050000     0.175838086    21.955647969     7.114207262   1   0   0 # oby
   1247      1   3 -1.050000    25.055378019    19.557508779     7.064272306   0   0   0 # oby
   1248      1   3 -1.050000    25.138334933    24.461327380     7.171265647   0   0   0 # oby
   1249      1   4 -0.950000     0.631094227    26.156726813     4.695985369   0   0   0 # ohy
   1250      1   4 -0.950000     1.113998116    21.601736612     2.748580493   0   0   0 # ohy
   1251      1   4 -0.950000     1.242456484    24.978407473     2.648713781   0   0   0 # ohy
   1252      1   4 -0.950000    24.848446574    23.343970858     2.705775825   0   0   0 # ohy
   1253      1   5  0.425000     1.625862924    22.118131020     1.892578285   0   0   0 # hoy
   1254      1   5  0.425000     1.583778346    24.905601153     1.821235795   0   0   0 # hoy
   1255      1   5  0.425000    24.734171863    26.191540873     1.771306247   0   0   0 # hoy
   1256      1   5  0.425000    24.654070124    20.052781686     1.899711017   0   0   0 # hoy
   1257      1   1  1.575000    24.226678960    26.386710703    18.034974864   0   0   0 # aoy
   1258      1   1  1.575000    24.372585961    20.433801356    18.106313583   0   0   0 # aoy
   1259      1   2  2.100000    25.191675773    25.087198459    20.845527716   0   0   0 # sty
   1260      1   2  2.100000    25.102227430    19.187701709    20.909726569   0   0   0 # sty
   1261      1   3 -1.050000    25.182205358    25.052278268    19.290455340   0   0   0 # oby
   1262      1   3 -1.050000    24.924479603    18.914959947    19.197717330   0   0   0 # oby
   1263      1   3 -1.050000    25.000149897    17.618074861    21.558862111   0   0   0 # oby
   1264      1   3 -1.050000    23.931904685    24.061083121    21.173661092   0   0   0 # oby
   1265      1   3 -1.050000    23.880004577    19.932583156    21.516061482   0   0   0 # oby
   1266      1   4 -0.950000    23.708463840    19.008243446    17.220892272   0   0   0 # ohy
   1267      1   4 -0.950000    25.311032572    21.696627163    19.219113800   0   0   0 # ohy
   1268      1   4 -0.950000    25.891319903    26.155128632    17.271703976  -1   0   0 # ohy
   1269      1   4 -0.950000     0.212252053    20.743319225    17.214643448   0   0   0 # ohy
   1270      1   5  0.425000    23.187623290    19.111121388    16.300680725   0   0   0 # hoy
   1271      1   5  0.425000    24.775677600    22.460349862    19.590053257   0   0   0 # hoy
   1272      1   5  0.425000     0.251351134    23.196472860    16.251634711   0   0   0 # hoy
   1273      1   1  1.575000    22.791503062    26.386710703     3.568913560   0   0   0 # aoy
   1274      1   1  1.575000    22.937410063    20.433801356     3.640252279   0   0   0 # aoy
   1275      1   2  2.100000    23.756499875    25.087198459     6.379466412   0   0   0 # sty
   1276      1   2  2.100000    23.667051532    19.187701709     6.443665265   0   0   0 # sty
   1277      1   3 -1.050000    23.747029460    25.052278268     4.824394036   0   0   0 # oby
   1278      1   3 -1.050000    23.489303705    18.914959947     4.731656026   0   0   0 # oby
   1279      1   3 -1.050000    23.564973999    17.618074861     7.092800807   0   0   0 # oby
   1280      1   3 -1.050000    22.496728787    24.061083121     6.707599788   0   0   0 # oby
   1281      1   3 -1.050000    22.444828679    19.932583156     7.050000178   0   0   0 # oby
   1282      1   4 -0.950000    22.273287942    19.008243446     2.754830968   0   0   0 # ohy
   1283      1   4 -0.950000    23.875856674    21.696627163     4.753052496   0   0   0 # ohy
   1284      1   4 -0.950000    24.456144005    26.155128632     2.805642672   0   0   0 # ohy
   1285      1   4 -0.950000    24.547076155    20.743319225     2.748582144   0   0   0 # ohy
   1286      1   5  0.425000    21.752447392    19.111121388     1.834619421   0   0   0 # hoy
   1287      1   5  0.425000    23.340501702    22.460349862     5.123991953   0   0   0 # hoy
   1288      1   5  0.425000    24.586175236    23.196472860     1.785573407   0   0   0 # hoy
   1289      1   4 -0.950000     0.644720323    21.900191888    24.339216017   0   0   0 # ohy
   1290      1   4 -0.950000     0.773178691    25.276862749    24.239349305   0   0   0 # ohy
   1291      1   5  0.425000     1.156585131    22.416586296    23.483213809   0   0   0 # hoy
   1292      1   5  0.425000     1.114500553    25.204056429    23.411871319   0   0   0 # hoy
   1293      1   4 -0.950000    24.979544425    21.900191888     9.873154713   0   0   0 # ohy
   1294      1   4 -0.950000    25.108002793    25.276862749     9.773288001   0   0   0 # ohy
   1295      1   5  0.425000    25.491409233    22.416586296     9.017152505   0   0   0 # hoy
   1296      1   5  0.425000    25.449324655    25.204056429     8.945810015   0   0   0 # hoy
   1297      1   1  1.575000    19.873961499    22.285727450    25.159553019   0   0   0 # aoy
   1298      1   1  1.575000    19.729466251    25.187524522    25.295086806   0   0   0 # aoy
   1299      1   1  1.575000    17.168225269    26.685165979    25.159549084   0   0   0 # aoy
   1300      1   1  1.575000    17.314132270    20.732256632    25.230887803   0   0   0 # aoy
   1301      1   2  2.100000    20.589270246    20.991065170    28.112768900   0   0   0 # sty
   1302      1   2  2.100000    20.529215347    23.675326663    27.898767961   0   0   0 # sty
   1303      1   2  2.100000    18.133222082    25.385653735    27.970101936   0   0   0 # sty
   1304      1   2  2.100000    18.043773739    19.486156985    28.034300789   0   0   0 # sty
   1305      1   3 -1.050000    20.823805691    20.867676232    26.322294374   0   0   0 # oby
   1306      1   3 -1.050000    20.585369980    23.724272362    26.443561990   0   0   0 # oby
   1307      1   3 -1.050000    20.322560293    22.254103245    28.704842786   0   0   0 # oby
   1308      1   3 -1.050000    19.432100226    19.855964055    28.654907830   0   0   0 # oby
   1309      1   3 -1.050000    19.515057140    24.759782656    28.761901171   0   0   0 # oby
   1310      1   3 -1.050000    18.123751667    25.350733544    26.415029560   0   0   0 # oby
   1311      1   3 -1.050000    17.866025912    19.213415223    26.322291550   0   0   0 # oby
   1312      1   3 -1.050000    17.941696206    17.916530137    28.683436331   0   0   0 # oby
   1313      1   3 -1.050000    16.873450994    24.359538397    28.298235312   0   0   0 # oby
   1314      1   3 -1.050000    16.821550886    20.231038432    28.640635702   0   0   0 # oby
   1315      1   4 -0.950000    20.777816434    26.455182089    26.286620893   0  -1   0 # ohy
   1316      1   4 -0.950000    16.650010149    19.306698722    24.345466492   0   0   0 # ohy
   1317      1   4 -0.950000    21.260720323    21.900191888    24.339216017   0   0   0 # ohy
   1318      1   4 -0.950000    21.389178691    25.276862749    24.239349305   0   0   0 # ohy
   1319      1   4 -0.950000    18.252578881    21.995082439    26.343688020   0   0   0 # ohy
   1320      1   4 -0.950000    19.225168781    23.642426134    24.296411349   0   0   0 # ohy
   1321      1   4 -0.950000    18.832866212    26.453583908    24.396278196   0   0   0 # ohy
   1322      1   4 -0.950000    18.923798362    21.041774501    24.339217668   0   0   0 # ohy
   1323      1   5  0.425000    16.129169599    19.409576664    23.425254945   0   0   0 # hoy
   1324      1   5  0.425000    21.772585131    22.416586296    23.483213809   0   0   0 # hoy
   1325      1   5  0.425000    21.730500553    25.204056429    23.411871319   0   0   0 # hoy
   1326      1   5  0.425000    17.717223909    22.758805138    26.714627477   0   0   0 # hoy
   1327      1   5  0.425000    18.962897443    23.494928136    23.376208931   0   0   0 # hoy
   1328      1   5  0.425000    19.110894070    26.489996149    23.361941771   0   0   0 # hoy
   1329      1   5  0.425000    19.030792331    20.351236962    23.490346541   0   0   0 # hoy
   1330      1   1  1.575000    21.778415190    21.987272174    18.034978799   0   0   0 # aoy
   1331      1   1  1.575000    21.633919942    24.889069246    18.170512586   0   0   0 # aoy
   1332      1   1  1.575000    19.072678960    26.386710703    18.034974864   0   0   0 # aoy
   1333      1   1  1.575000    19.218585961    20.433801356    18.106313583   0   0   0 # aoy
   1334      1   2  2.100000    22.493723937    20.692609894    20.988194680   0   0   0 # sty
   1335      1   2  2.100000    22.433669038    23.376871387    20.774193741   0   0   0 # sty
   1336      1   2  2.100000    20.037675773    25.087198459    20.845527716   0   0   0 # sty
   1337      1   2  2.100000    19.948227430    19.187701709    20.909726569   0   0   0 # sty
   1338      1   3 -1.050000    22.728259382    20.569220956    19.197720154   0   0   0 # oby
   1339      1   3 -1.050000    22.489823671    23.425817086    19.318987770   0   0   0 # oby
   1340      1   3 -1.050000    22.227013984    21.955647969    21.580268566   0   0   0 # oby
   1341      1   3 -1.050000    21.336553917    19.557508779    21.530333610   0   0   0 # oby
   1342      1   3 -1.050000    21.419510831    24.461327380    21.637326951   0   0   0 # oby
   1343      1   3 -1.050000    20.028205358    25.052278268    19.290455340   0   0   0 # oby
   1344      1   3 -1.050000    19.770479603    18.914959947    19.197717330   0   0   0 # oby
   1345      1   3 -1.050000    19.846149897    17.618074861    21.558862111   0   0   0 # oby
   1346      1   3 -1.050000    18.777904685    24.061083121    21.173661092   0   0   0 # oby
   1347      1   3 -1.050000    18.726004577    19.932583156    21.516061482   0   0   0 # oby
   1348      1   4 -0.950000    22.682270125    26.156726813    19.162046673   0   0   0 # ohy
   1349      1   4 -0.950000    18.554463840    19.008243446    17.220892272   0   0   0 # ohy
   1350      1   4 -0.950000    23.165174014    21.601736612    17.214641797   0   0   0 # ohy
   1351      1   4 -0.950000    23.293632382    24.978407473    17.114775085   0   0   0 # ohy
   1352      1   4 -0.950000    20.157032572    21.696627163    19.219113800   0   0   0 # ohy
   1353      1   4 -0.950000    21.129622472    23.343970858    17.171837129   0   0   0 # ohy
   1354      1   4 -0.950000    20.737319903    26.155128632    17.271703976   0   0   0 # ohy
   1355      1   4 -0.950000    20.828252053    20.743319225    17.214643448   0   0   0 # ohy
   1356      1   5  0.425000    18.033623290    19.111121388    16.300680725   0   0   0 # hoy
   1357      1   5  0.425000    23.677038822    22.118131020    16.358639589   0   0   0 # hoy
   1358      1   5  0.425000    23.634954244    24.905601153    16.287297099   0   0   0 # hoy
   1359      1   5  0.425000    19.621677600    22.460349862    19.590053257   0   0   0 # hoy
   1360      1   5  0.425000    20.867351134    23.196472860    16.251634711   0   0   0 # hoy
   1361      1   5  0.425000    21.015347761    26.191540873    16.237367551   0   0   0 # hoy
   1362      1   5  0.425000    20.935246022    20.052781686    16.365772321   0   0   0 # hoy
   1363      1   1  1.575000    18.438785601    22.285727450    10.693491715   0   0   0 # aoy
   1364      1   1  1.575000    18.294290353    25.187524522    10.829025502   0   0   0 # aoy
   1365      1   1  1.575000    15.733049371    26.685165979    10.693487780   0   0   0 # aoy
   1366      1   1  1.575000    15.878956372    20.732256632    10.764826499   0   0   0 # aoy
   1367      1   2  2.100000    19.154094348    20.991065170    13.646707596   0   0   0 # sty
   1368      1   2  2.100000    19.094039449    23.675326663    13.432706657   0   0   0 # sty
   1369      1   2  2.100000    16.698046184    25.385653735    13.504040632   0   0   0 # sty
   1370      1   2  2.100000    16.608597841    19.486156985    13.568239485   0   0   0 # sty
   1371      1   3 -1.050000    19.388629793    20.867676232    11.856233070   0   0   0 # oby
   1372      1   3 -1.050000    19.150194082    23.724272362    11.977500686   0   0   0 # oby
   1373      1   3 -1.050000    18.887384395    22.254103245    14.238781482   0   0   0 # oby
   1374      1   3 -1.050000    17.996924328    19.855964055    14.188846526   0   0   0 # oby
   1375      1   3 -1.050000    18.079881242    24.759782656    14.295839867   0   0   0 # oby
   1376      1   3 -1.050000    16.688575769    25.350733544    11.948968256   0   0   0 # oby
   1377      1   3 -1.050000    16.430850014    19.213415223    11.856230246   0   0   0 # oby
   1378      1   3 -1.050000    16.506520308    17.916530137    14.217375027   0   0   0 # oby
   1379      1   3 -1.050000    15.438275096    24.359538397    13.832174008   0   0   0 # oby
   1380      1   3 -1.050000    15.386374988    20.231038432    14.174574398   0   0   0 # oby
   1381      1   4 -0.950000    19.342640536    26.455182089    11.820559589   0  -1   0 # ohy
   1382      1   4 -0.950000    15.214834251    19.306698722     9.879405188   0   0   0 # ohy
   1383      1   4 -0.950000    19.825544425    21.900191888     9.873154713   0   0   0 # ohy
   1384      1   4 -0.950000    19.954002793    25.276862749     9.773288001   0   0   0 # ohy
   1385      1   4 -0.950000    16.817402983    21.995082439    11.877626716   0   0   0 # ohy
   1386      1   4 -0.950000    17.789992883    23.642426134     9.830350045   0   0   0 # ohy
   1387      1   4 -0.950000    17.397690314    26.453583908     9.930216892   0   0   0 # ohy
   1388      1   4 -0.950000    17.488622464    21.041774501     9.873156364   0   0   0 # ohy
   1389      1   5  0.425000    14.693993701    19.409576664     8.959193641   0   0   0 # hoy
   1390      1   5  0.425000    20.337409233    22.416586296     9.017152505   0   0   0 # hoy
   1391      1   5  0.425000    20.295324655    25.204056429     8.945810015   0   0   0 # hoy
   1392      1   5  0.425000    16.282048011    22.758805138    12.248566173   0   0   0 # hoy
   1393      1   5  0.425000    17.527721545    23.494928136     8.910147627   0   0   0 # hoy
   1394      1   5  0.425000    17.675718172    26.489996149     8.895880467   0   0   0 # hoy
   1395      1   5  0.425000    17.595616433    20.351236962     9.024285237   0   0   0 # hoy
   1396      1   1  1.575000    20.343239292    21.987272174     3.568917495   0   0   0 # aoy
   1397      1   1  1.575000    20.198744044    24.889069246     3.704451282   0   0   0 # aoy
   1398      1   1  1.575000    17.637503062    26.386710703     3.568913560   0   0   0 # aoy
   1399      1   1  1.575000    17.783410063    20.433801356     3.640252279   0   0   0 # aoy
   1400      1   2  2.100000    21.058548039    20.692609894     6.522133376   0   0   0 # sty
   1401      1   2  2.100000    20.998493140    23.376871387     6.308132437   0   0   0 # sty
   1402      1   2  2.100000    18.602499875    25.087198459     6.379466412   0   0   0 # sty
   1403      1   2  2.100000    18.513051532    19.187701709     6.443665265   0   0   0 # sty
   1404      1   3 -1.050000    21.293083484    20.569220956     4.731658850   0   0   0 # oby
   1405      1   3 -1.050000    21.054647773    23.425817086     4.852926466   0   0   0 # oby
   1406      1   3 -1.050000    20.791838086    21.955647969     7.114207262   0   0   0 # oby
   1407      1   3 -1.050000    19.901378019    19.557508779     7.064272306   0   0   0 # oby
   1408      1   3 -1.050000    19.984334933    24.461327380     7.171265647   0   0   0 # oby
   1409      1   3 -1.050000    18.593029460    25.052278268     4.824394036   0   0   0 # oby
   1410      1   3 -1.050000    18.335303705    18.914959947     4.731656026   0   0   0 # oby
   1411      1   3 -1.050000    18.410973999    17.618074861     7.092800807   0   0   0 # oby
   1412      1   3 -1.050000    17.342728787    24.061083121     6.707599788   0   0   0 # oby
   1413      1   3 -1.050000    17.290828679    19.932583156     7.050000178   0   0   0 # oby
   1414      1   4 -0.950000    21.247094227    26.156726813     4.695985369   0   0   0 # ohy
   1415      1   4 -0.950000    17.119287942    19.008243446     2.754830968   0   0   0 # ohy
   1416      1   4 -0.950000    21.729998116    21.601736612     2.748580493   0   0   0 # ohy
   1417      1   4 -0.950000    21.858456484    24.978407473     2.648713781   0   0   0 # ohy
   1418      1   4 -0.950000    18.721856674    21.696627163     4.753052496   0   0   0 # ohy
   1419      1   4 -0.950000    19.694446574    23.343970858     2.705775825   0   0   0 # ohy
   1420      1   4 -0.950000    19.302144005    26.155128632     2.805642672   0   0   0 # ohy
   1421      1   4 -0.950000    19.393076155    20.743319225     2.748582144   0   0   0 # ohy
   1422      1   5  0.425000    16.598447392    19.111121388     1.834619421   0   0   0 # hoy
   1423      1   5  0.425000    22.241862924    22.118131020     1.892578285   0   0   0 # hoy
   1424      1   5  0.425000    22.199778346    24.905601153     1.821235795   0   0   0 # hoy
   1425      1   5  0.425000    18.186501702    22.460349862     5.123991953   0   0   0 # hoy
   1426      1   5  0.425000    19.432175236    23.196472860     1.785573407   0   0   0 # hoy
   1427      1   5  0.425000    19.580171863    26.191540873     1.771306247   0   0   0 # hoy
   1428      1   5  0.425000    19.500070124    20.052781686     1.899711017   0   0   0 # hoy
   1429      1   1  1.575000    14.719961499    22.285727450    25.159553019   0   0   0 # aoy
   1430      1   1  1.575000    14.575466251    25.187524522    25.295086806   0   0   0 # aoy
   1431      1   1  1.575000    12.014225269    26.685165979    25.159549084   0   0   0 # aoy
   1432      1   1  1.575000    12.160132270    20.732256632    25.230887803   0   0   0 # aoy
   1433      1   2  2.100000    15.435270246    20.991065170    28.112768900   0   0   0 # sty
   1434      1   2  2.100000    15.375215347    23.675326663    27.898767961   0   0   0 # sty
   1435      1   2  2.100000    12.979222082    25.385653735    27.970101936   0   0   0 # sty
   1436      1   2  2.100000    12.889773739    19.486156985    28.034300789   0   0   0 # sty
   1437      1   3 -1.050000    15.669805691    20.867676232    26.322294374   0   0   0 # oby
   1438      1   3 -1.050000    15.431369980    23.724272362    26.443561990   0   0   0 # oby
   1439      1   3 -1.050000    15.168560293    22.254103245    28.704842786   0   0   0 # oby
   1440      1   3 -1.050000    14.278100226    19.855964055    28.654907830   0   0   0 # oby
   1441      1   3 -1.050000    14.361057140    24.759782656    28.761901171   0   0   0 # oby
   1442      1   3 -1.050000    12.969751667    25.350733544    26.415029560   0   0   0 # oby
   1443      1   3 -1.050000    12.712025912    19.213415223    26.322291550   0   0   0 # oby
   1444      1   3 -1.050000    12.787696206    17.916530137    28.683436331   0   0   0 # oby
   1445      1   3 -1.050000    11.719450994    24.359538397    28.298235312   0   0   0 # oby
   1446      1   3 -1.050000    11.667550886    20.231038432    28.640635702   0   0   0 # oby
   1447      1   4 -0.950000    15.623816434    26.455182089    26.286620893   0  -1   0 # ohy
   1448      1   4 -0.950000    11.496010149    19.306698722    24.345466492   0   0   0 # ohy
   1449      1   4 -0.950000    16.106720323    21.900191888    24.339216017   0   0   0 # ohy
   1450      1   4 -0.950000    16.235178691    25.276862749    24.239349305   0   0   0 # ohy
   1451      1   4 -0.950000    13.098578881    21.995082439    26.343688020   0   0   0 # ohy
   1452      1   4 -0.950000    14.071168781    23.642426134    24.296411349   0   0   0 # ohy
   1453      1   4 -0.950000    13.678866212    26.453583908    24.396278196   0   0   0 # ohy
   1454      1   4 -0.950000    13.769798362    21.041774501    24.339217668   0   0   0 # ohy
   1455      1   5  0.425000    10.975169599    19.409576664    23.425254945   0   0   0 # hoy
   1456      1   5  0.425000    16.618585131    22.416586296    23.483213809   0   0   0 # hoy
   1457      1   5  0.425000    16.576500553    25.204056429    23.411871319   0   0   0 # hoy
   1458      1   5  0.425000    12.563223909    22.758805138    26.714627477   0   0   0 # hoy
   1459      1   5  0.425000    13.808897443    23.494928136    23.376208931   0   0   0 # hoy
   1460      1   5  0.425000    13.956894070    26.489996149    23.361941771   0   0   0 # hoy
   1461      1   5  0.425000    13.876792331    20.351236962    23.490346541   0   0   0 # hoy
   1462      1   1  1.575000    16.624415190    21.987272174    18.034978799   0   0   0 # aoy
   1463      1   1  1.575000    16.479919942    24.889069246    18.170512586   0   0   0 # aoy
   1464      1   1  1.575000    13.918678960    26.386710703    18.034974864   0   0   0 # aoy
   1465      1   1  1.575000    14.064585961    20.433801356    18.106313583   0   0   0 # aoy
   1466      1   2  2.100000    17.339723937    20.692609894    20.988194680   0   0   0 # sty
   1467      1   2  2.100000    17.279669038    23.376871387    20.774193741   0   0   0 # sty
   1468      1   2  2.100000    14.883675773    25.087198459    20.845527716   0   0   0 # sty
   1469      1   2  2.100000    14.794227430    19.187701709    20.909726569   0   0   0 # sty
   1470      1   3 -1.050000    17.574259382    20.569220956    19.197720154   0   0   0 # oby
   1471      1   3 -1.050000    17.335823671    23.425817086    19.318987770   0   0   0 # oby
   1472      1   3 -1.050000    17.073013984    21.955647969    21.580268566   0   0   0 # oby
   1473      1   3 -1.050000    16.182553917    19.557508779    21.530333610   0   0   0 # oby
   1474      1   3 -1.050000    16.265510831    24.461327380    21.637326951   0   0   0 # oby
   1475      1   3 -1.050000    14.874205358    25.052278268    19.290455340   0   0   0 # oby
   1476      1   3 -1.050000    14.616479603    18.914959947    19.197717330   0   0   0 # oby
   1477      1   3 -1.050000    14.692149897    17.618074861    21.558862111   0   0   0 # oby
   1478      1   3 -1.050000    13.623904685    24.061083121    21.173661092   0   0   0 # oby
   1479      1   3 -1.050000    13.572004577    19.932583156    21.516061482   0   0   0 # oby
   1480      1   4 -0.950000    17.528270125    26.156726813    19.162046673   0   0   0 # ohy
   1481      1   4 -0.950000    13.400463840    19.008243446    17.220892272   0   0   0 # ohy
   1482      1   4 -0.950000    18.011174014    21.601736612    17.214641797   0   0   0 # ohy
   1483      1   4 -0.950000    18.139632382    24.978407473    17.114775085   0   0   0 # ohy
   1484      1   4 -0.950000    15.003032572    21.696627163    19.219113800   0   0   0 # ohy
   1485      1   4 -0.950000    15.975622472    23.343970858    17.171837129   0   0   0 # ohy
   1486      1   4 -0.950000    15.583319903    26.155128632    17.271703976   0   0   0 # ohy
   1487      1   4 -0.950000    15.674252053    20.743319225    17.214643448   0   0   0 # ohy
   1488      1   5  0.425000    12.879623290    19.111121388    16.300680725   0   0   0 # hoy
   1489      1   5  0.425000    18.523038822    22.118131020    16.358639589   0   0   0 # hoy
   1490      1   5  0.425000    18.480954244    24.905601153    16.287297099   0   0   0 # hoy
   1491      1   5  0.425000    14.467677600    22.460349862    19.590053257   0   0   0 # hoy
   1492      1   5  0.425000    15.713351134    23.196472860    16.251634711   0   0   0 # hoy
   1493      1   5  0.425000    15.861347761    26.191540873    16.237367551   0   0   0 # hoy
   1494      1   5  0.425000    15.781246022    20.052781686    16.365772321   0   0   0 # hoy
   1495      1   1  1.575000    13.284785601    22.285727450    10.693491715   0   0   0 # aoy
   1496      1   1  1.575000    13.140290353    25.187524522    10.829025502   0   0   0 # aoy
   1497      1   1  1.575000    10.579049371    26.685165979    10.693487780   0   0   0 # aoy
   1498      1   1  1.575000    10.724956372    20.732256632    10.764826499   0   0   0 # aoy
   1499      1   2  2.100000    14.000094348    20.991065170    13.646707596   0   0   0 # sty
   1500      1   2  2.100000    13.940039449    23.675326663    13.432706657   0   0   0 # sty
   1501      1   2  2.100000    11.544046184    25.385653735    13.504040632   0   0   0 # sty
   1502      1   2  2.100000    11.454597841    19.486156985    13.568239485   0   0   0 # sty
   1503      1   3 -1.050000    14.234629793    20.867676232    11.856233070   0   0   0 # oby
   1504      1   3 -1.050000    13.996194082    23.724272362    11.977500686   0   0   0 # oby
   1505      1   3 -1.050000    13.733384395    22.254103245    14.238781482   0   0   0 # oby
   1506      1   3 -1.050000    12.842924328    19.855964055    14.188846526   0   0   0 # oby
   1507      1   3 -1.050000    12.925881242    24.759782656    14.295839867   0   0   0 # oby
   1508      1   3 -1.050000    11.534575769    25.350733544    11.948968256   0   0   0 # oby
   1509      1   3 -1.050000    11.276850014    19.213415223    11.856230246   0   0   0 # oby
   1510      1   3 -1.050000    11.352520308    17.916530137    14.217375027   0   0   0 # oby
   1511      1   3 -1.050000    10.284275096    24.359538397    13.832174008   0   0   0 # oby
   1512      1   3 -1.050000    10.232374988    20.231038432    14.174574398   0   0   0 # oby
   1513      1   4 -0.950000    14.188640536    26.455182089    11.820559589   0  -1   0 # ohy
   1514      1   4 -0.950000    10.060834251    19.306698722     9.879405188   0   0   0 # ohy
   1515      1   4 -0.950000    14.671544425    21.900191888     9.873154713   0   0   0 # ohy
   1516      1   4 -0.950000    14.800002793    25.276862749     9.773288001   0   0   0 # ohy
   1517      1   4 -0.950000    11.663402983    21.995082439    11.877626716   0   0   0 # ohy
   1518      1   4 -0.950000    12.635992883    23.642426134     9.830350045   0   0   0 # ohy
   1519      1   4 -0.950000    12.243690314    26.453583908     9.930216892   0   0   0 # ohy
   1520      1   4 -0.950000    12.334622464    21.041774501     9.873156364   0   0   0 # ohy
   1521      1   5  0.425000     9.539993701    19.409576664     8.959193641   0   0   0 # hoy
   1522      1   5  0.425000    15.183409233    22.416586296     9.017152505   0   0   0 # hoy
   1523      1   5  0.425000    15.141324655    25.204056429     8.945810015   0   0   0 # hoy
   1524      1   5  0.425000    11.128048011    22.758805138    12.248566173   0   0   0 # hoy
   1525      1   5  0.425000    12.373721545    23.494928136     8.910147627   0   0   0 # hoy
   1526      1   5  0.425000    12.521718172    26.489996149     8.895880467   0   0   0 # hoy
   1527      1   5  0.425000    12.441616433    20.351236962     9.024285237   0   0   0 # hoy
   1528      1   1  1.575000    15.189239292    21.987272174     3.568917495   0   0   0 # aoy
   1529      1   1  1.575000    15.044744044    24.889069246     3.704451282   0   0   0 # aoy
   1530      1   1  1.575000    12.483503062    26.386710703     3.568913560   0   0   0 # aoy
   1531      1   1  1.575000    12.629410063    20.433801356     3.640252279   0   0   0 # aoy
   1532      1   2  2.100000    15.904548039    20.692609894     6.522133376   0   0   0 # sty
   1533      1   2  2.100000    15.844493140    23.376871387     6.308132437   0   0   0 # sty
   1534      1   2  2.100000    13.448499875    25.087198459     6.379466412   0   0   0 # sty
   1535      1   2  2.100000    13.359051532    19.187701709     6.443665265   0   0   0 # sty
   1536      1   3 -1.050000    16.139083484    20.569220956     4.731658850   0   0   0 # oby
   1537      1   3 -1.050000    15.900647773    23.425817086     4.852926466   0   0   0 # oby
   1538      1   3 -1.050000    15.637838086    21.955647969     7.114207262   0   0   0 # oby
   1539      1   3 -1.050000    14.747378019    19.557508779     7.064272306   0   0   0 # oby
   1540      1   3 -1.050000    14.830334933    24.461327380     7.171265647   0   0   0 # oby
   1541      1   3 -1.050000    13.439029460    25.052278268     4.824394036   0   0   0 # oby
   1542      1   3 -1.050000    13.181303705    18.914959947     4.731656026   0   0   0 # oby
   1543      1   3 -1.050000    13.256973999    17.618074861     7.092800807   0   0   0 # oby
   1544      1   3 -1.050000    12.188728787    24.061083121     6.707599788   0   0   0 # oby
   1545      1   3 -1.050000    12.136828679    19.932583156     7.050000178   0   0   0 # oby
   1546      1   4 -0.950000    16.093094227    26.156726813     4.695985369   0   0   0 # ohy
   1547      1   4 -0.950000    11.965287942    19.008243446     2.754830968   0   0   0 # ohy
   1548      1   4 -0.950000    16.575998116    21.601736612     2.748580493   0   0   0 # ohy
   1549      1   4 -0.950000    16.704456484    24.978407473     2.648713781   0   0   0 # ohy
   1550      1   4 -0.950000    13.567856674    21.696627163     4.753052496   0   0   0 # ohy
   1551      1   4 -0.950000    14.540446574    23.343970858     2.705775825   0   0   0 # ohy
   1552      1   4 -0.950000    14.148144005    26.155128632     2.805642672   0   0   0 # ohy
   1553      1   4 -0.950000    14.239076155    20.743319225     2.748582144   0   0   0 # ohy
   1554      1   5  0.425000    11.444447392    19.111121388     1.834619421   0   0   0 # hoy
   1555      1   5  0.425000    17.087862924    22.118131020     1.892578285   0   0   0 # hoy
   1556      1   5  0.425000    17.045778346    24.905601153     1.821235795   0   0   0 # hoy
   1557      1   5  0.425000    13.032501702    22.460349862     5.123991953   0   0   0 # hoy
   1558      1   5  0.425000    14.278175236    23.196472860     1.785573407   0   0   0 # hoy
   1559      1   5  0.425000    14.426171863    26.191540873     1.771306247   0   0   0 # hoy
   1560      1   5  0.425000    14.346070124    20.052781686     1.899711017   0   0   0 # hoy
   1561      1   1  1.575000     9.565961499    22.285727450    25.159553019   0   0   0 # aoy
   1562      1   1  1.575000     9.421466251    25.187524522    25.295086806   0   0   0 # aoy
   1563      1   1  1.575000     6.860225269    26.685165979    25.159549084   0   0   0 # aoy
   1564      1   1  1.575000     7.006132270    20.732256632    25.230887803   0   0   0 # aoy
   1565      1   2  2.100000    10.281270246    20.991065170    28.112768900   0   0   0 # sty
   1566      1   2  2.100000    10.221215347    23.675326663    27.898767961   0   0   0 # sty
   1567      1   2  2.100000     7.825222082    25.385653735    27.970101936   0   0   0 # sty
   1568      1   2  2.100000     7.735773739    19.486156985    28.034300789   0   0   0 # sty
   1569      1   3 -1.050000    10.515805691    20.867676232    26.322294374   0   0   0 # oby
   1570      1   3 -1.050000    10.277369980    23.724272362    26.443561990   0   0   0 # oby
   1571      1   3 -1.050000    10.014560293    22.254103245    28.704842786   0   0   0 # oby
   1572      1   3 -1.050000     9.124100226    19.855964055    28.654907830   0   0   0 # oby
   1573      1   3 -1.050000     9.207057140    24.759782656    28.761901171   0   0   0 # oby
   1574      1   3 -1.050000     7.815751667    25.350733544    26.415029560   0   0   0 # oby
   1575      1   3 -1.050000     7.558025912    19.213415223    26.322291550   0   0   0 # oby
   1576      1   3 -1.050000     7.633696206    17.916530137    28.683436331   0   0   0 # oby
   1577      1   3 -1.050000     6.565450994    24.359538397    28.298235312   0   0   0 # oby
   1578      1   3 -1.050000     6.513550886    20.231038432    28.640635702   0   0   0 # oby
   1579      1   4 -0.950000    10.469816434    26.455182089    26.286620893   0  -1   0 # ohy
   1580      1   4 -0.950000     6.342010149    19.306698722    24.345466492   0   0   0 # ohy
   1581      1   4 -0.950000    10.952720323    21.900191888    24.339216017   0   0   0 # ohy
   1582      1   4 -0.950000    11.081178691    25.276862749    24.239349305   0   0   0 # ohy
   1583      1   4 -0.950000     7.944578881    21.995082439    26.343688020   0   0   0 # ohy
   1584      1   4 -0.950000     8.917168781    23.642426134    24.296411349   0   0   0 # ohy
   1585      1   4 -0.950000     8.524866212    26.453583908    24.396278196   0   0   0 # ohy
   1586      1   4 -0.950000     8.615798362    21.041774501    24.339217668   0   0   0 # ohy
   1587      1   5  0.425000     5.821169599    19.409576664    23.425254945   0   0   0 # hoy
   1588      1   5  0.425000    11.464585131    22.416586296    23.483213809   0   0   0 # hoy
   1589      1   5  0.425000    11.422500553    25.204056429    23.411871319   0   0   0 # hoy
   1590      1   5  0.425000     7.409223909    22.758805138    26.714627477   0   0   0 # hoy
   1591      1   5  0.425000     8.654897443    23.494928136    23.376208931   0   0   0 # hoy
   1592      1   5  0.425000     8.802894070    26.489996149    23.361941771   0   0   0 # hoy
   1593      1   5  0.425000     8.722792331    20.351236962    23.490346541   0   0   0 # hoy
   1594      1   1  1.575000    11.470415190    21.987272174    18.034978799   0   0   0 # aoy
   1595      1   1  1.575000    11.325919942    24.889069246    18.170512586   0   0   0 # aoy
   1596      1   1  1.575000     8.764678960    26.386710703    18.034974864   0   0   0 # aoy
   1597      1   1  1.575000     8.910585961    20.433801356    18.106313583   0   0   0 # aoy
   1598      1   2  2.100000    12.185723937    20.692609894    20.988194680   0   0   0 # sty
   1599      1   2  2.100000    12.125669038    23.376871387    20.774193741   0   0   0 # sty
   1600      1   2  2.100000     9.729675773    25.087198459    20.845527716   0   0   0 # sty
   1601      1   2  2.100000     9.640227430    19.187701709    20.909726569   0   0   0 # sty
   1602      1   3 -1.050000    12.420259382    20.569220956    19.197720154   0   0   0 # oby
   1603      1   3 -1.050000    12.181823671    23.425817086    19.318987770   0   0   0 # oby
   1604      1   3 -1.050000    11.919013984    21.955647969    21.580268566   0   0   0 # oby
   1605      1   3 -1.050000    11.028553917    19.557508779    21.530333610   0   0   0 # oby
   1606      1   3 -1.050000    11.111510831    24.461327380    21.637326951   0   0   0 # oby
   1607      1   3 -1.050000     9.720205358    25.052278268    19.290455340   0   0   0 # oby
   1608      1   3 -1.050000     9.462479603    18.914959947    19.197717330   0   0   0 # oby
   1609      1   3 -1.050000     9.538149897    17.618074861    21.558862111   0   0   0 # oby
   1610      1   3 -1.050000     8.469904685    24.061083121    21.173661092   0   0   0 # oby
   1611      1   3 -1.050000     8.418004577    19.932583156    21.516061482   0   0   0 # oby
   1612      1   4 -0.950000    12.374270125    26.156726813    19.162046673   0   0   0 # ohy
   1613      1   4 -0.950000     8.246463840    19.008243446    17.220892272   0   0   0 # ohy
   1614      1   4 -0.950000    12.857174014    21.601736612    17.214641797   0   0   0 # ohy
   1615      1   4 -0.950000    12.985632382    24.978407473    17.114775085   0   0   0 # ohy
   1616      1   4 -0.950000     9.849032572    21.696627163    19.219113800   0   0   0 # ohy
   1617      1   4 -0.950000    10.821622472    23.343970858    17.171837129   0   0   0 # ohy
   1618      1   4 -0.950000    10.429319903    26.155128632    17.271703976   0   0   0 # ohy
   1619      1   4 -0.950000    10.520252053    20.743319225    17.214643448   0   0   0 # ohy
   1620      1   5  0.425000     7.725623290    19.111121388    16.300680725   0   0   0 # hoy
   1621      1   5  0.425000    13.369038822    22.118131020    16.358639589   0   0   0 # hoy
   1622      1   5  0.425000    13.326954244    24.905601153    16.287297099   0   0   0 # hoy
   1623      1   5  0.425000     9.313677600    22.460349862    19.590053257   0   0   0 # hoy
   1624      1   5  0.425000    10.559351134    23.196472860    16.251634711   0   0   0 # hoy
   1625      1   5  0.425000    10.707347761    26.191540873    16.237367551   0   0   0 # hoy
   1626      1   5  0.425000    10.627246022    20.052781686    16.365772321   0   0   0 # hoy
   1627      1   1  1.575000     8.130785601    22.285727450    10.693491715   0   0   0 # aoy
   1628      1   1  1.575000     7.986290353    25.187524522    10.829025502   0   0   0 # aoy
   1629      1   1  1.575000     5.425049371    26.685165979    10.693487780   0   0   0 # aoy
   1630      1   1  1.575000     5.570956372    20.732256632    10.764826499   0   0   0 # aoy
   1631      1   2  2.100000     8.846094348    20.991065170    13.646707596   0   0   0 # sty
   1632      1   2  2.100000     8.786039449    23.675326663    13.432706657   0   0   0 # sty
   1633      1   2  2.100000     6.390046184    25.385653735    13.504040632   0   0   0 # sty
   1634      1   2  2.100000     6.300597841    19.486156985    13.568239485   0   0   0 # sty
   1635      1   3 -1.050000     9.080629793    20.867676232    11.856233070   0   0   0 # oby
   1636      1   3 -1.050000     8.842194082    23.724272362    11.977500686   0   0   0 # oby
   1637      1   3 -1.050000     8.579384395    22.254103245    14.238781482   0   0   0 # oby
   1638      1   3 -1.050000     7.688924328    19.855964055    14.188846526   0   0   0 # oby
   1639      1   3 -1.050000     7.771881242    24.759782656    14.295839867   0   0   0 # oby
   1640      1   3 -1.050000     6.380575769    25.350733544    11.948968256   0   0   0 # oby
   1641      1   3 -1.050000     6.122850014    19.213415223    11.856230246   0   0   0 # oby
   1642      1   3 -1.050000     6.198520308    17.916530137    14.217375027   0   0   0 # oby
   1643      1   3 -1.050000     5.130275096    24.359538397    13.832174008   0   0   0 # oby
   1644      1   3 -1.050000     5.078374988    20.231038432    14.174574398   0   0   0 # oby
   1645      1   4 -0.950000     9.034640536    26.455182089    11.820559589   0  -1   0 # ohy
   1646      1   4 -0.950000     4.906834251    19.306698722     9.879405188   0   0   0 # ohy
   1647      1   4 -0.950000     9.517544425    21.900191888     9.873154713   0   0   0 # ohy
   1648      1   4 -0.950000     9.646002793    25.276862749     9.773288001   0   0   0 # ohy
   1649      1   4 -0.950000     6.509402983    21.995082439    11.877626716   0   0   0 # ohy
   1650      1   4 -0.950000     7.481992883    23.642426134     9.830350045   0   0   0 # ohy
   1651      1   4 -0.950000     7.089690314    26.453583908     9.930216892   0   0   0 # ohy
   1652      1   4 -0.950000     7.180622464    21.041774501     9.873156364   0   0   0 # ohy
   1653      1   5  0.425000     4.385993701    19.409576664     8.959193641   0   0   0 # hoy
   1654      1   5  0.425000    10.029409233    22.416586296     9.017152505   0   0   0 # hoy
   1655      1   5  0.425000     9.987324655    25.204056429     8.945810015   0   0   0 # hoy
   1656      1   5  0.425000     5.974048011    22.758805138    12.248566173   0   0   0 # hoy
   1657      1   5  0.425000     7.219721545    23.494928136     8.910147627   0   0   0 # hoy
   1658      1   5  0.425000     7.367718172    26.489996149     8.895880467   0   0   0 # hoy
   1659      1   5  0.425000     7.287616433    20.351236962     9.024285237   0   0   0 # hoy
   1660      1   1  1.575000    10.035239292    21.987272174     3.568917495   0   0   0 # aoy
   1661      1   1  1.575000     9.890744044    24.889069246     3.704451282   0   0   0 # aoy
   1662      1   1  1.575000     7.329503062    26.386710703     3.568913560   0   0   0 # aoy
   1663      1   1  1.575000     7.475410063    20.433801356     3.640252279   0   0   0 # aoy
   1664      1   2  2.100000    10.750548039    20.692609894     6.522133376   0   0   0 # sty
   1665      1   2  2.100000    10.690493140    23.376871387     6.308132437   0   0   0 # sty
   1666      1   2  2.100000     8.294499875    25.087198459     6.379466412   0   0   0 # sty
   1667      1   2  2.100000     8.205051532    19.187701709     6.443665265   0   0   0 # sty
   1668      1   3 -1.050000    10.985083484    20.569220956     4.731658850   0   0   0 # oby
   1669      1   3 -1.050000    10.746647773    23.425817086     4.852926466   0   0   0 # oby
   1670      1   3 -1.050000    10.483838086    21.955647969     7.114207262   0   0   0 # oby
   1671      1   3 -1.050000     9.593378019    19.557508779     7.064272306   0   0   0 # oby
   1672      1   3 -1.050000     9.676334933    24.461327380     7.171265647   0   0   0 # oby
   1673      1   3 -1.050000     8.285029460    25.052278268     4.824394036   0   0   0 # oby
   1674      1   3 -1.050000     8.027303705    18.914959947     4.731656026   0   0   0 # oby
   1675      1   3 -1.050000     8.102973999    17.618074861     7.092800807   0   0   0 # oby
   1676      1   3 -1.050000     7.034728787    24.061083121     6.707599788   0   0   0 # oby
   1677      1   3 -1.050000     6.982828679    19.932583156     7.050000178   0   0   0 # oby
   1678      1   4 -0.950000    10.939094227    26.156726813     4.695985369   0   0   0 # ohy
   1679      1   4 -0.950000     6.811287942    19.008243446     2.754830968   0   0   0 # ohy
   1680      1   4 -0.950000    11.421998116    21.601736612     2.748580493   0   0   0 # ohy
   1681      1   4 -0.950000    11.550456484    24.978407473     2.648713781   0   0   0 # ohy
   1682      1   4 -0.950000     8.413856674    21.696627163     4.753052496   0   0   0 # ohy
   1683      1   4 -0.950000     9.386446574    23.343970858     2.705775825   0   0   0 # ohy
   1684      1   4 -0.950000     8.994144005    26.155128632     2.805642672   0   0   0 # ohy
   1685      1   4 -0.950000     9.085076155    20.743319225     2.748582144   0   0   0 # ohy
   1686      1   5  0.425000     6.290447392    19.111121388     1.834619421   0   0   0 # hoy
   1687      1   5  0.425000    11.933862924    22.118131020     1.892578285   0   0   0 # hoy
   1688      1   5  0.425000    11.891778346    24.905601153     1.821235795   0   0   0 # hoy
   1689      1   5  0.425000     7.878501702    22.460349862     5.123991953   0   0   0 # hoy
   1690      1   5  0.425000     9.124175236    23.196472860     1.785573407   0   0   0 # hoy
   1691      1   5  0.425000     9.272171863    26.191540873     1.771306247   0   0   0 # hoy
   1692      1   5  0.425000     9.192070124    20.052781686     1.899711017   0   0   0 # hoy
   1693      1   1  1.575000     4.411961499    22.285727450    25.159553019   0   0   0 # aoy
   1694      1   1  1.575000     4.267466251    25.187524522    25.295086806   0   0   0 # aoy
   1695      1   1  1.575000     1.706225269    26.685165979    25.159549084   0   0   0 # aoy
   1696      1   1  1.575000     1.852132270    20.732256632    25.230887803   0   0   0 # aoy
   1697      1   2  2.100000     5.127270246    20.991065170    28.112768900   0   0   0 # sty
   1698      1   2  2.100000     5.067215347    23.675326663    27.898767961   0   0   0 # sty
   1699      1   2  2.100000     2.671222082    25.385653735    27.970101936   0   0   0 # sty
   1700      1   2  2.100000     2.581773739    19.486156985    28.034300789   0   0   0 # sty
   1701      1   3 -1.050000     5.361805691    20.867676232    26.322294374   0   0   0 # oby
   1702      1   3 -1.050000     5.123369980    23.724272362    26.443561990   0   0   0 # oby
   1703      1   3 -1.050000     4.860560293    22.254103245    28.704842786   0   0   0 # oby
   1704      1   3 -1.050000     3.970100226    19.855964055    28.654907830   0   0   0 # oby
   1705      1   3 -1.050000     4.053057140    24.759782656    28.761901171   0   0   0 # oby
   1706      1   3 -1.050000     2.661751667    25.350733544    26.415029560   0   0   0 # oby
   1707      1   3 -1.050000     2.404025912    19.213415223    26.322291550   0   0   0 # oby
   1708      1   3 -1.050000     2.479696206    17.916530137    28.683436331   0   0   0 # oby
   1709      1   3 -1.050000     1.411450994    24.359538397    28.298235312   0   0   0 # oby
   1710      1   3 -1.050000     1.359550886    20.231038432    28.640635702   0   0   0 # oby
   1711      1   4 -0.950000     5.315816434    26.455182089    26.286620893   0  -1   0 # ohy
   1712      1   4 -0.950000     5.798720323    21.900191888    24.339216017   0   0   0 # ohy
   1713      1   4 -0.950000     5.927178691    25.276862749    24.239349305   0   0   0 # ohy
   1714      1   4 -0.950000     2.790578881    21.995082439    26.343688020   0   0   0 # ohy
   1715      1   4 -0.950000     3.763168781    23.642426134    24.296411349   0   0   0 # ohy
   1716      1   4 -0.950000     3.370866212    26.453583908    24.396278196   0   0   0 # ohy
   1717      1   4 -0.950000     3.461798362    21.041774501    24.339217668   0   0   0 # ohy
   1718      1   5  0.425000     6.310585131    22.416586296    23.483213809   0   0   0 # hoy
   1719      1   5  0.425000     6.268500553    25.204056429    23.411871319   0   0   0 # hoy
   1720      1   5  0.425000     2.255223909    22.758805138    26.714627477   0   0   0 # hoy
   1721      1   5  0.425000     3.500897443    23.494928136    23.376208931   0   0   0 # hoy
   1722      1   5  0.425000     3.648894070    26.489996149    23.361941771   0   0   0 # hoy
   1723      1   5  0.425000     3.568792331    20.351236962    23.490346541   0   0   0 # hoy
   1724      1   1  1.575000     6.316415190    21.987272174    18.034978799   0   0   0 # aoy
   1725      1   1  1.575000     6.171919942    24.889069246    18.170512586   0   0   0 # aoy
   1726      1   1  1.575000     3.610678960    26.386710703    18.034974864   0   0   0 # aoy
   1727      1   1  1.575000     3.756585961    20.433801356    18.106313583   0   0   0 # aoy
   1728      1   2  2.100000     7.031723937    20.692609894    20.988194680   0   0   0 # sty
   1729      1   2  2.100000     6.971669038    23.376871387    20.774193741   0   0   0 # sty
   1730      1   2  2.100000     4.575675773    25.087198459    20.845527716   0   0   0 # sty
   1731      1   2  2.100000     4.486227430    19.187701709    20.909726569   0   0   0 # sty
   1732      1   3 -1.050000     7.266259382    20.569220956    19.197720154   0   0   0 # oby
   1733      1   3 -1.050000     7.027823671    23.425817086    19.318987770   0   0   0 # oby
   1734      1   3 -1.050000     6.765013984    21.955647969    21.580268566   0   0   0 # oby
   1735      1   3 -1.050000     5.874553917    19.557508779    21.530333610   0   0   0 # oby
   1736      1   3 -1.050000     5.957510831    24.461327380    21.637326951   0   0   0 # oby
   1737      1   3 -1.050000     4.566205358    25.052278268    19.290455340   0   0   0 # oby
   1738      1   3 -1.050000     4.308479603    18.914959947    19.197717330   0   0   0 # oby
   1739      1   3 -1.050000     4.384149897    17.618074861    21.558862111   0   0   0 # oby
   1740      1   3 -1.050000     3.315904685    24.061083121    21.173661092   0   0   0 # oby
   1741      1   3 -1.050000     3.264004577    19.932583156    21.516061482   0   0   0 # oby
   1742      1   4 -0.950000     7.220270125    26.156726813    19.162046673   0   0   0 # ohy
   1743      1   4 -0.950000     7.703174014    21.601736612    17.214641797   0   0   0 # ohy
   1744      1   4 -0.950000     7.831632382    24.978407473    17.114775085   0   0   0 # ohy
   1745      1   4 -0.950000     4.695032572    21.696627163    19.219113800   0   0   0 # ohy
   1746      1   4 -0.950000     5.667622472    23.343970858    17.171837129   0   0   0 # ohy
   1747      1   4 -0.950000     5.275319903    26.155128632    17.271703976   0   0   0 # ohy
   1748      1   4 -0.950000     5.366252053    20.743319225    17.214643448   0   0   0 # ohy
   1749      1   5  0.425000     8.215038822    22.118131020    16.358639589   0   0   0 # hoy
   1750      1   5  0.425000     8.172954244    24.905601153    16.287297099   0   0   0 # hoy
   1751      1   5  0.425000     4.159677600    22.460349862    19.590053257   0   0   0 # hoy
   1752      1   5  0.425000     5.405351134    23.196472860    16.251634711   0   0   0 # hoy
   1753      1   5  0.425000     5.553347761    26.191540873    16.237367551   0   0   0 # hoy
   1754      1   5  0.425000     5.473246022    20.052781686    16.365772321   0   0   0 # hoy
   1755      1   1  1.575000     2.976785601    22.285727450    10.693491715   0   0   0 # aoy
   1756      1   1  1.575000     2.832290353    25.187524522    10.829025502   0   0   0 # aoy
   1757      1   1  1.575000     0.271049371    26.685165979    10.693487780   0   0   0 # aoy
   1758      1   1  1.575000     0.416956372    20.732256632    10.764826499   0   0   0 # aoy
   1759      1   2  2.100000     3.692094348    20.991065170    13.646707596   0   0   0 # sty
   1760      1   2  2.100000     3.632039449    23.675326663    13.432706657   0   0   0 # sty
   1761      1   2  2.100000     1.236046184    25.385653735    13.504040632   0   0   0 # sty
   1762      1   2  2.100000     1.146597841    19.486156985    13.568239485   0   0   0 # sty
   1763      1   3 -1.050000     3.926629793    20.867676232    11.856233070   0   0   0 # oby
   1764      1   3 -1.050000     3.688194082    23.724272362    11.977500686   0   0   0 # oby
   1765      1   3 -1.050000     3.425384395    22.254103245    14.238781482   0   0   0 # oby
   1766      1   3 -1.050000     2.534924328    19.855964055    14.188846526   0   0   0 # oby
   1767      1   3 -1.050000     2.617881242    24.759782656    14.295839867   0   0   0 # oby
   1768      1   3 -1.050000     1.226575769    25.350733544    11.948968256   0   0   0 # oby
   1769      1   3 -1.050000     0.968850014    19.213415223    11.856230246   0   0   0 # oby
   1770      1   3 -1.050000     1.044520308    17.916530137    14.217375027   0   0   0 # oby
   1771      1   3 -1.050000    25.746275096    24.359538397    13.832174008   0   0   0 # oby
   1772      1   3 -1.050000    25.694374988    20.231038432    14.174574398   0   0   0 # oby
   1773      1   4 -0.950000     3.880640536    26.455182089    11.820559589   0  -1   0 # ohy
   1774      1   4 -0.950000     4.363544425    21.900191888     9.873154713   0   0   0 # ohy
   1775      1   4 -0.950000     4.492002793    25.276862749     9.773288001   0   0   0 # ohy
   1776      1   4 -0.950000     1.355402983    21.995082439    11.877626716   0   0   0 # ohy
   1777      1   4 -0.950000     2.327992883    23.642426134     9.830350045   0   0   0 # ohy
   1778      1   4 -0.950000     1.935690314    26.453583908     9.930216892   0   0   0 # ohy
   1779      1   4 -0.950000     2.026622464    21.041774501     9.873156364   0   0   0 # ohy
   1780      1   5  0.425000     4.875409233    22.416586296     9.017152505   0   0   0 # hoy
   1781      1   5  0.425000     4.833324655    25.204056429     8.945810015   0   0   0 # hoy
   1782      1   5  0.425000     0.820048011    22.758805138    12.248566173   0   0   0 # hoy
   1783      1   5  0.425000     2.065721545    23.494928136     8.910147627   0   0   0 # hoy
   1784      1   5  0.425000     2.213718172    26.489996149     8.895880467   0   0   0 # hoy
   1785      1   5  0.425000     2.133616433    20.351236962     9.024285237   0   0   0 # hoy
   1786      1   1  1.575000     4.881239292    21.987272174     3.568917495   0   0   0 # aoy
   1787      1   1  1.575000     4.736744044    24.889069246     3.704451282   0   0   0 # aoy
   1788      1   1  1.575000     2.175503062    26.386710703     3.568913560   0   0   0 # aoy
   1789      1   1  1.575000     2.321410063    20.433801356     3.640252279   0   0   0 # aoy
   1790      1   2  2.100000     5.596548039    20.692609894     6.522133376   0   0   0 # sty
   1791      1   2  2.100000     5.536493140    23.376871387     6.308132437   0   0   0 # sty
   1792      1   2  2.100000     3.140499875    25.087198459     6.379466412   0   0   0 # sty
   1793      1   2  2.100000     3.051051532    19.187701709     6.443665265   0   0   0 # sty
   1794      1   3 -1.050000     5.831083484    20.569220956     4.731658850   0   0   0 # oby
   1795      1   3 -1.050000     5.592647773    23.425817086     4.852926466   0   0   0 # oby
   1796      1   3 -1.050000     5.329838086    21.955647969     7.114207262   0   0   0 # oby
   1797      1   3 -1.050000     4.439378019    19.557508779     7.064272306   0   0   0 # oby
   1798      1   3 -1.050000     4.522334933    24.461327380     7.171265647   0   0   0 # oby
   1799      1   3 -1.050000     3.131029460    25.052278268     4.824394036   0   0   0 # oby
   1800      1   3 -1.050000     2.873303705    18.914959947     4.731656026   0   0   0 # oby
   1801      1   3 -1.050000     2.948973999    17.618074861     7.092800807   0   0   0 # oby
   1802      1   3 -1.050000     1.880728787    24.061083121     6.707599788   0   0   0 # oby
   1803      1   3 -1.050000     1.828828679    19.932583156     7.050000178   0   0   0 # oby
   1804      1   4 -0.950000     5.785094227    26.156726813     4.695985369   0   0   0 # ohy
   1805      1   4 -0.950000     6.267998116    21.601736612     2.748580493   0   0   0 # ohy
   1806      1   4 -0.950000     6.396456484    24.978407473     2.648713781   0   0   0 # ohy
   1807      1   4 -0.950000     3.259856674    21.696627163     4.753052496   0   0   0 # ohy
   1808      1   4 -0.950000     4.232446574    23.343970858     2.705775825   0   0   0 # ohy
   1809      1   4 -0.950000     3.840144005    26.155128632     2.805642672   0   0   0 # ohy
   1810      1   4 -0.950000     3.931076155    20.743319225     2.748582144   0   0   0 # ohy
   1811      1   5  0.425000     6.779862924    22.118131020     1.892578285   0   0   0 # hoy
   1812      1   5  0.425000     6.737778346    24.905601153     1.821235795   0   0   0 # hoy
   1813      1   5  0.425000     2.724501702    22.460349862     5.123991953   0   0   0 # hoy
   1814      1   5  0.425000     3.970175236    23.196472860     1.785573407   0   0   0 # hoy
   1815      1   5  0.425000     4.118171863    26.191540873     1.771306247   0   0   0 # hoy
   1816      1   5  0.425000     4.038070124    20.052781686     1.899711017   0   0   0 # hoy
   1817      2   3 -1.050000    25.062576707    26.560183816    21.558862111   0   0   0 # oby
   1818      3   3 -1.050000    23.627400809    26.560183816     7.092800807   0   0   0 # oby
   1819      4   3 -1.050000    19.908576707    26.560183816    21.558862111   0   0   0 # oby
   1820      5   3 -1.050000    18.473400809    26.560183816     7.092800807   0   0   0 # oby
   1821      6   3 -1.050000    14.754576707    26.560183816    21.558862111   0   0   0 # oby
   1822      7   3 -1.050000    13.319400809    26.560183816     7.092800807   0   0   0 # oby
   1823      8   3 -1.050000     9.600576707    26.560183816    21.558862111   0   0   0 # oby
   1824      9   3 -1.050000     8.165400809    26.560183816     7.092800807   0   0   0 # oby
   1825     10   3 -1.050000     4.446576707    26.560183816    21.558862111   0   0   0 # oby
   1826     11   3 -1.050000     3.011400809    26.560183816     7.092800807   0   0   0 # oby
   1827     12   1  1.575000    25.059174904    13.343781927    25.159553019   0   0   0 # aoy
   1828     12   1  1.575000    24.914679656    16.245578999    25.295086806   0   0   0 # aoy
   1829     12   1  1.575000    22.353438674    17.743220456    25.159549084   0   0   0 # aoy
   1830     12   1  1.575000    22.499345675    11.790311109    25.230887803   0   0   0 # aoy
   1831     12   2  2.100000    25.774483651    12.049119647    28.112768900   0   0   0 # sty
   1832     12   2  2.100000    25.714428752    14.733381140    27.898767961   0   0   0 # sty
   1833     12   2  2.100000    23.318435487    16.443708212    27.970101936   0   0   0 # sty
   1834     12   2  2.100000    23.228987144    10.544211462    28.034300789   0   0   0 # sty
   1835     12   3 -1.050000     0.239019096    11.925730709    26.322294374   1   0   0 # oby
   1836     12   3 -1.050000    25.770583385    14.782326839    26.443561990   0   0   0 # oby
   1837     12   3 -1.050000    25.507773698    13.312157722    28.704842786   0   0   0 # oby
   1838     12   3 -1.050000    24.617313631    10.914018532    28.654907830   0   0   0 # oby
   1839     12   3 -1.050000    24.700270545    15.817837133    28.761901171   0   0   0 # oby
   1840     12   3 -1.050000    23.308965072    16.408788021    26.415029560   0   0   0 # oby
   1841     12   3 -1.050000    23.051239317    10.271469700    26.322291550   0   0   0 # oby
   1842     12   3 -1.050000    23.126909611     8.974584614    28.683436331   0   0   0 # oby
   1843     12   3 -1.050000    22.058664399    15.417592874    28.298235312   0   0   0 # oby
   1844     12   3 -1.050000    22.006764291    11.289092909    28.640635702   0   0   0 # oby
   1845     12   4 -0.950000     0.193029839    17.513236566    26.286620893   1   0   0 # ohy
   1846     12   4 -0.950000    21.835223554    10.364753199    24.345466492   0   0   0 # ohy
   1847     12   4 -0.950000    23.437792286    13.053136916    26.343688020   0   0   0 # ohy
   1848     12   4 -0.950000    24.410382186    14.700480611    24.296411349   0   0   0 # ohy
   1849     12   4 -0.950000    24.018079617    17.511638385    24.396278196   0   0   0 # ohy
   1850     12   4 -0.950000    24.109011767    12.099828978    24.339217668   0   0   0 # ohy
   1851     12   5  0.425000    25.366602620    18.444455940    26.058374710   0   0   0 # hoy
   1852     12   5  0.425000    21.314383004    10.467631141    23.425254945   0   0   0 # hoy
   1853     12   5  0.425000    22.902437314    13.816859615    26.714627477   0   0   0 # hoy
   1854     12   5  0.425000    24.148110848    14.552982613    23.376208931   0   0   0 # hoy
   1855     12   5  0.425000    24.296107475    17.548050626    23.361941771   0   0   0 # hoy
   1856     12   5  0.425000    24.216005736    11.409291439    23.490346541   0   0   0 # hoy
   1857     13   1  1.575000     1.193628595    13.045326651    18.034978799   0   0   0 # aoy
   1858     13   1  1.575000     1.049133347    15.947123723    18.170512586   0   0   0 # aoy
   1859     13   2  2.100000     1.908937342    11.750664371    20.988194680   0   0   0 # sty
   1860     13   2  2.100000     1.848882443    14.434925864    20.774193741   0   0   0 # sty
   1861     13   3 -1.050000     2.143472787    11.627275433    19.197720154   0   0   0 # oby
   1862     13   3 -1.050000     1.905037076    14.483871563    19.318987770   0   0   0 # oby
   1863     13   3 -1.050000     1.642227389    13.013702446    21.580268566   0   0   0 # oby
   1864     13   3 -1.050000     0.751767322    10.615563256    21.530333610   0   0   0 # oby
   1865     13   3 -1.050000     0.834724236    15.519381857    21.637326951   0   0   0 # oby
   1866     13   4 -0.950000     2.097483530    17.214781290    19.162046673   0   0   0 # ohy
   1867     13   4 -0.950000     2.580387419    12.659791089    17.214641797   0   0   0 # ohy
   1868     13   4 -0.950000     2.708845787    16.036461950    17.114775085   0   0   0 # ohy
   1869     13   4 -0.950000     0.544835877    14.402025335    17.171837129   0   0   0 # ohy
   1870     13   5  0.425000     1.501056311    18.146000664    18.933800490   0   0   0 # hoy
   1871     13   5  0.425000     3.092252227    13.176185497    16.358639589   0   0   0 # hoy
   1872     13   5  0.425000     3.050167649    15.963655630    16.287297099   0   0   0 # hoy
   1873     13   5  0.425000     0.282564539    14.254527337    16.251634711   0   0   0 # hoy
   1874     13   5  0.425000     0.430561166    17.249595350    16.237367551   0   0   0 # hoy
   1875     13   5  0.425000     0.350459427    11.110836163    16.365772321   0   0   0 # hoy
   1876     14   1  1.575000    23.623999006    13.343781927    10.693491715   0   0   0 # aoy
   1877     14   1  1.575000    23.479503758    16.245578999    10.829025502   0   0   0 # aoy
   1878     14   1  1.575000    20.918262776    17.743220456    10.693487780   0   0   0 # aoy
   1879     14   1  1.575000    21.064169777    11.790311109    10.764826499   0   0   0 # aoy
   1880     14   2  2.100000    24.339307753    12.049119647    13.646707596   0   0   0 # sty
   1881     14   2  2.100000    24.279252854    14.733381140    13.432706657   0   0   0 # sty
   1882     14   2  2.100000    21.883259589    16.443708212    13.504040632   0   0   0 # sty
   1883     14   2  2.100000    21.793811246    10.544211462    13.568239485   0   0   0 # sty
   1884     14   3 -1.050000    24.573843198    11.925730709    11.856233070   0   0   0 # oby
   1885     14   3 -1.050000    24.335407487    14.782326839    11.977500686   0   0   0 # oby
   1886     14   3 -1.050000    24.072597800    13.312157722    14.238781482   0   0   0 # oby
   1887     14   3 -1.050000    23.182137733    10.914018532    14.188846526   0   0   0 # oby
   1888     14   3 -1.050000    23.265094647    15.817837133    14.295839867   0   0   0 # oby
   1889     14   3 -1.050000    21.873789174    16.408788021    11.948968256   0   0   0 # oby
   1890     14   3 -1.050000    21.616063419    10.271469700    11.856230246   0   0   0 # oby
   1891     14   3 -1.050000    21.691733713     8.974584614    14.217375027   0   0   0 # oby
   1892     14   3 -1.050000    20.623488501    15.417592874    13.832174008   0   0   0 # oby
   1893     14   3 -1.050000    20.571588393    11.289092909    14.174574398   0   0   0 # oby
   1894     14   4 -0.950000    24.527853941    17.513236566    11.820559589   0   0   0 # ohy
   1895     14   4 -0.950000    20.400047656    10.364753199     9.879405188   0   0   0 # ohy
   1896     14   4 -0.950000    22.002616388    13.053136916    11.877626716   0   0   0 # ohy
   1897     14   4 -0.950000    22.975206288    14.700480611     9.830350045   0   0   0 # ohy
   1898     14   4 -0.950000    22.582903719    17.511638385     9.930216892   0   0   0 # ohy
   1899     14   4 -0.950000    22.673835869    12.099828978     9.873156364   0   0   0 # ohy
   1900     14   5  0.425000    23.931426722    18.444455940    11.592313406   0   0   0 # hoy
   1901     14   5  0.425000    19.879207106    10.467631141     8.959193641   0   0   0 # hoy
   1902     14   5  0.425000    21.467261416    13.816859615    12.248566173   0   0   0 # hoy
   1903     14   5  0.425000    22.712934950    14.552982613     8.910147627   0   0   0 # hoy
   1904     14   5  0.425000    22.860931577    17.548050626     8.895880467   0   0   0 # hoy
   1905     14   5  0.425000    22.780829838    11.409291439     9.024285237   0   0   0 # hoy
   1906     15   1  1.575000    22.822716467    17.444765180     3.568913560   0   0   0 # aoy
   1907     15   1  1.575000    22.968623468    11.491855833     3.640252279   0   0   0 # aoy
   1908     15   2  2.100000    23.787713280    16.145252936     6.379466412   0   0   0 # sty
   1909     15   2  2.100000    23.698264937    10.245756186     6.443665265   0   0   0 # sty
   1910     15   3 -1.050000    23.778242865    16.110332745     4.824394036   0   0   0 # oby
   1911     15   3 -1.050000    23.520517110     9.973014424     4.731656026   0   0   0 # oby
   1912     15   3 -1.050000    23.596187404     8.676129338     7.092800807   0   0   0 # oby
   1913     15   3 -1.050000    22.527942192    15.119137598     6.707599788   0   0   0 # oby
   1914     15   3 -1.050000    22.476042084    10.990637633     7.050000178   0   0   0 # oby
   1915     15   4 -0.950000    22.304501347    10.066297923     2.754830968   0   0   0 # ohy
   1916     15   4 -0.950000    23.907070079    12.754681640     4.753052496   0   0   0 # ohy
   1917     15   4 -0.950000    24.487357410    17.213183109     2.805642672   0   0   0 # ohy
   1918     15   4 -0.950000    24.578289560    11.801373702     2.748582144   0   0   0 # ohy
   1919     15   5  0.425000    21.783660797    10.169175865     1.834619421   0   0   0 # hoy
   1920     15   5  0.425000    23.371715107    13.518404339     5.123991953   0   0   0 # hoy
   1921     16   4 -0.950000     0.675933728    12.958246365    24.339216017   0   0   0 # ohy
   1922     16   4 -0.950000     0.804392096    16.334917226    24.239349305   0   0   0 # ohy
   1923     16   5  0.425000     1.187798536    13.474640773    23.483213809   0   0   0 # hoy
   1924     16   5  0.425000     1.145713958    16.262110906    23.411871319   0   0   0 # hoy
   1925     17   4 -0.950000    25.010757830    12.958246365     9.873154713   0   0   0 # ohy
   1926     17   4 -0.950000    25.139216198    16.334917226     9.773288001   0   0   0 # ohy
   1927     17   5  0.425000    25.522622638    13.474640773     9.017152505   0   0   0 # hoy
   1928     17   5  0.425000    25.480538060    16.262110906     8.945810015   0   0   0 # hoy
   1929     18   1  1.575000    14.751174904    13.343781927    25.159553019   0   0   0 # aoy
   1930     18   1  1.575000    14.606679656    16.245578999    25.295086806   0   0   0 # aoy
   1931     18   1  1.575000    12.045438674    17.743220456    25.159549084   0   0   0 # aoy
   1932     18   1  1.575000    12.191345675    11.790311109    25.230887803   0   0   0 # aoy
   1933     18   2  2.100000    15.466483651    12.049119647    28.112768900   0   0   0 # sty
   1934     18   2  2.100000    15.406428752    14.733381140    27.898767961   0   0   0 # sty
   1935     18   2  2.100000    13.010435487    16.443708212    27.970101936   0   0   0 # sty
   1936     18   2  2.100000    12.920987144    10.544211462    28.034300789   0   0   0 # sty
   1937     18   3 -1.050000    15.701019096    11.925730709    26.322294374   0   0   0 # oby
   1938     18   3 -1.050000    15.462583385    14.782326839    26.443561990   0   0   0 # oby
   1939     18   3 -1.050000    15.199773698    13.312157722    28.704842786   0   0   0 # oby
   1940     18   3 -1.050000    14.309313631    10.914018532    28.654907830   0   0   0 # oby
   1941     18   3 -1.050000    14.392270545    15.817837133    28.761901171   0   0   0 # oby
   1942     18   3 -1.050000    13.000965072    16.408788021    26.415029560   0   0   0 # oby
   1943     18   3 -1.050000    12.743239317    10.271469700    26.322291550   0   0   0 # oby
   1944     18   3 -1.050000    12.818909611     8.974584614    28.683436331   0   0   0 # oby
   1945     18   3 -1.050000    11.750664399    15.417592874    28.298235312   0   0   0 # oby
   1946     18   3 -1.050000    11.698764291    11.289092909    28.640635702   0   0   0 # oby
   1947     18   4 -0.950000    15.655029839    17.513236566    26.286620893   0   0   0 # ohy
   1948     18   4 -0.950000    11.527223554    10.364753199    24.345466492   0   0   0 # ohy
   1949     18   4 -0.950000    16.137933728    12.958246365    24.339216017   0   0   0 # ohy
   1950     18   4 -0.950000    16.266392096    16.334917226    24.239349305   0   0   0 # ohy
   1951     18   4 -0.950000    13.129792286    13.053136916    26.343688020   0   0   0 # ohy
   1952     18   4 -0.950000    14.102382186    14.700480611    24.296411349   0   0   0 # ohy
   1953     18   4 -0.950000    13.710079617    17.511638385    24.396278196   0   0   0 # ohy
   1954     18   4 -0.950000    13.801011767    12.099828978    24.339217668   0   0   0 # ohy
   1955     18   5  0.425000    15.058602620    18.444455940    26.058374710   0   0   0 # hoy
   1956     18   5  0.425000    11.006383004    10.467631141    23.425254945   0   0   0 # hoy
   1957     18   5  0.425000    16.649798536    13.474640773    23.483213809   0   0   0 # hoy
   1958     18   5  0.425000    16.607713958    16.262110906    23.411871319   0   0   0 # hoy
   1959     18   5  0.425000    12.594437314    13.816859615    26.714627477   0   0   0 # hoy
   1960     18   5  0.425000    13.840110848    14.552982613    23.376208931   0   0   0 # hoy
   1961     18   5  0.425000    13.988107475    17.548050626    23.361941771   0   0   0 # hoy
   1962     18   5  0.425000    13.908005736    11.409291439    23.490346541   0   0   0 # hoy
   1963     19   1  1.575000    13.315999006    13.343781927    10.693491715   0   0   0 # aoy
   1964     19   1  1.575000    13.171503758    16.245578999    10.829025502   0   0   0 # aoy
   1965     19   1  1.575000    10.610262776    17.743220456    10.693487780   0   0   0 # aoy
   1966     19   1  1.575000    10.756169777    11.790311109    10.764826499   0   0   0 # aoy
   1967     19   2  2.100000    14.031307753    12.049119647    13.646707596   0   0   0 # sty
   1968     19   2  2.100000    13.971252854    14.733381140    13.432706657   0   0   0 # sty
   1969     19   2  2.100000    11.575259589    16.443708212    13.504040632   0   0   0 # sty
   1970     19   2  2.100000    11.485811246    10.544211462    13.568239485   0   0   0 # sty
   1971     19   3 -1.050000    14.265843198    11.925730709    11.856233070   0   0   0 # oby
   1972     19   3 -1.050000    14.027407487    14.782326839    11.977500686   0   0   0 # oby
   1973     19   3 -1.050000    13.764597800    13.312157722    14.238781482   0   0   0 # oby
   1974     19   3 -1.050000    12.874137733    10.914018532    14.188846526   0   0   0 # oby
   1975     19   3 -1.050000    12.957094647    15.817837133    14.295839867   0   0   0 # oby
   1976     19   3 -1.050000    11.565789174    16.408788021    11.948968256   0   0   0 # oby
   1977     19   3 -1.050000    11.308063419    10.271469700    11.856230246   0   0   0 # oby
   1978     19   3 -1.050000    11.383733713     8.974584614    14.217375027   0   0   0 # oby
   1979     19   3 -1.050000    10.315488501    15.417592874    13.832174008   0   0   0 # oby
   1980     19   3 -1.050000    10.263588393    11.289092909    14.174574398   0   0   0 # oby
   1981     19   4 -0.950000    14.219853941    17.513236566    11.820559589   0   0   0 # ohy
   1982     19   4 -0.950000    10.092047656    10.364753199     9.879405188   0   0   0 # ohy
   1983     19   4 -0.950000    14.702757830    12.958246365     9.873154713   0   0   0 # ohy
   1984     19   4 -0.950000    14.831216198    16.334917226     9.773288001   0   0   0 # ohy
   1985     19   4 -0.950000    11.694616388    13.053136916    11.877626716   0   0   0 # ohy
   1986     19   4 -0.950000    12.667206288    14.700480611     9.830350045   0   0   0 # ohy
   1987     19   4 -0.950000    12.274903719    17.511638385     9.930216892   0   0   0 # ohy
   1988     19   4 -0.950000    12.365835869    12.099828978     9.873156364   0   0   0 # ohy
   1989     19   5  0.425000    13.623426722    18.444455940    11.592313406   0   0   0 # hoy
   1990     19   5  0.425000     9.571207106    10.467631141     8.959193641   0   0   0 # hoy
   1991     19   5  0.425000    15.214622638    13.474640773     9.017152505   0   0   0 # hoy
   1992     19   5  0.425000    15.172538060    16.262110906     8.945810015   0   0   0 # hoy
   1993     19   5  0.425000    11.159261416    13.816859615    12.248566173   0   0   0 # hoy
   1994     19   5  0.425000    12.404934950    14.552982613     8.910147627   0   0   0 # hoy
   1995     19   5  0.425000    12.552931577    17.548050626     8.895880467   0   0   0 # hoy
   1996     19   5  0.425000    12.472829838    11.409291439     9.024285237   0   0   0 # hoy
   1997     20   4 -0.950000     1.250436959     1.422807677    24.345466492   0   0   0 # ohy
   1998     20   5  0.425000     0.729596409     1.525685619    23.425254945   0   0   0 # hoy
   1999     21   4 -0.950000     3.154890650     1.124352401    17.220892272   0   0   0 # ohy
   2000     21   5  0.425000     2.634050100     1.227230343    16.300680725   0   0   0 # hoy
   2001     22   4 -0.950000    25.585261061     1.422807677     9.879405188   0   0   0 # ohy
   2002     22   5  0.425000    25.064420511     1.525685619     8.959193641   0   0   0 # hoy
   2003     23   4 -0.950000     1.719714752     1.124352401     2.754830968   0   0   0 # ohy
   2004     23   5  0.425000     1.198874202     1.227230343     1.834619421   0   0   0 # hoy
   2005     24   4 -0.950000     1.219223554    10.364753199    24.345466492   0   0   0 # ohy
   2006     24   5  0.425000     0.698383004    10.467631141    23.425254945   0   0   0 # hoy
   2007     25   4 -0.950000     3.123677245    10.066297923    17.220892272   0   0   0 # ohy
   2008     25   5  0.425000     2.602836695    10.169175865    16.300680725   0   0   0 # hoy
   2009     26   4 -0.950000    25.554047656    10.364753199     9.879405188   0   0   0 # ohy
   2010     26   5  0.425000    25.033207106    10.467631141     8.959193641   0   0   0 # hoy
   2011     27   4 -0.950000     1.688501347    10.066297923     2.754830968   0   0   0 # ohy
   2012     27   5  0.425000     1.167660797    10.169175865     1.834619421   0   0   0 # hoy
   2013     28   4 -0.950000     1.188010149    19.306698722    24.345466492   0   0   0 # ohy
   2014     28   5  0.425000     0.667169599    19.409576664    23.425254945   0   0   0 # hoy
   2015     29   4 -0.950000     3.092463840    19.008243446    17.220892272   0   0   0 # ohy
   2016     29   5  0.425000     2.571623290    19.111121388    16.300680725   0   0   0 # hoy
   2017     30   4 -0.950000    25.522834251    19.306698722     9.879405188   0   0   0 # ohy
   2018     30   5  0.425000    25.001993701    19.409576664     8.959193641   0   0   0 # hoy
   2019     31   4 -0.950000     1.657287942    19.008243446     2.754830968   0   0   0 # ohy
   2020     31   5  0.425000     1.136447392    19.111121388     1.834619421   0   0   0 # hoy
   2021     32   5  0.425000    25.429029430     0.560564896    26.058374710   0   0   0 # hoy
   2022     33   5  0.425000     1.563483121     0.262109620    18.933800490   0   1   0 # hoy
   2023     34   5  0.425000    23.993853532     0.560564896    11.592313406   0   0   0 # hoy
   2024     35   5  0.425000    25.898307223     0.262109620     4.467739186  -1   1   0 # hoy
   2025     36   5  0.425000    20.275029430     0.560564896    26.058374710   0   0   0 # hoy
   2026     37   5  0.425000    22.179483121     0.262109620    18.933800490   0   1   0 # hoy
   2027     38   5  0.425000    18.839853532     0.560564896    11.592313406   0   0   0 # hoy
   2028     39   5  0.425000    20.744307223     0.262109620     4.467739186   0   1   0 # hoy
   2029     40   5  0.425000    15.121029430     0.560564896    26.058374710   0   0   0 # hoy
   2030     41   5  0.425000    17.025483121     0.262109620    18.933800490   0   1   0 # hoy
   2031     42   5  0.425000    13.685853532     0.560564896    11.592313406   0   0   0 # hoy
   2032     43   5  0.425000    15.590307223     0.262109620     4.467739186   0   1   0 # hoy
   2033     44   5  0.425000     9.967029430     0.560564896    26.058374710   0   0   0 # hoy
   2034     45   5  0.425000    11.871483121     0.262109620    18.933800490   0   1   0 # hoy
   2035     46   5  0.425000     8.531853532     0.560564896    11.592313406   0   0   0 # hoy
   2036     47   5  0.425000    10.436307223     0.262109620     4.467739186   0   1   0 # hoy
   2037     48   5  0.425000     4.813029430     0.560564896    26.058374710   0   0   0 # hoy
   2038     49   5  0.425000     6.717483121     0.262109620    18.933800490   0   1   0 # hoy
   2039     50   5  0.425000     3.377853532     0.560564896    11.592313406   0   0   0 # hoy
   2040     51   5  0.425000     5.282307223     0.262109620     4.467739186   0   1   0 # hoy

Bonds

     1   1     18     24
     2   1     19     25
     3   1     20     26
     4   1     21     27
     5   1     22     28
     6   1     23     29
     7   1     39     44
     8   1     40     45
     9   1     41     46
    10   1     42     47
    11   1     43     49
    12   1    109     48
    13   1     67     73
    14   1     68     74
    15   1     69     75
    16   1     70     76
    17   1     71     77
    18   1     72     78
    19   1     88     93
    20   1     89     94
    21   1     90     95
    22   1     91     96
    23   1     92     98
    24   1    122     97
    25   1    107    110
    26   1    108    111
    27   1    120    123
    28   1    121    124
    29   1    126    128
    30   1    127    129
    31   1    131    133
    32   1    132    134
    33   1    153    161
    34   1    154    162
    35   1    155    163
    36   1    156    164
    37   1    157    165
    38   1    158    166
    39   1    159    167
    40   1    160    168
    41   1    186    194
    42   1    187    195
    43   1    188    196
    44   1    189    197
    45   1    190    198
    46   1    191    199
    47   1    192    200
    48   1    193    201
    49   1    220    228
    50   1    221    229
    51   1    222    230
    52   1    223    231
    53   1    224    232
    54   1    225    233
    55   1    226    234
    56   1    227    235
    57   1    253    261
    58   1    254    262
    59   1    255    263
    60   1    256    264
    61   1    257    265
    62   1    258    266
    63   1    259    267
    64   1    260    268
    65   1    287    295
    66   1    288    296
    67   1    289    297
    68   1    290    298
    69   1    291    299
    70   1    292    300
    71   1    293    301
    72   1    294    302
    73   1    320    328
    74   1    321    329
    75   1    322    330
    76   1    323    331
    77   1    324    332
    78   1    325    333
    79   1    326    334
    80   1    327    335
    81   1    354    362
    82   1    355    363
    83   1    356    364
    84   1    357    365
    85   1    358    366
    86   1    359    367
    87   1    360    368
    88   1    361    369
    89   1    387    395
    90   1    388    396
    91   1    389    397
    92   1    390    398
    93   1    391    399
    94   1    392    400
    95   1    393    401
    96   1    394    402
    97   1    421    429
    98   1    422    430
    99   1    423    431
   100   1    424    432
   101   1    425    433
   102   1    426    434
   103   1    427    435
   104   1    428    436
   105   1    454    462
   106   1    455    463
   107   1    456    464
   108   1    457    465
   109   1    458    466
   110   1    459    467
   111   1    460    468
   112   1    461    469
   113   1    488    496
   114   1    489    497
   115   1    490    498
   116   1    491    499
   117   1    492    500
   118   1    493    501
   119   1    494    502
   120   1    495    503
   121   1    521    529
   122   1    522    530
   123   1    523    531
   124   1    524    532
   125   1    525    533
   126   1    526    534
   127   1    527    535
   128   1    528    536
   129   1    555    562
   130   1    556    563
   131   1    557    564
   132   1    558    565
   133   1    559    566
   134   1    560    567
   135   1    561    568
   136   1    586    593
   137   1    587    594
   138   1    588    595
   139   1    589    596
   140   1    590    597
   141   1    591    598
   142   1    592    599
   143   1    618    625
   144   1    619    626
   145   1    620    627
   146   1    621    628
   147   1    622    629
   148   1    623    630
   149   1    624    631
   150   1    649    656
   151   1    650    657
   152   1    651    658
   153   1    652    659
   154   1    653    660
   155   1    654    661
   156   1    655    662
   157   1    672    676
   158   1    673    677
   159   1    674    678
   160   1    675    679
   161   1   1917    680
   162   1   1918    681
   163   1    691    695
   164   1    692    696
   165   1    693   1874
   166   1    694   1875
   167   1    715    723
   168   1    716    724
   169   1    717    725
   170   1    718    726
   171   1    719    727
   172   1    720    728
   173   1    721    729
   174   1    722    730
   175   1    749    757
   176   1    750    758
   177   1    751    759
   178   1    752    760
   179   1    753    761
   180   1    754    762
   181   1    755    763
   182   1    756    764
   183   1    783    791
   184   1    784    792
   185   1    785    793
   186   1    786    794
   187   1    787    795
   188   1    788    796
   189   1    789    797
   190   1    790    798
   191   1    817    825
   192   1    818    826
   193   1    819    827
   194   1    820    828
   195   1    821    829
   196   1    822    830
   197   1    823    831
   198   1    824    832
   199   1    851    859
   200   1    852    860
   201   1    853    861
   202   1    854    862
   203   1    855    863
   204   1    856    864
   205   1    857    865
   206   1    858    866
   207   1    885    893
   208   1    886    894
   209   1    887    895
   210   1    888    896
   211   1    889    897
   212   1    890    898
   213   1    891    899
   214   1    892    900
   215   1    919    927
   216   1    920    928
   217   1    921    929
   218   1    922    930
   219   1    923    931
   220   1    924    932
   221   1    925    933
   222   1    926    934
   223   1    953    961
   224   1    954    962
   225   1    955    963
   226   1    956    964
   227   1    957    965
   228   1    958    966
   229   1    959    967
   230   1    960    968
   231   1    987    995
   232   1    988    996
   233   1    989    997
   234   1    990    998
   235   1    991    999
   236   1    992   1000
   237   1    993   1001
   238   1    994   1002
   239   1   1021   1029
   240   1   1022   1030
   241   1   1023   1031
   242   1   1024   1032
   243   1   1025   1033
   244   1   1026   1034
   245   1   1027   1035
   246   1   1028   1036
   247   1   1055   1062
   248   1   1056   1063
   249   1   1057   1064
   250   1   1058   1065
   251   1   1059   1066
   252   1   1060   1067
   253   1   1061   1068
   254   1   1087   1094
   255   1   1088   1095
   256   1   1089   1096
   257   1   1090   1097
   258   1   1091   1098
   259   1   1092   1099
   260   1   1093   1100
   261   1   1119   1126
   262   1   1120   1127
   263   1   1121   1128
   264   1   1122   1129
   265   1   1123   1130
   266   1   1124   1131
   267   1   1125   1132
   268   1   1151   1158
   269   1   1152   1159
   270   1   1153   1160
   271   1   1154   1161
   272   1   1155   1162
   273   1   1156   1163
   274   1   1157   1164
   275   1   1183   2021
   276   1   1184   1189
   277   1   1185   1190
   278   1   1186   1191
   279   1   1187   1192
   280   1   1188   1193
   281   1   1203   2022
   282   1   1204   1207
   283   1   1205   1208
   284   1   1206   1272
   285   1   1268   1209
   286   1   1269   1210
   287   1   1229   2023
   288   1   1230   1235
   289   1   1231   1236
   290   1   1232   1237
   291   1   1233   1238
   292   1   1234   1239
   293   1   1249   2024
   294   1   1250   1253
   295   1   1251   1254
   296   1   1252   1288
   297   1   1284   1255
   298   1   1285   1256
   299   1   1266   1270
   300   1   1267   1271
   301   1   1282   1286
   302   1   1283   1287
   303   1   1289   1291
   304   1   1290   1292
   305   1   1293   1295
   306   1   1294   1296
   307   1   1315   2025
   308   1   1316   1323
   309   1   1317   1324
   310   1   1318   1325
   311   1   1319   1326
   312   1   1320   1327
   313   1   1321   1328
   314   1   1322   1329
   315   1   1348   2026
   316   1   1349   1356
   317   1   1350   1357
   318   1   1351   1358
   319   1   1352   1359
   320   1   1353   1360
   321   1   1354   1361
   322   1   1355   1362
   323   1   1381   2027
   324   1   1382   1389
   325   1   1383   1390
   326   1   1384   1391
   327   1   1385   1392
   328   1   1386   1393
   329   1   1387   1394
   330   1   1388   1395
   331   1   1414   2028
   332   1   1415   1422
   333   1   1416   1423
   334   1   1417   1424
   335   1   1418   1425
   336   1   1419   1426
   337   1   1420   1427
   338   1   1421   1428
   339   1   1447   2029
   340   1   1448   1455
   341   1   1449   1456
   342   1   1450   1457
   343   1   1451   1458
   344   1   1452   1459
   345   1   1453   1460
   346   1   1454   1461
   347   1   1480   2030
   348   1   1481   1488
   349   1   1482   1489
   350   1   1483   1490
   351   1   1484   1491
   352   1   1485   1492
   353   1   1486   1493
   354   1   1487   1494
   355   1   1513   2031
   356   1   1514   1521
   357   1   1515   1522
   358   1   1516   1523
   359   1   1517   1524
   360   1   1518   1525
   361   1   1519   1526
   362   1   1520   1527
   363   1   1546   2032
   364   1   1547   1554
   365   1   1548   1555
   366   1   1549   1556
   367   1   1550   1557
   368   1   1551   1558
   369   1   1552   1559
   370   1   1553   1560
   371   1   1579   2033
   372   1   1580   1587
   373   1   1581   1588
   374   1   1582   1589
   375   1   1583   1590
   376   1   1584   1591
   377   1   1585   1592
   378   1   1586   1593
   379   1   1612   2034
   380   1   1613   1620
   381   1   1614   1621
   382   1   1615   1622
   383   1   1616   1623
   384   1   1617   1624
   385   1   1618   1625
   386   1   1619   1626
   387   1   1645   2035
   388   1   1646   1653
   389   1   1647   1654
   390   1   1648   1655
   391   1   1649   1656
   392   1   1650   1657
   393   1   1651   1658
   394   1   1652   1659
   395   1   1678   2036
   396   1   1679   1686
   397   1   1680   1687
   398   1   1681   1688
   399   1   1682   1689
   400   1   1683   1690
   401   1   1684   1691
   402   1   1685   1692
   403   1   1711   2037
   404   1   1712   1718
   405   1   1713   1719
   406   1   1714   1720
   407   1   1715   1721
   408   1   1716   1722
   409   1   1717   1723
   410   1   1742   2038
   411   1   1743   1749
   412   1   1744   1750
   413   1   1745   1751
   414   1   1746   1752
   415   1   1747   1753
   416   1   1748   1754
   417   1   1773   2039
   418   1   1774   1780
   419   1   1775   1781
   420   1   1776   1782
   421   1   1777   1783
   422   1   1778   1784
   423   1   1779   1785
   424   1   1804   2040
   425   1   1805   1811
   426   1   1806   1812
   427   1   1807   1813
   428   1   1808   1814
   429   1   1809   1815
   430   1   1810   1816
   431   1   1845   1851
   432   1   1846   1852
   433   1   1847   1853
   434   1   1848   1854
   435   1   1849   1855
   436   1   1850   1856
   437   1   1866   1870
   438   1   1867   1871
   439   1   1868   1872
   440   1   1869   1873
   441   1   1894   1900
   442   1   1895   1901
   443   1   1896   1902
   444   1   1897   1903
   445   1   1898   1904
   446   1   1899   1905
   447   1   1915   1919
   448   1   1916   1920
   449   1   1921   1923
   450   1   1922   1924
   451   1   1925   1927
   452   1   1926   1928
   453   1   1947   1955
   454   1   1948   1956
   455   1   1949   1957
   456   1   1950   1958
   457   1   1951   1959
   458   1   1952   1960
   459   1   1953   1961
   460   1   1954   1962
   461   1   1981   1989
   462   1   1982   1990
   463   1   1983   1991
   464   1   1984   1992
   465   1   1985   1993
   466   1   1986   1994
   467   1   1987   1995
   468   1   1988   1996
   469   1   1997   1998
   470   1   1999   2000
   471   1   2001   2002
   472   1   2003   2004
   473   1   2005   2006
   474   1   2007   2008
   475   1   2009   2010
   476   1   2011   2012
   477   1   2013   2014
   478   1   2015   2016
   479   1   2017   2018
   480   1   2019   2020

Angles

     1   1    539     18     24
     2   1      2     18     24
     3   1      4     19     25
     4   1   1167     19     25
     5   1      4     20     26
     6   1      1     20     26
     7   1      1     21     27
     8   1      2     21     27
     9   1      3     22     28
    10   1      2     22     28
    11   1      1     23     29
    12   1      4     23     29
    13   1    571     39     44
    14   1     31     39     44
    15   1     30     40     45
    16   1    572     40     45
    17   1     31     41     46
    18   1    571     41     46
    19   1     30     42     47
    20   1     31     42     47
    21   1     30     43     49
    22   1    100     43     49
    23   1    602     67     73
    24   1     51     67     73
    25   1     53     68     74
    26   1   1213     68     74
    27   1     53     69     75
    28   1     50     69     75
    29   1     50     70     76
    30   1     51     70     76
    31   1     52     71     77
    32   1     51     71     77
    33   1     53     72     78
    34   1     50     72     78
    35   1    634     88     93
    36   1     80     88     93
    37   1     79     89     94
    38   1    635     89     94
    39   1     80     90     95
    40   1    634     90     95
    41   1     79     91     96
    42   1     80     91     96
    43   1    113     92     98
    44   1     79     92     98
    45   1    100    107    110
    46   1   1257    107    110
    47   1    100    108    111
    48   1     30    108    111
    49   1     99    109     48
    50   1     31    109     48
    51   1    113    120    123
    52   1   1273    120    123
    53   1    113    121    124
    54   1     79    121    124
    55   1    112    122     97
    56   1     80    122     97
    57   1      1    126    128
    58   1    540    126    128
    59   1    539    127    129
    60   1      2    127    129
    61   1     50    131    133
    62   1    603    131    133
    63   1    602    132    134
    64   1     51    132    134
    65   1      3    153    161
    66   1    136    153    161
    67   1    138    154    162
    68   1   1299    154    162
    69   1    135    155    163
    70   1      4    155    163
    71   1      3    156    164
    72   1    136    156    164
    73   1    138    157    165
    74   1    135    157    165
    75   1    135    158    166
    76   1    136    158    166
    77   1    137    159    167
    78   1    136    159    167
    79   1    135    160    168
    80   1    138    160    168
    81   1     99    186    194
    82   1    170    186    194
    83   1    172    187    195
    84   1   1332    187    195
    85   1    169    188    196
    86   1    100    188    196
    87   1    170    189    197
    88   1     99    189    197
    89   1    172    190    198
    90   1    169    190    198
    91   1    169    191    199
    92   1    170    191    199
    93   1    171    192    200
    94   1    170    192    200
    95   1    169    193    201
    96   1    172    193    201
    97   1     52    220    228
    98   1    203    220    228
    99   1    205    221    229
   100   1   1365    221    229
   101   1    202    222    230
   102   1     53    222    230
   103   1     52    223    231
   104   1    203    223    231
   105   1    205    224    232
   106   1    202    224    232
   107   1    202    225    233
   108   1    203    225    233
   109   1    204    226    234
   110   1    203    226    234
   111   1    205    227    235
   112   1    202    227    235
   113   1    112    253    261
   114   1    237    253    261
   115   1    239    254    262
   116   1   1398    254    262
   117   1    236    255    263
   118   1    113    255    263
   119   1    237    256    264
   120   1    112    256    264
   121   1    239    257    265
   122   1    236    257    265
   123   1    236    258    266
   124   1    237    258    266
   125   1    238    259    267
   126   1    237    259    267
   127   1    239    260    268
   128   1    236    260    268
   129   1    137    287    295
   130   1    270    287    295
   131   1    272    288    296
   132   1   1431    288    296
   133   1    269    289    297
   134   1    138    289    297
   135   1    137    290    298
   136   1    270    290    298
   137   1    272    291    299
   138   1    269    291    299
   139   1    269    292    300
   140   1    270    292    300
   141   1    271    293    301
   142   1    270    293    301
   143   1    269    294    302
   144   1    272    294    302
   145   1    171    320    328
   146   1    304    320    328
   147   1    306    321    329
   148   1   1464    321    329
   149   1    303    322    330
   150   1    172    322    330
   151   1    304    323    331
   152   1    171    323    331
   153   1    306    324    332
   154   1    303    324    332
   155   1    303    325    333
   156   1    304    325    333
   157   1    305    326    334
   158   1    304    326    334
   159   1    303    327    335
   160   1    306    327    335
   161   1    204    354    362
   162   1    337    354    362
   163   1    339    355    363
   164   1   1497    355    363
   165   1    336    356    364
   166   1    205    356    364
   167   1    204    357    365
   168   1    337    357    365
   169   1    339    358    366
   170   1    336    358    366
   171   1    336    359    367
   172   1    337    359    367
   173   1    338    360    368
   174   1    337    360    368
   175   1    339    361    369
   176   1    336    361    369
   177   1    238    387    395
   178   1    371    387    395
   179   1    373    388    396
   180   1   1530    388    396
   181   1    370    389    397
   182   1    239    389    397
   183   1    371    390    398
   184   1    238    390    398
   185   1    373    391    399
   186   1    370    391    399
   187   1    370    392    400
   188   1    371    392    400
   189   1    372    393    401
   190   1    371    393    401
   191   1    373    394    402
   192   1    370    394    402
   193   1    271    421    429
   194   1    404    421    429
   195   1    406    422    430
   196   1   1563    422    430
   197   1    403    423    431
   198   1    272    423    431
   199   1    271    424    432
   200   1    404    424    432
   201   1    406    425    433
   202   1    403    425    433
   203   1    403    426    434
   204   1    404    426    434
   205   1    405    427    435
   206   1    404    427    435
   207   1    403    428    436
   208   1    406    428    436
   209   1    305    454    462
   210   1    438    454    462
   211   1    440    455    463
   212   1   1596    455    463
   213   1    437    456    464
   214   1    306    456    464
   215   1    438    457    465
   216   1    305    457    465
   217   1    440    458    466
   218   1    437    458    466
   219   1    437    459    467
   220   1    438    459    467
   221   1    439    460    468
   222   1    438    460    468
   223   1    437    461    469
   224   1    440    461    469
   225   1    338    488    496
   226   1    471    488    496
   227   1    473    489    497
   228   1   1629    489    497
   229   1    470    490    498
   230   1    339    490    498
   231   1    338    491    499
   232   1    471    491    499
   233   1    473    492    500
   234   1    470    492    500
   235   1    470    493    501
   236   1    471    493    501
   237   1    472    494    502
   238   1    471    494    502
   239   1    473    495    503
   240   1    470    495    503
   241   1    372    521    529
   242   1    505    521    529
   243   1    507    522    530
   244   1   1662    522    530
   245   1    504    523    531
   246   1    373    523    531
   247   1    505    524    532
   248   1    372    524    532
   249   1    507    525    533
   250   1    504    525    533
   251   1    504    526    534
   252   1    505    526    534
   253   1    506    527    535
   254   1    505    527    535
   255   1    507    528    536
   256   1    504    528    536
   257   1    405    555    562
   258   1    538    555    562
   259   1    537    556    563
   260   1    406    556    563
   261   1    405    557    564
   262   1    538    557    564
   263   1    540    558    565
   264   1    537    558    565
   265   1    537    559    566
   266   1    538    559    566
   267   1    539    560    567
   268   1    538    560    567
   269   1    537    561    568
   270   1    540    561    568
   271   1    439    586    593
   272   1    570    586    593
   273   1    569    587    594
   274   1    440    587    594
   275   1    570    588    595
   276   1    439    588    595
   277   1    572    589    596
   278   1    569    589    596
   279   1    569    590    597
   280   1    570    590    597
   281   1    571    591    598
   282   1    570    591    598
   283   1    569    592    599
   284   1    572    592    599
   285   1    472    618    625
   286   1    601    618    625
   287   1    600    619    626
   288   1    473    619    626
   289   1    472    620    627
   290   1    601    620    627
   291   1    603    621    628
   292   1    600    621    628
   293   1    600    622    629
   294   1    601    622    629
   295   1    602    623    630
   296   1    601    623    630
   297   1    603    624    631
   298   1    600    624    631
   299   1    506    649    656
   300   1    633    649    656
   301   1    632    650    657
   302   1    507    650    657
   303   1    633    651    658
   304   1    506    651    658
   305   1    635    652    659
   306   1    632    652    659
   307   1    632    653    660
   308   1    633    653    660
   309   1    634    654    661
   310   1    633    654    661
   311   1    635    655    662
   312   1    632    655    662
   313   1   1135    672    676
   314   1    664    672    676
   315   1    663    673    677
   316   1   1136    673    677
   317   1    664    674    678
   318   1   1135    674    678
   319   1    663    675    679
   320   1    664    675    679
   321   1    683    691    695
   322   1     99    691    695
   323   1    683    692    696
   324   1   1857    692    696
   325   1    682    693   1874
   326   1   1858    693   1874
   327   1   1857    694   1875
   328   1    683    694   1875
   329   1   1829    715    723
   330   1    698    715    723
   331   1    700    716    724
   332   1    137    716    724
   333   1    697    717    725
   334   1   1830    717    725
   335   1   1829    718    726
   336   1    698    718    726
   337   1    700    719    727
   338   1    697    719    727
   339   1    697    720    728
   340   1    698    720    728
   341   1    699    721    729
   342   1    698    721    729
   343   1    700    722    730
   344   1    697    722    730
   345   1    682    749    757
   346   1    732    749    757
   347   1    734    750    758
   348   1    171    750    758
   349   1    731    751    759
   350   1    683    751    759
   351   1    732    752    760
   352   1    682    752    760
   353   1    734    753    761
   354   1    731    753    761
   355   1    731    754    762
   356   1    732    754    762
   357   1    733    755    763
   358   1    732    755    763
   359   1    731    756    764
   360   1    734    756    764
   361   1   1878    783    791
   362   1    766    783    791
   363   1    768    784    792
   364   1    204    784    792
   365   1    765    785    793
   366   1   1879    785    793
   367   1   1878    786    794
   368   1    766    786    794
   369   1    768    787    795
   370   1    765    787    795
   371   1    765    788    796
   372   1    766    788    796
   373   1    767    789    797
   374   1    766    789    797
   375   1    765    790    798
   376   1    768    790    798
   377   1   1906    817    825
   378   1    800    817    825
   379   1    802    818    826
   380   1    238    818    826
   381   1    799    819    827
   382   1   1907    819    827
   383   1    800    820    828
   384   1   1906    820    828
   385   1    802    821    829
   386   1    799    821    829
   387   1    799    822    830
   388   1    800    822    830
   389   1    800    823    831
   390   1    801    823    831
   391   1    799    824    832
   392   1    802    824    832
   393   1    733    851    859
   394   1    834    851    859
   395   1    836    852    860
   396   1    305    852    860
   397   1    833    853    861
   398   1    734    853    861
   399   1    834    854    862
   400   1    733    854    862
   401   1    836    855    863
   402   1    833    855    863
   403   1    833    856    864
   404   1    834    856    864
   405   1    835    857    865
   406   1    834    857    865
   407   1    833    858    866
   408   1    836    858    866
   409   1    801    885    893
   410   1    868    885    893
   411   1    870    886    894
   412   1    372    886    894
   413   1    867    887    895
   414   1    802    887    895
   415   1    868    888    896
   416   1    801    888    896
   417   1    870    889    897
   418   1    867    889    897
   419   1    867    890    898
   420   1    868    890    898
   421   1    868    891    899
   422   1    869    891    899
   423   1    867    892    900
   424   1    870    892    900
   425   1   1931    919    927
   426   1    902    919    927
   427   1    904    920    928
   428   1    405    920    928
   429   1    901    921    929
   430   1   1932    921    929
   431   1   1931    922    930
   432   1    902    922    930
   433   1    904    923    931
   434   1    901    923    931
   435   1    901    924    932
   436   1    902    924    932
   437   1    903    925    933
   438   1    902    925    933
   439   1    901    926    934
   440   1    904    926    934
   441   1    835    953    961
   442   1    936    953    961
   443   1    938    954    962
   444   1    439    954    962
   445   1    935    955    963
   446   1    836    955    963
   447   1    936    956    964
   448   1    835    956    964
   449   1    938    957    965
   450   1    935    957    965
   451   1    935    958    966
   452   1    936    958    966
   453   1    937    959    967
   454   1    936    959    967
   455   1    935    960    968
   456   1    938    960    968
   457   1   1965    987    995
   458   1    970    987    995
   459   1    972    988    996
   460   1    472    988    996
   461   1    969    989    997
   462   1   1966    989    997
   463   1   1965    990    998
   464   1    970    990    998
   465   1    972    991    999
   466   1    969    991    999
   467   1    969    992   1000
   468   1    970    992   1000
   469   1    971    993   1001
   470   1    970    993   1001
   471   1    972    994   1002
   472   1    969    994   1002
   473   1    869   1021   1029
   474   1   1004   1021   1029
   475   1   1006   1022   1030
   476   1    506   1022   1030
   477   1   1003   1023   1031
   478   1    870   1023   1031
   479   1   1004   1024   1032
   480   1    869   1024   1032
   481   1   1006   1025   1033
   482   1   1003   1025   1033
   483   1   1003   1026   1034
   484   1   1004   1026   1034
   485   1   1004   1027   1035
   486   1   1005   1027   1035
   487   1   1003   1028   1036
   488   1   1006   1028   1036
   489   1    903   1055   1062
   490   1   1038   1055   1062
   491   1   1037   1056   1063
   492   1    904   1056   1063
   493   1    903   1057   1064
   494   1   1038   1057   1064
   495   1   1040   1058   1065
   496   1   1037   1058   1065
   497   1   1037   1059   1066
   498   1   1038   1059   1066
   499   1   1039   1060   1067
   500   1   1038   1060   1067
   501   1   1040   1061   1068
   502   1   1037   1061   1068
   503   1    937   1087   1094
   504   1   1070   1087   1094
   505   1   1069   1088   1095
   506   1    938   1088   1095
   507   1   1070   1089   1096
   508   1    937   1089   1096
   509   1   1072   1090   1097
   510   1   1069   1090   1097
   511   1   1069   1091   1098
   512   1   1070   1091   1098
   513   1   1071   1092   1099
   514   1   1070   1092   1099
   515   1   1069   1093   1100
   516   1   1072   1093   1100
   517   1    971   1119   1126
   518   1   1102   1119   1126
   519   1   1101   1120   1127
   520   1    972   1120   1127
   521   1    971   1121   1128
   522   1   1102   1121   1128
   523   1   1104   1122   1129
   524   1   1101   1122   1129
   525   1   1101   1123   1130
   526   1   1102   1123   1130
   527   1   1103   1124   1131
   528   1   1102   1124   1131
   529   1   1101   1125   1132
   530   1   1104   1125   1132
   531   1   1005   1151   1158
   532   1   1134   1151   1158
   533   1   1133   1152   1159
   534   1   1006   1152   1159
   535   1   1134   1153   1160
   536   1   1005   1153   1160
   537   1   1136   1154   1161
   538   1   1133   1154   1161
   539   1   1133   1155   1162
   540   1   1134   1155   1162
   541   1   1134   1156   1163
   542   1   1135   1156   1163
   543   1   1133   1157   1164
   544   1   1136   1157   1164
   545   1   1695   1183   2021
   546   1   1166   1183   2021
   547   1   1168   1184   1189
   548   1   1829   1184   1189
   549   1   1168   1185   1190
   550   1   1165   1185   1190
   551   1   1165   1186   1191
   552   1   1166   1186   1191
   553   1   1166   1187   1192
   554   1   1167   1187   1192
   555   1   1165   1188   1193
   556   1   1168   1188   1193
   557   1   1726   1203   2022
   558   1   1195   1203   2022
   559   1   1194   1204   1207
   560   1   1727   1204   1207
   561   1   1195   1205   1208
   562   1   1726   1205   1208
   563   1   1194   1206   1272
   564   1   1195   1206   1272
   565   1   1212   1229   2023
   566   1   1757   1229   2023
   567   1   1214   1230   1235
   568   1   1878   1230   1235
   569   1   1214   1231   1236
   570   1   1211   1231   1236
   571   1   1211   1232   1237
   572   1   1212   1232   1237
   573   1   1213   1233   1238
   574   1   1212   1233   1238
   575   1   1214   1234   1239
   576   1   1211   1234   1239
   577   1   1788   1249   2024
   578   1   1241   1249   2024
   579   1   1240   1250   1253
   580   1   1789   1250   1253
   581   1   1241   1251   1254
   582   1   1788   1251   1254
   583   1   1240   1252   1288
   584   1   1241   1252   1288
   585   1   1258   1266   1270
   586   1    682   1266   1270
   587   1   1258   1267   1271
   588   1   1194   1267   1271
   589   1   1257   1268   1209
   590   1   1195   1268   1209
   591   1   1194   1269   1210
   592   1   1258   1269   1210
   593   1   1906   1282   1286
   594   1   1274   1282   1286
   595   1   1274   1283   1287
   596   1   1240   1283   1287
   597   1   1273   1284   1255
   598   1   1241   1284   1255
   599   1   1274   1285   1256
   600   1   1240   1285   1256
   601   1   1165   1289   1291
   602   1   1696   1289   1291
   603   1   1695   1290   1292
   604   1   1166   1290   1292
   605   1   1211   1293   1295
   606   1   1758   1293   1295
   607   1   1757   1294   1296
   608   1   1212   1294   1296
   609   1   1298   1315   2025
   610   1   1167   1315   2025
   611   1   1300   1316   1323
   612   1    699   1316   1323
   613   1   1297   1317   1324
   614   1   1168   1317   1324
   615   1   1167   1318   1325
   616   1   1298   1318   1325
   617   1   1300   1319   1326
   618   1   1297   1319   1326
   619   1   1297   1320   1327
   620   1   1298   1320   1327
   621   1   1299   1321   1328
   622   1   1298   1321   1328
   623   1   1297   1322   1329
   624   1   1300   1322   1329
   625   1   1257   1348   2026
   626   1   1331   1348   2026
   627   1   1333   1349   1356
   628   1    733   1349   1356
   629   1   1330   1350   1357
   630   1   1258   1350   1357
   631   1   1331   1351   1358
   632   1   1257   1351   1358
   633   1   1333   1352   1359
   634   1   1330   1352   1359
   635   1   1330   1353   1360
   636   1   1331   1353   1360
   637   1   1332   1354   1361
   638   1   1331   1354   1361
   639   1   1330   1355   1362
   640   1   1333   1355   1362
   641   1   1364   1381   2027
   642   1   1213   1381   2027
   643   1   1366   1382   1389
   644   1    767   1382   1389
   645   1   1363   1383   1390
   646   1   1214   1383   1390
   647   1   1364   1384   1391
   648   1   1213   1384   1391
   649   1   1366   1385   1392
   650   1   1363   1385   1392
   651   1   1363   1386   1393
   652   1   1364   1386   1393
   653   1   1364   1387   1394
   654   1   1365   1387   1394
   655   1   1366   1388   1395
   656   1   1363   1388   1395
   657   1   1273   1414   2028
   658   1   1397   1414   2028
   659   1    801   1415   1422
   660   1   1399   1415   1422
   661   1   1396   1416   1423
   662   1   1274   1416   1423
   663   1   1397   1417   1424
   664   1   1273   1417   1424
   665   1   1399   1418   1425
   666   1   1396   1418   1425
   667   1   1396   1419   1426
   668   1   1397   1419   1426
   669   1   1398   1420   1427
   670   1   1397   1420   1427
   671   1   1399   1421   1428
   672   1   1396   1421   1428
   673   1   1430   1447   2029
   674   1   1299   1447   2029
   675   1   1432   1448   1455
   676   1   1931   1448   1455
   677   1   1429   1449   1456
   678   1   1300   1449   1456
   679   1   1430   1450   1457
   680   1   1299   1450   1457
   681   1   1432   1451   1458
   682   1   1429   1451   1458
   683   1   1429   1452   1459
   684   1   1430   1452   1459
   685   1   1430   1453   1460
   686   1   1431   1453   1460
   687   1   1429   1454   1461
   688   1   1432   1454   1461
   689   1   1332   1480   2030
   690   1   1463   1480   2030
   691   1   1465   1481   1488
   692   1    835   1481   1488
   693   1   1462   1482   1489
   694   1   1333   1482   1489
   695   1   1463   1483   1490
   696   1   1332   1483   1490
   697   1   1465   1484   1491
   698   1   1462   1484   1491
   699   1   1462   1485   1492
   700   1   1463   1485   1492
   701   1   1464   1486   1493
   702   1   1463   1486   1493
   703   1   1462   1487   1494
   704   1   1465   1487   1494
   705   1   1496   1513   2031
   706   1   1365   1513   2031
   707   1   1498   1514   1521
   708   1   1965   1514   1521
   709   1   1495   1515   1522
   710   1   1366   1515   1522
   711   1   1365   1516   1523
   712   1   1496   1516   1523
   713   1   1498   1517   1524
   714   1   1495   1517   1524
   715   1   1495   1518   1525
   716   1   1496   1518   1525
   717   1   1496   1519   1526
   718   1   1497   1519   1526
   719   1   1498   1520   1527
   720   1   1495   1520   1527
   721   1   1398   1546   2032
   722   1   1529   1546   2032
   723   1    869   1547   1554
   724   1   1531   1547   1554
   725   1   1528   1548   1555
   726   1   1399   1548   1555
   727   1   1529   1549   1556
   728   1   1398   1549   1556
   729   1   1531   1550   1557
   730   1   1528   1550   1557
   731   1   1528   1551   1558
   732   1   1529   1551   1558
   733   1   1530   1552   1559
   734   1   1529   1552   1559
   735   1   1531   1553   1560
   736   1   1528   1553   1560
   737   1   1431   1579   2033
   738   1   1562   1579   2033
   739   1   1564   1580   1587
   740   1    903   1580   1587
   741   1   1561   1581   1588
   742   1   1432   1581   1588
   743   1   1431   1582   1589
   744   1   1562   1582   1589
   745   1   1564   1583   1590
   746   1   1561   1583   1590
   747   1   1561   1584   1591
   748   1   1562   1584   1591
   749   1   1562   1585   1592
   750   1   1563   1585   1592
   751   1   1561   1586   1593
   752   1   1564   1586   1593
   753   1   1464   1612   2034
   754   1   1595   1612   2034
   755   1   1597   1613   1620
   756   1    937   1613   1620
   757   1   1594   1614   1621
   758   1   1465   1614   1621
   759   1   1595   1615   1622
   760   1   1464   1615   1622
   761   1   1597   1616   1623
   762   1   1594   1616   1623
   763   1   1594   1617   1624
   764   1   1595   1617   1624
   765   1   1596   1618   1625
   766   1   1595   1618   1625
   767   1   1594   1619   1626
   768   1   1597   1619   1626
   769   1   1628   1645   2035
   770   1   1497   1645   2035
   771   1   1630   1646   1653
   772   1    971   1646   1653
   773   1   1627   1647   1654
   774   1   1498   1647   1654
   775   1   1628   1648   1655
   776   1   1497   1648   1655
   777   1   1630   1649   1656
   778   1   1627   1649   1656
   779   1   1627   1650   1657
   780   1   1628   1650   1657
   781   1   1629   1651   1658
   782   1   1628   1651   1658
   783   1   1630   1652   1659
   784   1   1627   1652   1659
   785   1   1530   1678   2036
   786   1   1661   1678   2036
   787   1   1005   1679   1686
   788   1   1663   1679   1686
   789   1   1660   1680   1687
   790   1   1531   1680   1687
   791   1   1661   1681   1688
   792   1   1530   1681   1688
   793   1   1663   1682   1689
   794   1   1660   1682   1689
   795   1   1660   1683   1690
   796   1   1661   1683   1690
   797   1   1662   1684   1691
   798   1   1661   1684   1691
   799   1   1663   1685   1692
   800   1   1660   1685   1692
   801   1   1694   1711   2037
   802   1   1563   1711   2037
   803   1   1693   1712   1718
   804   1   1564   1712   1718
   805   1   1694   1713   1719
   806   1   1563   1713   1719
   807   1   1696   1714   1720
   808   1   1693   1714   1720
   809   1   1693   1715   1721
   810   1   1694   1715   1721
   811   1   1695   1716   1722
   812   1   1694   1716   1722
   813   1   1693   1717   1723
   814   1   1696   1717   1723
   815   1   1596   1742   2038
   816   1   1725   1742   2038
   817   1   1724   1743   1749
   818   1   1597   1743   1749
   819   1   1725   1744   1750
   820   1   1596   1744   1750
   821   1   1727   1745   1751
   822   1   1724   1745   1751
   823   1   1724   1746   1752
   824   1   1725   1746   1752
   825   1   1726   1747   1753
   826   1   1725   1747   1753
   827   1   1724   1748   1754
   828   1   1727   1748   1754
   829   1   1756   1773   2039
   830   1   1629   1773   2039
   831   1   1755   1774   1780
   832   1   1630   1774   1780
   833   1   1629   1775   1781
   834   1   1756   1775   1781
   835   1   1758   1776   1782
   836   1   1755   1776   1782
   837   1   1755   1777   1783
   838   1   1756   1777   1783
   839   1   1756   1778   1784
   840   1   1757   1778   1784
   841   1   1758   1779   1785
   842   1   1755   1779   1785
   843   1   1662   1804   2040
   844   1   1787   1804   2040
   845   1   1786   1805   1811
   846   1   1663   1805   1811
   847   1   1787   1806   1812
   848   1   1662   1806   1812
   849   1   1789   1807   1813
   850   1   1786   1807   1813
   851   1   1786   1808   1814
   852   1   1787   1808   1814
   853   1   1788   1809   1815
   854   1   1787   1809   1815
   855   1   1789   1810   1816
   856   1   1786   1810   1816
   857   1   1039   1845   1851
   858   1   1828   1845   1851
   859   1   1830   1846   1852
   860   1      3   1846   1852
   861   1   1830   1847   1853
   862   1   1827   1847   1853
   863   1   1827   1848   1854
   864   1   1828   1848   1854
   865   1   1829   1849   1855
   866   1   1828   1849   1855
   867   1   1827   1850   1856
   868   1   1830   1850   1856
   869   1   1071   1866   1870
   870   1   1858   1866   1870
   871   1   1857   1867   1871
   872   1   1072   1867   1871
   873   1   1858   1868   1872
   874   1   1071   1868   1872
   875   1   1857   1869   1873
   876   1   1858   1869   1873
   877   1   1103   1894   1900
   878   1   1877   1894   1900
   879   1   1879   1895   1901
   880   1     52   1895   1901
   881   1   1879   1896   1902
   882   1   1876   1896   1902
   883   1   1876   1897   1903
   884   1   1877   1897   1903
   885   1   1878   1898   1904
   886   1   1877   1898   1904
   887   1   1879   1899   1905
   888   1   1876   1899   1905
   889   1   1907   1915   1919
   890   1    112   1915   1919
   891   1   1907   1916   1920
   892   1    663   1916   1920
   893   1    664   1917    680
   894   1   1906   1917    680
   895   1    663   1918    681
   896   1   1907   1918    681
   897   1   1827   1921   1923
   898   1   1040   1921   1923
   899   1   1039   1922   1924
   900   1   1828   1922   1924
   901   1   1876   1925   1927
   902   1   1104   1925   1927
   903   1   1103   1926   1928
   904   1   1877   1926   1928
   905   1    699   1947   1955
   906   1   1930   1947   1955
   907   1   1932   1948   1956
   908   1    271   1948   1956
   909   1   1929   1949   1957
   910   1    700   1949   1957
   911   1    699   1950   1958
   912   1   1930   1950   1958
   913   1   1932   1951   1959
   914   1   1929   1951   1959
   915   1   1929   1952   1960
   916   1   1930   1952   1960
   917   1   1931   1953   1961
   918   1   1930   1953   1961
   919   1   1929   1954   1962
   920   1   1932   1954   1962
   921   1    767   1981   1989
   922   1   1964   1981   1989
   923   1   1966   1982   1990
   924   1    338   1982   1990
   925   1   1963   1983   1991
   926   1    768   1983   1991
   927   1    767   1984   1992
   928   1   1964   1984   1992
   929   1   1966   1985   1993
   930   1   1963   1985   1993
   931   1   1963   1986   1994
   932   1   1964   1986   1994
   933   1   1965   1987   1995
   934   1   1964   1987   1995
   935   1   1963   1988   1996
   936   1   1966   1988   1996
   937   1    540   1997   1998
   938   1   1695   1997   1998
   939   1    572   1999   2000
   940   1   1726   1999   2000
   941   1    603   2001   2002
   942   1   1757   2001   2002
   943   1    635   2003   2004
   944   1   1788   2003   2004
   945   1   1040   2005   2006
   946   1    539   2005   2006
   947   1   1072   2007   2008
   948   1    571   2007   2008
   949   1   1104   2009   2010
   950   1    602   2009   2010
   951   1   1136   2011   2012
   952   1    634   2011   2012
   953   1   1696   2013   2014
   954   1   1039   2013   2014
   955   1   1727   2015   2016
   956   1   1071   2015   2016
   957   1   1758   2017   2018
   958   1   1103   2017   2018
   959   1   1135   2019   2020
   960   1   1789   2019   2020
