LAMMPS data file for kao-Al-surf

   2040 atoms
   480 bonds
   960 angles
      0 dihedrals
      0 impropers

   5 atom types
   1 bond types
   1 angle types

    -0.002244216    25.767755784 xlo xhi
     0.203896709    27.029896709 ylo yhi
   -76.932585214   107.203714786 zlo zhi

Masses

   1  26.981540 # aoy
   2  28.085500 # sty
   3  15.999400 # oby
   4  15.999400 # ohy
   5   1.007940 # hoy

Pair Coeffs # lj/cut/coul/long

   1   0.0000013298   4.2712357233 # aoy
   2   0.0000018405   3.3020269922 # sty
   3   0.1554000000   3.1655413253 # oby
   4   0.1554000000   3.1655413253 # ohy
   5   0.0000000000   0.0000000000 # hoy

Bond Coeffs # harmonic

   1   554.1348     1.0000 # ohy-hoy

Angle Coeffs # harmonic

   1    30.0000   109.4700 # aoy-ohy-hoy

Atoms # full

      1      1   1  1.575000     0.938276811     4.401836405     5.122348133   0   0   0 # aoy
      2      1   1  1.575000     1.082772059     7.303633477     4.986814346   0   0   0 # aoy
      3      1   1  1.575000     3.644013041     8.801274934     5.122352068   0   0   0 # aoy
      4      1   1  1.575000     3.498106040     2.848365587     5.051013349   0   0   0 # aoy
      5      1   2  2.100000     0.222968064     3.107174125     2.169132252   0   0   0 # sty
      6      1   2  2.100000     0.283022963     5.791435618     2.383133191   0   0   0 # sty
      7      1   2  2.100000     2.679016228     7.501762690     2.311799216   0   0   0 # sty
      8      1   2  2.100000     2.768464571     1.602265940     2.247600363   0   0   0 # sty
      9      1   3 -1.050000     0.226868330     5.840381317     3.838339162   0   0   0 # oby
     10      1   3 -1.050000     0.489678017     4.370212200     1.577058366   0   0   0 # oby
     11      1   3 -1.050000     1.380138084     1.972073010     1.626993322   0   0   0 # oby
     12      1   3 -1.050000     1.297181170     6.875891611     1.519999981   0   0   0 # oby
     13      1   3 -1.050000     2.688486643     7.466842499     3.866871592   0   0   0 # oby
     14      1   3 -1.050000     2.946212398     1.329524178     3.959609602   0   0   0 # oby
     15      1   3 -1.050000     2.870542104    26.858639092     1.598464821   0  -1   0 # oby
     16      1   3 -1.050000     3.938787316     6.475647352     1.983665840   0   0   0 # oby
     17      1   3 -1.050000     3.990687424     2.347147387     1.641265450   0   0   0 # oby
     18      1   4 -0.950000     0.034421876     8.571291044     3.995280259   0   0   0 # ohy
     19      1   4 -0.950000     4.162228161     1.422807677     5.936434660   0   0   0 # ohy
     20      1   4 -0.950000     2.559659429     4.111191394     3.938213132   0   0   0 # ohy
     21      1   4 -0.950000     1.587069529     5.758535089     5.985489803   0   0   0 # ohy
     22      1   4 -0.950000     1.979372098     8.569692863     5.885622956   0   0   0 # ohy
     23      1   4 -0.950000     1.888439948     3.157883456     5.942683484   0   0   0 # ohy
     24      1   5  0.425000     0.630849095     9.502510418     4.223526442   0   0   0 # hoy
     25      1   5  0.425000     4.683068711     1.525685619     6.856646207   0   0   0 # hoy
     26      1   5  0.425000     3.095014401     4.874914093     3.567273675   0   0   0 # hoy
     27      1   5  0.425000     1.849340867     5.611037091     6.905692221   0   0   0 # hoy
     28      1   5  0.425000     1.701344240     8.606105104     6.919959381   0   0   0 # hoy
     29      1   5  0.425000     1.781445979     2.467345917     6.791554611   0   0   0 # hoy
     30      1   1  1.575000    24.803823120     4.103381129    12.246922353   0   0   0 # aoy
     31      1   1  1.575000    24.948318368     7.005178201    12.111388566   0   0   0 # aoy
     32      1   2  2.100000    24.088514373     2.808718849     9.293706472   0   0   0 # sty
     33      1   2  2.100000    24.148569272     5.492980342     9.507707411   0   0   0 # sty
     34      1   3 -1.050000    23.853978928     2.685329911    11.084180998   0   0   0 # oby
     35      1   3 -1.050000    24.092414639     5.541926041    10.962913382   0   0   0 # oby
     36      1   3 -1.050000    24.355224326     4.071756924     8.701632586   0   0   0 # oby
     37      1   3 -1.050000    25.245684393     1.673617734     8.751567542   0   0   0 # oby
     38      1   3 -1.050000    25.162727479     6.577436335     8.644574201   0   0   0 # oby
     39      1   4 -0.950000    23.899968185     8.272835768    11.119854479   0   0   0 # ohy
     40      1   4 -0.950000    23.417064296     3.717845567    13.067259355   0   0   0 # ohy
     41      1   4 -0.950000    23.288605928     7.094516428    13.167126067   0   0   0 # ohy
     42      1   4 -0.950000    25.452615838     5.460079813    13.110064023   0   0   0 # ohy
     43      1   4 -0.950000    25.753986257     2.859428180    13.067257704   0   0   0 # ohy
     44      1   5  0.425000    24.496395404     9.204055142    11.348100662   0   0   0 # hoy
     45      1   5  0.425000    22.905199488     4.234239975    13.923261563   0   0   0 # hoy
     46      1   5  0.425000    22.947284066     7.021710108    13.994604053   0   0   0 # hoy
     47      1   5  0.425000    25.714887176     5.312581815    14.030266441   0   0   0 # hoy
     48      1   5  0.425000    25.566890549     8.307649828    14.044533601   0   0   0 # hoy
     49      1   5  0.425000    25.646992288     2.168890641    13.916128831   0   0   0 # hoy
     50      1   1  1.575000     2.373452709     4.401836405    19.588409437   0   0   0 # aoy
     51      1   1  1.575000     2.517947957     7.303633477    19.452875650   0   0   0 # aoy
     52      1   1  1.575000     5.079188939     8.801274934    19.588413372   0   0   0 # aoy
     53      1   1  1.575000     4.933281938     2.848365587    19.517074653   0   0   0 # aoy
     54      1   2  2.100000     1.658143962     3.107174125    16.635193556   0   0   0 # sty
     55      1   2  2.100000     1.718198861     5.791435618    16.849194495   0   0   0 # sty
     56      1   2  2.100000     4.114192126     7.501762690    16.777860520   0   0   0 # sty
     57      1   2  2.100000     4.203640469     1.602265940    16.713661667   0   0   0 # sty
     58      1   3 -1.050000     1.662044228     5.840381317    18.304400466   0   0   0 # oby
     59      1   3 -1.050000     1.924853915     4.370212200    16.043119670   0   0   0 # oby
     60      1   3 -1.050000     2.815313982     1.972073010    16.093054626   0   0   0 # oby
     61      1   3 -1.050000     2.732357068     6.875891611    15.986061285   0   0   0 # oby
     62      1   3 -1.050000     4.123662541     7.466842499    18.332932896   0   0   0 # oby
     63      1   3 -1.050000     4.381388296     1.329524178    18.425670906   0   0   0 # oby
     64      1   3 -1.050000     4.305718002    26.858639092    16.064526125   0  -1   0 # oby
     65      1   3 -1.050000     5.373963214     6.475647352    16.449727144   0   0   0 # oby
     66      1   3 -1.050000     5.425863322     2.347147387    16.107326754   0   0   0 # oby
     67      1   4 -0.950000     1.469597774     8.571291044    18.461341563   0   0   0 # ohy
     68      1   4 -0.950000     5.597404059     1.422807677    20.402495964   0   0   0 # ohy
     69      1   4 -0.950000     3.994835327     4.111191394    18.404274436   0   0   0 # ohy
     70      1   4 -0.950000     3.022245427     5.758535089    20.451551107   0   0   0 # ohy
     71      1   4 -0.950000     3.414547996     8.569692863    20.351684260   0   0   0 # ohy
     72      1   4 -0.950000     3.323615846     3.157883456    20.408744788   0   0   0 # ohy
     73      1   5  0.425000     2.066024993     9.502510418    18.689587746   0   0   0 # hoy
     74      1   5  0.425000     6.118244609     1.525685619    21.322707511   0   0   0 # hoy
     75      1   5  0.425000     4.530190299     4.874914093    18.033334979   0   0   0 # hoy
     76      1   5  0.425000     3.284516765     5.611037091    21.371753525   0   0   0 # hoy
     77      1   5  0.425000     3.136520138     8.606105104    21.386020685   0   0   0 # hoy
     78      1   5  0.425000     3.216621877     2.467345917    21.257615915   0   0   0 # hoy
     79      1   1  1.575000     0.468999018     4.103381129    26.712983657   0   0   0 # aoy
     80      1   1  1.575000     0.613494266     7.005178201    26.577449870   0   0   0 # aoy
     81      1   2  2.100000    25.523690271     2.808718849    23.759767776   0   0   0 # sty
     82      1   2  2.100000    25.583745170     5.492980342    23.973768715   0   0   0 # sty
     83      1   3 -1.050000    25.289154826     2.685329911    25.550242302   0   0   0 # oby
     84      1   3 -1.050000    25.527590537     5.541926041    25.428974686   0   0   0 # oby
     85      1   3 -1.050000     0.020400224     4.071756924    23.167693890   0   0   0 # oby
     86      1   3 -1.050000     0.910860291     1.673617734    23.217628846   0   0   0 # oby
     87      1   3 -1.050000     0.827903377     6.577436335    23.110635505   0   0   0 # oby
     88      1   4 -0.950000    25.335144083     8.272835768    25.585915783   0   0   0 # ohy
     89      1   4 -0.950000    24.852240194     3.717845567    27.533320659   0   0   0 # ohy
     90      1   4 -0.950000    24.723781826     7.094516428    27.633187371   0   0   0 # ohy
     91      1   4 -0.950000     1.117791736     5.460079813    27.576125327   0   0   0 # ohy
     92      1   4 -0.950000     1.419162155     2.859428180    27.533319008   0   0   0 # ohy
     93      1   5  0.425000     0.161571302     9.204055142    25.814161966   0   0   0 # hoy
     94      1   5  0.425000    24.340375386     4.234239975    28.389322867   0   0   0 # hoy
     95      1   5  0.425000    24.382459964     7.021710108    28.460665357   0   0   0 # hoy
     96      1   5  0.425000     1.380063074     5.312581815    28.496327745   0   0   0 # hoy
     97      1   5  0.425000     1.232066447     8.307649828    28.510594905   0   0   0 # hoy
     98      1   5  0.425000     1.312168186     2.168890641    28.382190135   0   0   0 # hoy
     99      1   1  1.575000     1.739559350     8.502819658    12.246926288   0   0   0 # aoy
    100      1   1  1.575000     1.593652349     2.549910311    12.175587569   0   0   0 # aoy
    101      1   2  2.100000     0.774562537     7.203307414     9.436373436   0   0   0 # sty
    102      1   2  2.100000     0.864010880     1.303810664     9.372174583   0   0   0 # sty
    103      1   3 -1.050000     0.784032952     7.168387223    10.991445812   0   0   0 # oby
    104      1   3 -1.050000     1.041758707     1.031068902    11.084183822   0   0   0 # oby
    105      1   3 -1.050000     2.034333625     6.177192076     9.108240060   0   0   0 # oby
    106      1   3 -1.050000     2.086233733     2.048692111     8.765839670   0   0   0 # oby
    107      1   4 -0.950000     2.257774470     1.124352401    13.061008880   0   0   0 # ohy
    108      1   4 -0.950000     0.655205738     3.812736118    11.062787352   0   0   0 # ohy
    109      1   4 -0.950000     0.074918407     8.271237587    13.010197176   0   0   0 # ohy
    110      1   5  0.425000     2.778615020     1.227230343    13.981220427   0   0   0 # hoy
    111      1   5  0.425000     1.190560710     4.576458817    10.691847895   0   0   0 # hoy
    112      1   1  1.575000     3.174735248     8.502819658    26.712987592   0   0   0 # aoy
    113      1   1  1.575000     3.028828247     2.549910311    26.641648873   0   0   0 # aoy
    114      1   2  2.100000     2.209738435     7.203307414    23.902434740   0   0   0 # sty
    115      1   2  2.100000     2.299186778     1.303810664    23.838235887   0   0   0 # sty
    116      1   3 -1.050000     2.219208850     7.168387223    25.457507116   0   0   0 # oby
    117      1   3 -1.050000     2.476934605     1.031068902    25.550245126   0   0   0 # oby
    118      1   3 -1.050000     3.469509523     6.177192076    23.574301364   0   0   0 # oby
    119      1   3 -1.050000     3.521409631     2.048692111    23.231900974   0   0   0 # oby
    120      1   4 -0.950000     3.692950368     1.124352401    27.527070184   0   0   0 # ohy
    121      1   4 -0.950000     2.090381636     3.812736118    25.528848656   0   0   0 # ohy
    122      1   4 -0.950000     1.510094305     8.271237587    27.476258480   0   0   0 # ohy
    123      1   5  0.425000     4.213790918     1.227230343    28.447281731   0   0   0 # hoy
    124      1   5  0.425000     2.625736608     4.576458817    25.157909199   0   0   0 # hoy
    125      1   3 -1.050000    25.758432619     2.983785187     3.959606778   0   0   0 # oby
    126      1   4 -0.950000    25.321517987     4.016300843     5.942685135   0   0   0 # ohy
    127      1   4 -0.950000    25.193059619     7.392971704     6.042551847   0   0   0 # ohy
    128      1   5  0.425000    24.809653179     4.532695251     6.798687343   0   0   0 # hoy
    129      1   5  0.425000    24.851737757     7.320165384     6.870029833   0   0   0 # hoy
    130      1   3 -1.050000     1.423608517     2.983785187    18.425668082   0   0   0 # oby
    131      1   4 -0.950000     0.986693885     4.016300843    20.408746439   0   0   0 # ohy
    132      1   4 -0.950000     0.858235517     7.392971704    20.508613151   0   0   0 # ohy
    133      1   5  0.425000     0.474829077     4.532695251    21.264748647   0   0   0 # hoy
    134      1   5  0.425000     0.516913655     7.320165384    21.336091137   0   0   0 # hoy
    135      1   1  1.575000     6.092276811     4.401836405     5.122348133   0   0   0 # aoy
    136      1   1  1.575000     6.236772059     7.303633477     4.986814346   0   0   0 # aoy
    137      1   1  1.575000     8.798013041     8.801274934     5.122352068   0   0   0 # aoy
    138      1   1  1.575000     8.652106040     2.848365587     5.051013349   0   0   0 # aoy
    139      1   2  2.100000     5.376968064     3.107174125     2.169132252   0   0   0 # sty
    140      1   2  2.100000     5.437022963     5.791435618     2.383133191   0   0   0 # sty
    141      1   2  2.100000     7.833016228     7.501762690     2.311799216   0   0   0 # sty
    142      1   2  2.100000     7.922464571     1.602265940     2.247600363   0   0   0 # sty
    143      1   3 -1.050000     5.142432619     2.983785187     3.959606778   0   0   0 # oby
    144      1   3 -1.050000     5.380868330     5.840381317     3.838339162   0   0   0 # oby
    145      1   3 -1.050000     5.643678017     4.370212200     1.577058366   0   0   0 # oby
    146      1   3 -1.050000     6.534138084     1.972073010     1.626993322   0   0   0 # oby
    147      1   3 -1.050000     6.451181170     6.875891611     1.519999981   0   0   0 # oby
    148      1   3 -1.050000     7.842486643     7.466842499     3.866871592   0   0   0 # oby
    149      1   3 -1.050000     8.100212398     1.329524178     3.959609602   0   0   0 # oby
    150      1   3 -1.050000     8.024542104    26.858639092     1.598464821   0  -1   0 # oby
    151      1   3 -1.050000     9.092787316     6.475647352     1.983665840   0   0   0 # oby
    152      1   3 -1.050000     9.144687424     2.347147387     1.641265450   0   0   0 # oby
    153      1   4 -0.950000     5.188421876     8.571291044     3.995280259   0   0   0 # ohy
    154      1   4 -0.950000     9.316228161     1.422807677     5.936434660   0   0   0 # ohy
    155      1   4 -0.950000     4.705517987     4.016300843     5.942685135   0   0   0 # ohy
    156      1   4 -0.950000     4.577059619     7.392971704     6.042551847   0   0   0 # ohy
    157      1   4 -0.950000     7.713659429     4.111191394     3.938213132   0   0   0 # ohy
    158      1   4 -0.950000     6.741069529     5.758535089     5.985489803   0   0   0 # ohy
    159      1   4 -0.950000     7.133372098     8.569692863     5.885622956   0   0   0 # ohy
    160      1   4 -0.950000     7.042439948     3.157883456     5.942683484   0   0   0 # ohy
    161      1   5  0.425000     5.784849095     9.502510418     4.223526442   0   0   0 # hoy
    162      1   5  0.425000     9.837068711     1.525685619     6.856646207   0   0   0 # hoy
    163      1   5  0.425000     4.193653179     4.532695251     6.798687343   0   0   0 # hoy
    164      1   5  0.425000     4.235737757     7.320165384     6.870029833   0   0   0 # hoy
    165      1   5  0.425000     8.249014401     4.874914093     3.567273675   0   0   0 # hoy
    166      1   5  0.425000     7.003340867     5.611037091     6.905692221   0   0   0 # hoy
    167      1   5  0.425000     6.855344240     8.606105104     6.919959381   0   0   0 # hoy
    168      1   5  0.425000     6.935445979     2.467345917     6.791554611   0   0   0 # hoy
    169      1   1  1.575000     4.187823120     4.103381129    12.246922353   0   0   0 # aoy
    170      1   1  1.575000     4.332318368     7.005178201    12.111388566   0   0   0 # aoy
    171      1   1  1.575000     6.893559350     8.502819658    12.246926288   0   0   0 # aoy
    172      1   1  1.575000     6.747652349     2.549910311    12.175587569   0   0   0 # aoy
    173      1   2  2.100000     3.472514373     2.808718849     9.293706472   0   0   0 # sty
    174      1   2  2.100000     3.532569272     5.492980342     9.507707411   0   0   0 # sty
    175      1   2  2.100000     5.928562537     7.203307414     9.436373436   0   0   0 # sty
    176      1   2  2.100000     6.018010880     1.303810664     9.372174583   0   0   0 # sty
    177      1   3 -1.050000     3.237978928     2.685329911    11.084180998   0   0   0 # oby
    178      1   3 -1.050000     3.476414639     5.541926041    10.962913382   0   0   0 # oby
    179      1   3 -1.050000     3.739224326     4.071756924     8.701632586   0   0   0 # oby
    180      1   3 -1.050000     4.629684393     1.673617734     8.751567542   0   0   0 # oby
    181      1   3 -1.050000     4.546727479     6.577436335     8.644574201   0   0   0 # oby
    182      1   3 -1.050000     5.938032952     7.168387223    10.991445812   0   0   0 # oby
    183      1   3 -1.050000     6.195758707     1.031068902    11.084183822   0   0   0 # oby
    184      1   3 -1.050000     7.188333625     6.177192076     9.108240060   0   0   0 # oby
    185      1   3 -1.050000     7.240233733     2.048692111     8.765839670   0   0   0 # oby
    186      1   4 -0.950000     3.283968185     8.272835768    11.119854479   0   0   0 # ohy
    187      1   4 -0.950000     7.411774470     1.124352401    13.061008880   0   0   0 # ohy
    188      1   4 -0.950000     2.801064296     3.717845567    13.067259355   0   0   0 # ohy
    189      1   4 -0.950000     2.672605928     7.094516428    13.167126067   0   0   0 # ohy
    190      1   4 -0.950000     5.809205738     3.812736118    11.062787352   0   0   0 # ohy
    191      1   4 -0.950000     4.836615838     5.460079813    13.110064023   0   0   0 # ohy
    192      1   4 -0.950000     5.228918407     8.271237587    13.010197176   0   0   0 # ohy
    193      1   4 -0.950000     5.137986257     2.859428180    13.067257704   0   0   0 # ohy
    194      1   5  0.425000     3.880395404     9.204055142    11.348100662   0   0   0 # hoy
    195      1   5  0.425000     7.932615020     1.227230343    13.981220427   0   0   0 # hoy
    196      1   5  0.425000     2.289199488     4.234239975    13.923261563   0   0   0 # hoy
    197      1   5  0.425000     2.331284066     7.021710108    13.994604053   0   0   0 # hoy
    198      1   5  0.425000     6.344560710     4.576458817    10.691847895   0   0   0 # hoy
    199      1   5  0.425000     5.098887176     5.312581815    14.030266441   0   0   0 # hoy
    200      1   5  0.425000     4.950890549     8.307649828    14.044533601   0   0   0 # hoy
    201      1   5  0.425000     5.030992288     2.168890641    13.916128831   0   0   0 # hoy
    202      1   1  1.575000     7.527452709     4.401836405    19.588409437   0   0   0 # aoy
    203      1   1  1.575000     7.671947957     7.303633477    19.452875650   0   0   0 # aoy
    204      1   1  1.575000    10.233188939     8.801274934    19.588413372   0   0   0 # aoy
    205      1   1  1.575000    10.087281938     2.848365587    19.517074653   0   0   0 # aoy
    206      1   2  2.100000     6.812143962     3.107174125    16.635193556   0   0   0 # sty
    207      1   2  2.100000     6.872198861     5.791435618    16.849194495   0   0   0 # sty
    208      1   2  2.100000     9.268192126     7.501762690    16.777860520   0   0   0 # sty
    209      1   2  2.100000     9.357640469     1.602265940    16.713661667   0   0   0 # sty
    210      1   3 -1.050000     6.577608517     2.983785187    18.425668082   0   0   0 # oby
    211      1   3 -1.050000     6.816044228     5.840381317    18.304400466   0   0   0 # oby
    212      1   3 -1.050000     7.078853915     4.370212200    16.043119670   0   0   0 # oby
    213      1   3 -1.050000     7.969313982     1.972073010    16.093054626   0   0   0 # oby
    214      1   3 -1.050000     7.886357068     6.875891611    15.986061285   0   0   0 # oby
    215      1   3 -1.050000     9.277662541     7.466842499    18.332932896   0   0   0 # oby
    216      1   3 -1.050000     9.535388296     1.329524178    18.425670906   0   0   0 # oby
    217      1   3 -1.050000     9.459718002    26.858639092    16.064526125   0  -1   0 # oby
    218      1   3 -1.050000    10.527963214     6.475647352    16.449727144   0   0   0 # oby
    219      1   3 -1.050000    10.579863322     2.347147387    16.107326754   0   0   0 # oby
    220      1   4 -0.950000     6.623597774     8.571291044    18.461341563   0   0   0 # ohy
    221      1   4 -0.950000    10.751404059     1.422807677    20.402495964   0   0   0 # ohy
    222      1   4 -0.950000     6.140693885     4.016300843    20.408746439   0   0   0 # ohy
    223      1   4 -0.950000     6.012235517     7.392971704    20.508613151   0   0   0 # ohy
    224      1   4 -0.950000     9.148835327     4.111191394    18.404274436   0   0   0 # ohy
    225      1   4 -0.950000     8.176245427     5.758535089    20.451551107   0   0   0 # ohy
    226      1   4 -0.950000     8.568547996     8.569692863    20.351684260   0   0   0 # ohy
    227      1   4 -0.950000     8.477615846     3.157883456    20.408744788   0   0   0 # ohy
    228      1   5  0.425000     7.220024993     9.502510418    18.689587746   0   0   0 # hoy
    229      1   5  0.425000    11.272244609     1.525685619    21.322707511   0   0   0 # hoy
    230      1   5  0.425000     5.628829077     4.532695251    21.264748647   0   0   0 # hoy
    231      1   5  0.425000     5.670913655     7.320165384    21.336091137   0   0   0 # hoy
    232      1   5  0.425000     9.684190299     4.874914093    18.033334979   0   0   0 # hoy
    233      1   5  0.425000     8.438516765     5.611037091    21.371753525   0   0   0 # hoy
    234      1   5  0.425000     8.290520138     8.606105104    21.386020685   0   0   0 # hoy
    235      1   5  0.425000     8.370621877     2.467345917    21.257615915   0   0   0 # hoy
    236      1   1  1.575000     5.622999018     4.103381129    26.712983657   0   0   0 # aoy
    237      1   1  1.575000     5.767494266     7.005178201    26.577449870   0   0   0 # aoy
    238      1   1  1.575000     8.328735248     8.502819658    26.712987592   0   0   0 # aoy
    239      1   1  1.575000     8.182828247     2.549910311    26.641648873   0   0   0 # aoy
    240      1   2  2.100000     4.907690271     2.808718849    23.759767776   0   0   0 # sty
    241      1   2  2.100000     4.967745170     5.492980342    23.973768715   0   0   0 # sty
    242      1   2  2.100000     7.363738435     7.203307414    23.902434740   0   0   0 # sty
    243      1   2  2.100000     7.453186778     1.303810664    23.838235887   0   0   0 # sty
    244      1   3 -1.050000     4.673154826     2.685329911    25.550242302   0   0   0 # oby
    245      1   3 -1.050000     4.911590537     5.541926041    25.428974686   0   0   0 # oby
    246      1   3 -1.050000     5.174400224     4.071756924    23.167693890   0   0   0 # oby
    247      1   3 -1.050000     6.064860291     1.673617734    23.217628846   0   0   0 # oby
    248      1   3 -1.050000     5.981903377     6.577436335    23.110635505   0   0   0 # oby
    249      1   3 -1.050000     7.373208850     7.168387223    25.457507116   0   0   0 # oby
    250      1   3 -1.050000     7.630934605     1.031068902    25.550245126   0   0   0 # oby
    251      1   3 -1.050000     8.623509523     6.177192076    23.574301364   0   0   0 # oby
    252      1   3 -1.050000     8.675409631     2.048692111    23.231900974   0   0   0 # oby
    253      1   4 -0.950000     4.719144083     8.272835768    25.585915783   0   0   0 # ohy
    254      1   4 -0.950000     8.846950368     1.124352401    27.527070184   0   0   0 # ohy
    255      1   4 -0.950000     4.236240194     3.717845567    27.533320659   0   0   0 # ohy
    256      1   4 -0.950000     4.107781826     7.094516428    27.633187371   0   0   0 # ohy
    257      1   4 -0.950000     7.244381636     3.812736118    25.528848656   0   0   0 # ohy
    258      1   4 -0.950000     6.271791736     5.460079813    27.576125327   0   0   0 # ohy
    259      1   4 -0.950000     6.664094305     8.271237587    27.476258480   0   0   0 # ohy
    260      1   4 -0.950000     6.573162155     2.859428180    27.533319008   0   0   0 # ohy
    261      1   5  0.425000     5.315571302     9.204055142    25.814161966   0   0   0 # hoy
    262      1   5  0.425000     9.367790918     1.227230343    28.447281731   0   0   0 # hoy
    263      1   5  0.425000     3.724375386     4.234239975    28.389322867   0   0   0 # hoy
    264      1   5  0.425000     3.766459964     7.021710108    28.460665357   0   0   0 # hoy
    265      1   5  0.425000     7.779736608     4.576458817    25.157909199   0   0   0 # hoy
    266      1   5  0.425000     6.534063074     5.312581815    28.496327745   0   0   0 # hoy
    267      1   5  0.425000     6.386066447     8.307649828    28.510594905   0   0   0 # hoy
    268      1   5  0.425000     6.466168186     2.168890641    28.382190135   0   0   0 # hoy
    269      1   1  1.575000    11.246276811     4.401836405     5.122348133   0   0   0 # aoy
    270      1   1  1.575000    11.390772059     7.303633477     4.986814346   0   0   0 # aoy
    271      1   1  1.575000    13.952013041     8.801274934     5.122352068   0   0   0 # aoy
    272      1   1  1.575000    13.806106040     2.848365587     5.051013349   0   0   0 # aoy
    273      1   2  2.100000    10.530968064     3.107174125     2.169132252   0   0   0 # sty
    274      1   2  2.100000    10.591022963     5.791435618     2.383133191   0   0   0 # sty
    275      1   2  2.100000    12.987016228     7.501762690     2.311799216   0   0   0 # sty
    276      1   2  2.100000    13.076464571     1.602265940     2.247600363   0   0   0 # sty
    277      1   3 -1.050000    10.296432619     2.983785187     3.959606778   0   0   0 # oby
    278      1   3 -1.050000    10.534868330     5.840381317     3.838339162   0   0   0 # oby
    279      1   3 -1.050000    10.797678017     4.370212200     1.577058366   0   0   0 # oby
    280      1   3 -1.050000    11.688138084     1.972073010     1.626993322   0   0   0 # oby
    281      1   3 -1.050000    11.605181170     6.875891611     1.519999981   0   0   0 # oby
    282      1   3 -1.050000    12.996486643     7.466842499     3.866871592   0   0   0 # oby
    283      1   3 -1.050000    13.254212398     1.329524178     3.959609602   0   0   0 # oby
    284      1   3 -1.050000    13.178542104    26.858639092     1.598464821   0  -1   0 # oby
    285      1   3 -1.050000    14.246787316     6.475647352     1.983665840   0   0   0 # oby
    286      1   3 -1.050000    14.298687424     2.347147387     1.641265450   0   0   0 # oby
    287      1   4 -0.950000    10.342421876     8.571291044     3.995280259   0   0   0 # ohy
    288      1   4 -0.950000    14.470228161     1.422807677     5.936434660   0   0   0 # ohy
    289      1   4 -0.950000     9.859517987     4.016300843     5.942685135   0   0   0 # ohy
    290      1   4 -0.950000     9.731059619     7.392971704     6.042551847   0   0   0 # ohy
    291      1   4 -0.950000    12.867659429     4.111191394     3.938213132   0   0   0 # ohy
    292      1   4 -0.950000    11.895069529     5.758535089     5.985489803   0   0   0 # ohy
    293      1   4 -0.950000    12.287372098     8.569692863     5.885622956   0   0   0 # ohy
    294      1   4 -0.950000    12.196439948     3.157883456     5.942683484   0   0   0 # ohy
    295      1   5  0.425000    10.938849095     9.502510418     4.223526442   0   0   0 # hoy
    296      1   5  0.425000    14.991068711     1.525685619     6.856646207   0   0   0 # hoy
    297      1   5  0.425000     9.347653179     4.532695251     6.798687343   0   0   0 # hoy
    298      1   5  0.425000     9.389737757     7.320165384     6.870029833   0   0   0 # hoy
    299      1   5  0.425000    13.403014401     4.874914093     3.567273675   0   0   0 # hoy
    300      1   5  0.425000    12.157340867     5.611037091     6.905692221   0   0   0 # hoy
    301      1   5  0.425000    12.009344240     8.606105104     6.919959381   0   0   0 # hoy
    302      1   5  0.425000    12.089445979     2.467345917     6.791554611   0   0   0 # hoy
    303      1   1  1.575000     9.341823120     4.103381129    12.246922353   0   0   0 # aoy
    304      1   1  1.575000     9.486318368     7.005178201    12.111388566   0   0   0 # aoy
    305      1   1  1.575000    12.047559350     8.502819658    12.246926288   0   0   0 # aoy
    306      1   1  1.575000    11.901652349     2.549910311    12.175587569   0   0   0 # aoy
    307      1   2  2.100000     8.626514373     2.808718849     9.293706472   0   0   0 # sty
    308      1   2  2.100000     8.686569272     5.492980342     9.507707411   0   0   0 # sty
    309      1   2  2.100000    11.082562537     7.203307414     9.436373436   0   0   0 # sty
    310      1   2  2.100000    11.172010880     1.303810664     9.372174583   0   0   0 # sty
    311      1   3 -1.050000     8.391978928     2.685329911    11.084180998   0   0   0 # oby
    312      1   3 -1.050000     8.630414639     5.541926041    10.962913382   0   0   0 # oby
    313      1   3 -1.050000     8.893224326     4.071756924     8.701632586   0   0   0 # oby
    314      1   3 -1.050000     9.783684393     1.673617734     8.751567542   0   0   0 # oby
    315      1   3 -1.050000     9.700727479     6.577436335     8.644574201   0   0   0 # oby
    316      1   3 -1.050000    11.092032952     7.168387223    10.991445812   0   0   0 # oby
    317      1   3 -1.050000    11.349758707     1.031068902    11.084183822   0   0   0 # oby
    318      1   3 -1.050000    12.342333625     6.177192076     9.108240060   0   0   0 # oby
    319      1   3 -1.050000    12.394233733     2.048692111     8.765839670   0   0   0 # oby
    320      1   4 -0.950000     8.437968185     8.272835768    11.119854479   0   0   0 # ohy
    321      1   4 -0.950000    12.565774470     1.124352401    13.061008880   0   0   0 # ohy
    322      1   4 -0.950000     7.955064296     3.717845567    13.067259355   0   0   0 # ohy
    323      1   4 -0.950000     7.826605928     7.094516428    13.167126067   0   0   0 # ohy
    324      1   4 -0.950000    10.963205738     3.812736118    11.062787352   0   0   0 # ohy
    325      1   4 -0.950000     9.990615838     5.460079813    13.110064023   0   0   0 # ohy
    326      1   4 -0.950000    10.382918407     8.271237587    13.010197176   0   0   0 # ohy
    327      1   4 -0.950000    10.291986257     2.859428180    13.067257704   0   0   0 # ohy
    328      1   5  0.425000     9.034395404     9.204055142    11.348100662   0   0   0 # hoy
    329      1   5  0.425000    13.086615020     1.227230343    13.981220427   0   0   0 # hoy
    330      1   5  0.425000     7.443199488     4.234239975    13.923261563   0   0   0 # hoy
    331      1   5  0.425000     7.485284066     7.021710108    13.994604053   0   0   0 # hoy
    332      1   5  0.425000    11.498560710     4.576458817    10.691847895   0   0   0 # hoy
    333      1   5  0.425000    10.252887176     5.312581815    14.030266441   0   0   0 # hoy
    334      1   5  0.425000    10.104890549     8.307649828    14.044533601   0   0   0 # hoy
    335      1   5  0.425000    10.184992288     2.168890641    13.916128831   0   0   0 # hoy
    336      1   1  1.575000    12.681452709     4.401836405    19.588409437   0   0   0 # aoy
    337      1   1  1.575000    12.825947957     7.303633477    19.452875650   0   0   0 # aoy
    338      1   1  1.575000    15.387188939     8.801274934    19.588413372   0   0   0 # aoy
    339      1   1  1.575000    15.241281938     2.848365587    19.517074653   0   0   0 # aoy
    340      1   2  2.100000    11.966143962     3.107174125    16.635193556   0   0   0 # sty
    341      1   2  2.100000    12.026198861     5.791435618    16.849194495   0   0   0 # sty
    342      1   2  2.100000    14.422192126     7.501762690    16.777860520   0   0   0 # sty
    343      1   2  2.100000    14.511640469     1.602265940    16.713661667   0   0   0 # sty
    344      1   3 -1.050000    11.731608517     2.983785187    18.425668082   0   0   0 # oby
    345      1   3 -1.050000    11.970044228     5.840381317    18.304400466   0   0   0 # oby
    346      1   3 -1.050000    12.232853915     4.370212200    16.043119670   0   0   0 # oby
    347      1   3 -1.050000    13.123313982     1.972073010    16.093054626   0   0   0 # oby
    348      1   3 -1.050000    13.040357068     6.875891611    15.986061285   0   0   0 # oby
    349      1   3 -1.050000    14.431662541     7.466842499    18.332932896   0   0   0 # oby
    350      1   3 -1.050000    14.689388296     1.329524178    18.425670906   0   0   0 # oby
    351      1   3 -1.050000    14.613718002    26.858639092    16.064526125   0  -1   0 # oby
    352      1   3 -1.050000    15.681963214     6.475647352    16.449727144   0   0   0 # oby
    353      1   3 -1.050000    15.733863322     2.347147387    16.107326754   0   0   0 # oby
    354      1   4 -0.950000    11.777597774     8.571291044    18.461341563   0   0   0 # ohy
    355      1   4 -0.950000    15.905404059     1.422807677    20.402495964   0   0   0 # ohy
    356      1   4 -0.950000    11.294693885     4.016300843    20.408746439   0   0   0 # ohy
    357      1   4 -0.950000    11.166235517     7.392971704    20.508613151   0   0   0 # ohy
    358      1   4 -0.950000    14.302835327     4.111191394    18.404274436   0   0   0 # ohy
    359      1   4 -0.950000    13.330245427     5.758535089    20.451551107   0   0   0 # ohy
    360      1   4 -0.950000    13.722547996     8.569692863    20.351684260   0   0   0 # ohy
    361      1   4 -0.950000    13.631615846     3.157883456    20.408744788   0   0   0 # ohy
    362      1   5  0.425000    12.374024993     9.502510418    18.689587746   0   0   0 # hoy
    363      1   5  0.425000    16.426244609     1.525685619    21.322707511   0   0   0 # hoy
    364      1   5  0.425000    10.782829077     4.532695251    21.264748647   0   0   0 # hoy
    365      1   5  0.425000    10.824913655     7.320165384    21.336091137   0   0   0 # hoy
    366      1   5  0.425000    14.838190299     4.874914093    18.033334979   0   0   0 # hoy
    367      1   5  0.425000    13.592516765     5.611037091    21.371753525   0   0   0 # hoy
    368      1   5  0.425000    13.444520138     8.606105104    21.386020685   0   0   0 # hoy
    369      1   5  0.425000    13.524621877     2.467345917    21.257615915   0   0   0 # hoy
    370      1   1  1.575000    10.776999018     4.103381129    26.712983657   0   0   0 # aoy
    371      1   1  1.575000    10.921494266     7.005178201    26.577449870   0   0   0 # aoy
    372      1   1  1.575000    13.482735248     8.502819658    26.712987592   0   0   0 # aoy
    373      1   1  1.575000    13.336828247     2.549910311    26.641648873   0   0   0 # aoy
    374      1   2  2.100000    10.061690271     2.808718849    23.759767776   0   0   0 # sty
    375      1   2  2.100000    10.121745170     5.492980342    23.973768715   0   0   0 # sty
    376      1   2  2.100000    12.517738435     7.203307414    23.902434740   0   0   0 # sty
    377      1   2  2.100000    12.607186778     1.303810664    23.838235887   0   0   0 # sty
    378      1   3 -1.050000     9.827154826     2.685329911    25.550242302   0   0   0 # oby
    379      1   3 -1.050000    10.065590537     5.541926041    25.428974686   0   0   0 # oby
    380      1   3 -1.050000    10.328400224     4.071756924    23.167693890   0   0   0 # oby
    381      1   3 -1.050000    11.218860291     1.673617734    23.217628846   0   0   0 # oby
    382      1   3 -1.050000    11.135903377     6.577436335    23.110635505   0   0   0 # oby
    383      1   3 -1.050000    12.527208850     7.168387223    25.457507116   0   0   0 # oby
    384      1   3 -1.050000    12.784934605     1.031068902    25.550245126   0   0   0 # oby
    385      1   3 -1.050000    13.777509523     6.177192076    23.574301364   0   0   0 # oby
    386      1   3 -1.050000    13.829409631     2.048692111    23.231900974   0   0   0 # oby
    387      1   4 -0.950000     9.873144083     8.272835768    25.585915783   0   0   0 # ohy
    388      1   4 -0.950000    14.000950368     1.124352401    27.527070184   0   0   0 # ohy
    389      1   4 -0.950000     9.390240194     3.717845567    27.533320659   0   0   0 # ohy
    390      1   4 -0.950000     9.261781826     7.094516428    27.633187371   0   0   0 # ohy
    391      1   4 -0.950000    12.398381636     3.812736118    25.528848656   0   0   0 # ohy
    392      1   4 -0.950000    11.425791736     5.460079813    27.576125327   0   0   0 # ohy
    393      1   4 -0.950000    11.818094305     8.271237587    27.476258480   0   0   0 # ohy
    394      1   4 -0.950000    11.727162155     2.859428180    27.533319008   0   0   0 # ohy
    395      1   5  0.425000    10.469571302     9.204055142    25.814161966   0   0   0 # hoy
    396      1   5  0.425000    14.521790918     1.227230343    28.447281731   0   0   0 # hoy
    397      1   5  0.425000     8.878375386     4.234239975    28.389322867   0   0   0 # hoy
    398      1   5  0.425000     8.920459964     7.021710108    28.460665357   0   0   0 # hoy
    399      1   5  0.425000    12.933736608     4.576458817    25.157909199   0   0   0 # hoy
    400      1   5  0.425000    11.688063074     5.312581815    28.496327745   0   0   0 # hoy
    401      1   5  0.425000    11.540066447     8.307649828    28.510594905   0   0   0 # hoy
    402      1   5  0.425000    11.620168186     2.168890641    28.382190135   0   0   0 # hoy
    403      1   1  1.575000    16.400276811     4.401836405     5.122348133   0   0   0 # aoy
    404      1   1  1.575000    16.544772059     7.303633477     4.986814346   0   0   0 # aoy
    405      1   1  1.575000    19.106013041     8.801274934     5.122352068   0   0   0 # aoy
    406      1   1  1.575000    18.960106040     2.848365587     5.051013349   0   0   0 # aoy
    407      1   2  2.100000    15.684968064     3.107174125     2.169132252   0   0   0 # sty
    408      1   2  2.100000    15.745022963     5.791435618     2.383133191   0   0   0 # sty
    409      1   2  2.100000    18.141016228     7.501762690     2.311799216   0   0   0 # sty
    410      1   2  2.100000    18.230464571     1.602265940     2.247600363   0   0   0 # sty
    411      1   3 -1.050000    15.450432619     2.983785187     3.959606778   0   0   0 # oby
    412      1   3 -1.050000    15.688868330     5.840381317     3.838339162   0   0   0 # oby
    413      1   3 -1.050000    15.951678017     4.370212200     1.577058366   0   0   0 # oby
    414      1   3 -1.050000    16.842138084     1.972073010     1.626993322   0   0   0 # oby
    415      1   3 -1.050000    16.759181170     6.875891611     1.519999981   0   0   0 # oby
    416      1   3 -1.050000    18.150486643     7.466842499     3.866871592   0   0   0 # oby
    417      1   3 -1.050000    18.408212398     1.329524178     3.959609602   0   0   0 # oby
    418      1   3 -1.050000    18.332542104    26.858639092     1.598464821   0  -1   0 # oby
    419      1   3 -1.050000    19.400787316     6.475647352     1.983665840   0   0   0 # oby
    420      1   3 -1.050000    19.452687424     2.347147387     1.641265450   0   0   0 # oby
    421      1   4 -0.950000    15.496421876     8.571291044     3.995280259   0   0   0 # ohy
    422      1   4 -0.950000    19.624228161     1.422807677     5.936434660   0   0   0 # ohy
    423      1   4 -0.950000    15.013517987     4.016300843     5.942685135   0   0   0 # ohy
    424      1   4 -0.950000    14.885059619     7.392971704     6.042551847   0   0   0 # ohy
    425      1   4 -0.950000    18.021659429     4.111191394     3.938213132   0   0   0 # ohy
    426      1   4 -0.950000    17.049069529     5.758535089     5.985489803   0   0   0 # ohy
    427      1   4 -0.950000    17.441372098     8.569692863     5.885622956   0   0   0 # ohy
    428      1   4 -0.950000    17.350439948     3.157883456     5.942683484   0   0   0 # ohy
    429      1   5  0.425000    16.092849095     9.502510418     4.223526442   0   0   0 # hoy
    430      1   5  0.425000    20.145068711     1.525685619     6.856646207   0   0   0 # hoy
    431      1   5  0.425000    14.501653179     4.532695251     6.798687343   0   0   0 # hoy
    432      1   5  0.425000    14.543737757     7.320165384     6.870029833   0   0   0 # hoy
    433      1   5  0.425000    18.557014401     4.874914093     3.567273675   0   0   0 # hoy
    434      1   5  0.425000    17.311340867     5.611037091     6.905692221   0   0   0 # hoy
    435      1   5  0.425000    17.163344240     8.606105104     6.919959381   0   0   0 # hoy
    436      1   5  0.425000    17.243445979     2.467345917     6.791554611   0   0   0 # hoy
    437      1   1  1.575000    14.495823120     4.103381129    12.246922353   0   0   0 # aoy
    438      1   1  1.575000    14.640318368     7.005178201    12.111388566   0   0   0 # aoy
    439      1   1  1.575000    17.201559350     8.502819658    12.246926288   0   0   0 # aoy
    440      1   1  1.575000    17.055652349     2.549910311    12.175587569   0   0   0 # aoy
    441      1   2  2.100000    13.780514373     2.808718849     9.293706472   0   0   0 # sty
    442      1   2  2.100000    13.840569272     5.492980342     9.507707411   0   0   0 # sty
    443      1   2  2.100000    16.236562537     7.203307414     9.436373436   0   0   0 # sty
    444      1   2  2.100000    16.326010880     1.303810664     9.372174583   0   0   0 # sty
    445      1   3 -1.050000    13.545978928     2.685329911    11.084180998   0   0   0 # oby
    446      1   3 -1.050000    13.784414639     5.541926041    10.962913382   0   0   0 # oby
    447      1   3 -1.050000    14.047224326     4.071756924     8.701632586   0   0   0 # oby
    448      1   3 -1.050000    14.937684393     1.673617734     8.751567542   0   0   0 # oby
    449      1   3 -1.050000    14.854727479     6.577436335     8.644574201   0   0   0 # oby
    450      1   3 -1.050000    16.246032952     7.168387223    10.991445812   0   0   0 # oby
    451      1   3 -1.050000    16.503758707     1.031068902    11.084183822   0   0   0 # oby
    452      1   3 -1.050000    17.496333625     6.177192076     9.108240060   0   0   0 # oby
    453      1   3 -1.050000    17.548233733     2.048692111     8.765839670   0   0   0 # oby
    454      1   4 -0.950000    13.591968185     8.272835768    11.119854479   0   0   0 # ohy
    455      1   4 -0.950000    17.719774470     1.124352401    13.061008880   0   0   0 # ohy
    456      1   4 -0.950000    13.109064296     3.717845567    13.067259355   0   0   0 # ohy
    457      1   4 -0.950000    12.980605928     7.094516428    13.167126067   0   0   0 # ohy
    458      1   4 -0.950000    16.117205738     3.812736118    11.062787352   0   0   0 # ohy
    459      1   4 -0.950000    15.144615838     5.460079813    13.110064023   0   0   0 # ohy
    460      1   4 -0.950000    15.536918407     8.271237587    13.010197176   0   0   0 # ohy
    461      1   4 -0.950000    15.445986257     2.859428180    13.067257704   0   0   0 # ohy
    462      1   5  0.425000    14.188395404     9.204055142    11.348100662   0   0   0 # hoy
    463      1   5  0.425000    18.240615020     1.227230343    13.981220427   0   0   0 # hoy
    464      1   5  0.425000    12.597199488     4.234239975    13.923261563   0   0   0 # hoy
    465      1   5  0.425000    12.639284066     7.021710108    13.994604053   0   0   0 # hoy
    466      1   5  0.425000    16.652560710     4.576458817    10.691847895   0   0   0 # hoy
    467      1   5  0.425000    15.406887176     5.312581815    14.030266441   0   0   0 # hoy
    468      1   5  0.425000    15.258890549     8.307649828    14.044533601   0   0   0 # hoy
    469      1   5  0.425000    15.338992288     2.168890641    13.916128831   0   0   0 # hoy
    470      1   1  1.575000    17.835452709     4.401836405    19.588409437   0   0   0 # aoy
    471      1   1  1.575000    17.979947957     7.303633477    19.452875650   0   0   0 # aoy
    472      1   1  1.575000    20.541188939     8.801274934    19.588413372   0   0   0 # aoy
    473      1   1  1.575000    20.395281938     2.848365587    19.517074653   0   0   0 # aoy
    474      1   2  2.100000    17.120143962     3.107174125    16.635193556   0   0   0 # sty
    475      1   2  2.100000    17.180198861     5.791435618    16.849194495   0   0   0 # sty
    476      1   2  2.100000    19.576192126     7.501762690    16.777860520   0   0   0 # sty
    477      1   2  2.100000    19.665640469     1.602265940    16.713661667   0   0   0 # sty
    478      1   3 -1.050000    16.885608517     2.983785187    18.425668082   0   0   0 # oby
    479      1   3 -1.050000    17.124044228     5.840381317    18.304400466   0   0   0 # oby
    480      1   3 -1.050000    17.386853915     4.370212200    16.043119670   0   0   0 # oby
    481      1   3 -1.050000    18.277313982     1.972073010    16.093054626   0   0   0 # oby
    482      1   3 -1.050000    18.194357068     6.875891611    15.986061285   0   0   0 # oby
    483      1   3 -1.050000    19.585662541     7.466842499    18.332932896   0   0   0 # oby
    484      1   3 -1.050000    19.843388296     1.329524178    18.425670906   0   0   0 # oby
    485      1   3 -1.050000    19.767718002    26.858639092    16.064526125   0  -1   0 # oby
    486      1   3 -1.050000    20.835963214     6.475647352    16.449727144   0   0   0 # oby
    487      1   3 -1.050000    20.887863322     2.347147387    16.107326754   0   0   0 # oby
    488      1   4 -0.950000    16.931597774     8.571291044    18.461341563   0   0   0 # ohy
    489      1   4 -0.950000    21.059404059     1.422807677    20.402495964   0   0   0 # ohy
    490      1   4 -0.950000    16.448693885     4.016300843    20.408746439   0   0   0 # ohy
    491      1   4 -0.950000    16.320235517     7.392971704    20.508613151   0   0   0 # ohy
    492      1   4 -0.950000    19.456835327     4.111191394    18.404274436   0   0   0 # ohy
    493      1   4 -0.950000    18.484245427     5.758535089    20.451551107   0   0   0 # ohy
    494      1   4 -0.950000    18.876547996     8.569692863    20.351684260   0   0   0 # ohy
    495      1   4 -0.950000    18.785615846     3.157883456    20.408744788   0   0   0 # ohy
    496      1   5  0.425000    17.528024993     9.502510418    18.689587746   0   0   0 # hoy
    497      1   5  0.425000    21.580244609     1.525685619    21.322707511   0   0   0 # hoy
    498      1   5  0.425000    15.936829077     4.532695251    21.264748647   0   0   0 # hoy
    499      1   5  0.425000    15.978913655     7.320165384    21.336091137   0   0   0 # hoy
    500      1   5  0.425000    19.992190299     4.874914093    18.033334979   0   0   0 # hoy
    501      1   5  0.425000    18.746516765     5.611037091    21.371753525   0   0   0 # hoy
    502      1   5  0.425000    18.598520138     8.606105104    21.386020685   0   0   0 # hoy
    503      1   5  0.425000    18.678621877     2.467345917    21.257615915   0   0   0 # hoy
    504      1   1  1.575000    15.930999018     4.103381129    26.712983657   0   0   0 # aoy
    505      1   1  1.575000    16.075494266     7.005178201    26.577449870   0   0   0 # aoy
    506      1   1  1.575000    18.636735248     8.502819658    26.712987592   0   0   0 # aoy
    507      1   1  1.575000    18.490828247     2.549910311    26.641648873   0   0   0 # aoy
    508      1   2  2.100000    15.215690271     2.808718849    23.759767776   0   0   0 # sty
    509      1   2  2.100000    15.275745170     5.492980342    23.973768715   0   0   0 # sty
    510      1   2  2.100000    17.671738435     7.203307414    23.902434740   0   0   0 # sty
    511      1   2  2.100000    17.761186778     1.303810664    23.838235887   0   0   0 # sty
    512      1   3 -1.050000    14.981154826     2.685329911    25.550242302   0   0   0 # oby
    513      1   3 -1.050000    15.219590537     5.541926041    25.428974686   0   0   0 # oby
    514      1   3 -1.050000    15.482400224     4.071756924    23.167693890   0   0   0 # oby
    515      1   3 -1.050000    16.372860291     1.673617734    23.217628846   0   0   0 # oby
    516      1   3 -1.050000    16.289903377     6.577436335    23.110635505   0   0   0 # oby
    517      1   3 -1.050000    17.681208850     7.168387223    25.457507116   0   0   0 # oby
    518      1   3 -1.050000    17.938934605     1.031068902    25.550245126   0   0   0 # oby
    519      1   3 -1.050000    18.931509523     6.177192076    23.574301364   0   0   0 # oby
    520      1   3 -1.050000    18.983409631     2.048692111    23.231900974   0   0   0 # oby
    521      1   4 -0.950000    15.027144083     8.272835768    25.585915783   0   0   0 # ohy
    522      1   4 -0.950000    19.154950368     1.124352401    27.527070184   0   0   0 # ohy
    523      1   4 -0.950000    14.544240194     3.717845567    27.533320659   0   0   0 # ohy
    524      1   4 -0.950000    14.415781826     7.094516428    27.633187371   0   0   0 # ohy
    525      1   4 -0.950000    17.552381636     3.812736118    25.528848656   0   0   0 # ohy
    526      1   4 -0.950000    16.579791736     5.460079813    27.576125327   0   0   0 # ohy
    527      1   4 -0.950000    16.972094305     8.271237587    27.476258480   0   0   0 # ohy
    528      1   4 -0.950000    16.881162155     2.859428180    27.533319008   0   0   0 # ohy
    529      1   5  0.425000    15.623571302     9.204055142    25.814161966   0   0   0 # hoy
    530      1   5  0.425000    19.675790918     1.227230343    28.447281731   0   0   0 # hoy
    531      1   5  0.425000    14.032375386     4.234239975    28.389322867   0   0   0 # hoy
    532      1   5  0.425000    14.074459964     7.021710108    28.460665357   0   0   0 # hoy
    533      1   5  0.425000    18.087736608     4.576458817    25.157909199   0   0   0 # hoy
    534      1   5  0.425000    16.842063074     5.312581815    28.496327745   0   0   0 # hoy
    535      1   5  0.425000    16.694066447     8.307649828    28.510594905   0   0   0 # hoy
    536      1   5  0.425000    16.774168186     2.168890641    28.382190135   0   0   0 # hoy
    537      1   1  1.575000    21.554276811     4.401836405     5.122348133   0   0   0 # aoy
    538      1   1  1.575000    21.698772059     7.303633477     4.986814346   0   0   0 # aoy
    539      1   1  1.575000    24.260013041     8.801274934     5.122352068   0   0   0 # aoy
    540      1   1  1.575000    24.114106040     2.848365587     5.051013349   0   0   0 # aoy
    541      1   2  2.100000    20.838968064     3.107174125     2.169132252   0   0   0 # sty
    542      1   2  2.100000    20.899022963     5.791435618     2.383133191   0   0   0 # sty
    543      1   2  2.100000    23.295016228     7.501762690     2.311799216   0   0   0 # sty
    544      1   2  2.100000    23.384464571     1.602265940     2.247600363   0   0   0 # sty
    545      1   3 -1.050000    20.604432619     2.983785187     3.959606778   0   0   0 # oby
    546      1   3 -1.050000    20.842868330     5.840381317     3.838339162   0   0   0 # oby
    547      1   3 -1.050000    21.105678017     4.370212200     1.577058366   0   0   0 # oby
    548      1   3 -1.050000    21.996138084     1.972073010     1.626993322   0   0   0 # oby
    549      1   3 -1.050000    21.913181170     6.875891611     1.519999981   0   0   0 # oby
    550      1   3 -1.050000    23.304486643     7.466842499     3.866871592   0   0   0 # oby
    551      1   3 -1.050000    23.562212398     1.329524178     3.959609602   0   0   0 # oby
    552      1   3 -1.050000    23.486542104    26.858639092     1.598464821   0  -1   0 # oby
    553      1   3 -1.050000    24.554787316     6.475647352     1.983665840   0   0   0 # oby
    554      1   3 -1.050000    24.606687424     2.347147387     1.641265450   0   0   0 # oby
    555      1   4 -0.950000    20.650421876     8.571291044     3.995280259   0   0   0 # ohy
    556      1   4 -0.950000    20.167517987     4.016300843     5.942685135   0   0   0 # ohy
    557      1   4 -0.950000    20.039059619     7.392971704     6.042551847   0   0   0 # ohy
    558      1   4 -0.950000    23.175659429     4.111191394     3.938213132   0   0   0 # ohy
    559      1   4 -0.950000    22.203069529     5.758535089     5.985489803   0   0   0 # ohy
    560      1   4 -0.950000    22.595372098     8.569692863     5.885622956   0   0   0 # ohy
    561      1   4 -0.950000    22.504439948     3.157883456     5.942683484   0   0   0 # ohy
    562      1   5  0.425000    21.246849095     9.502510418     4.223526442   0   0   0 # hoy
    563      1   5  0.425000    19.655653179     4.532695251     6.798687343   0   0   0 # hoy
    564      1   5  0.425000    19.697737757     7.320165384     6.870029833   0   0   0 # hoy
    565      1   5  0.425000    23.711014401     4.874914093     3.567273675   0   0   0 # hoy
    566      1   5  0.425000    22.465340867     5.611037091     6.905692221   0   0   0 # hoy
    567      1   5  0.425000    22.317344240     8.606105104     6.919959381   0   0   0 # hoy
    568      1   5  0.425000    22.397445979     2.467345917     6.791554611   0   0   0 # hoy
    569      1   1  1.575000    19.649823120     4.103381129    12.246922353   0   0   0 # aoy
    570      1   1  1.575000    19.794318368     7.005178201    12.111388566   0   0   0 # aoy
    571      1   1  1.575000    22.355559350     8.502819658    12.246926288   0   0   0 # aoy
    572      1   1  1.575000    22.209652349     2.549910311    12.175587569   0   0   0 # aoy
    573      1   2  2.100000    18.934514373     2.808718849     9.293706472   0   0   0 # sty
    574      1   2  2.100000    18.994569272     5.492980342     9.507707411   0   0   0 # sty
    575      1   2  2.100000    21.390562537     7.203307414     9.436373436   0   0   0 # sty
    576      1   2  2.100000    21.480010880     1.303810664     9.372174583   0   0   0 # sty
    577      1   3 -1.050000    18.699978928     2.685329911    11.084180998   0   0   0 # oby
    578      1   3 -1.050000    18.938414639     5.541926041    10.962913382   0   0   0 # oby
    579      1   3 -1.050000    19.201224326     4.071756924     8.701632586   0   0   0 # oby
    580      1   3 -1.050000    20.091684393     1.673617734     8.751567542   0   0   0 # oby
    581      1   3 -1.050000    20.008727479     6.577436335     8.644574201   0   0   0 # oby
    582      1   3 -1.050000    21.400032952     7.168387223    10.991445812   0   0   0 # oby
    583      1   3 -1.050000    21.657758707     1.031068902    11.084183822   0   0   0 # oby
    584      1   3 -1.050000    22.650333625     6.177192076     9.108240060   0   0   0 # oby
    585      1   3 -1.050000    22.702233733     2.048692111     8.765839670   0   0   0 # oby
    586      1   4 -0.950000    18.745968185     8.272835768    11.119854479   0   0   0 # ohy
    587      1   4 -0.950000    18.263064296     3.717845567    13.067259355   0   0   0 # ohy
    588      1   4 -0.950000    18.134605928     7.094516428    13.167126067   0   0   0 # ohy
    589      1   4 -0.950000    21.271205738     3.812736118    11.062787352   0   0   0 # ohy
    590      1   4 -0.950000    20.298615838     5.460079813    13.110064023   0   0   0 # ohy
    591      1   4 -0.950000    20.690918407     8.271237587    13.010197176   0   0   0 # ohy
    592      1   4 -0.950000    20.599986257     2.859428180    13.067257704   0   0   0 # ohy
    593      1   5  0.425000    19.342395404     9.204055142    11.348100662   0   0   0 # hoy
    594      1   5  0.425000    17.751199488     4.234239975    13.923261563   0   0   0 # hoy
    595      1   5  0.425000    17.793284066     7.021710108    13.994604053   0   0   0 # hoy
    596      1   5  0.425000    21.806560710     4.576458817    10.691847895   0   0   0 # hoy
    597      1   5  0.425000    20.560887176     5.312581815    14.030266441   0   0   0 # hoy
    598      1   5  0.425000    20.412890549     8.307649828    14.044533601   0   0   0 # hoy
    599      1   5  0.425000    20.492992288     2.168890641    13.916128831   0   0   0 # hoy
    600      1   1  1.575000    22.989452709     4.401836405    19.588409437   0   0   0 # aoy
    601      1   1  1.575000    23.133947957     7.303633477    19.452875650   0   0   0 # aoy
    602      1   1  1.575000    25.695188939     8.801274934    19.588413372   0   0   0 # aoy
    603      1   1  1.575000    25.549281938     2.848365587    19.517074653   0   0   0 # aoy
    604      1   2  2.100000    22.274143962     3.107174125    16.635193556   0   0   0 # sty
    605      1   2  2.100000    22.334198861     5.791435618    16.849194495   0   0   0 # sty
    606      1   2  2.100000    24.730192126     7.501762690    16.777860520   0   0   0 # sty
    607      1   2  2.100000    24.819640469     1.602265940    16.713661667   0   0   0 # sty
    608      1   3 -1.050000    22.039608517     2.983785187    18.425668082   0   0   0 # oby
    609      1   3 -1.050000    22.278044228     5.840381317    18.304400466   0   0   0 # oby
    610      1   3 -1.050000    22.540853915     4.370212200    16.043119670   0   0   0 # oby
    611      1   3 -1.050000    23.431313982     1.972073010    16.093054626   0   0   0 # oby
    612      1   3 -1.050000    23.348357068     6.875891611    15.986061285   0   0   0 # oby
    613      1   3 -1.050000    24.739662541     7.466842499    18.332932896   0   0   0 # oby
    614      1   3 -1.050000    24.997388296     1.329524178    18.425670906   0   0   0 # oby
    615      1   3 -1.050000    24.921718002    26.858639092    16.064526125   0  -1   0 # oby
    616      1   3 -1.050000     0.219963214     6.475647352    16.449727144   0   0   0 # oby
    617      1   3 -1.050000     0.271863322     2.347147387    16.107326754   0   0   0 # oby
    618      1   4 -0.950000    22.085597774     8.571291044    18.461341563   0   0   0 # ohy
    619      1   4 -0.950000    21.602693885     4.016300843    20.408746439   0   0   0 # ohy
    620      1   4 -0.950000    21.474235517     7.392971704    20.508613151   0   0   0 # ohy
    621      1   4 -0.950000    24.610835327     4.111191394    18.404274436   0   0   0 # ohy
    622      1   4 -0.950000    23.638245427     5.758535089    20.451551107   0   0   0 # ohy
    623      1   4 -0.950000    24.030547996     8.569692863    20.351684260   0   0   0 # ohy
    624      1   4 -0.950000    23.939615846     3.157883456    20.408744788   0   0   0 # ohy
    625      1   5  0.425000    22.682024993     9.502510418    18.689587746   0   0   0 # hoy
    626      1   5  0.425000    21.090829077     4.532695251    21.264748647   0   0   0 # hoy
    627      1   5  0.425000    21.132913655     7.320165384    21.336091137   0   0   0 # hoy
    628      1   5  0.425000    25.146190299     4.874914093    18.033334979   0   0   0 # hoy
    629      1   5  0.425000    23.900516765     5.611037091    21.371753525   0   0   0 # hoy
    630      1   5  0.425000    23.752520138     8.606105104    21.386020685   0   0   0 # hoy
    631      1   5  0.425000    23.832621877     2.467345917    21.257615915   0   0   0 # hoy
    632      1   1  1.575000    21.084999018     4.103381129    26.712983657   0   0   0 # aoy
    633      1   1  1.575000    21.229494266     7.005178201    26.577449870   0   0   0 # aoy
    634      1   1  1.575000    23.790735248     8.502819658    26.712987592   0   0   0 # aoy
    635      1   1  1.575000    23.644828247     2.549910311    26.641648873   0   0   0 # aoy
    636      1   2  2.100000    20.369690271     2.808718849    23.759767776   0   0   0 # sty
    637      1   2  2.100000    20.429745170     5.492980342    23.973768715   0   0   0 # sty
    638      1   2  2.100000    22.825738435     7.203307414    23.902434740   0   0   0 # sty
    639      1   2  2.100000    22.915186778     1.303810664    23.838235887   0   0   0 # sty
    640      1   3 -1.050000    20.135154826     2.685329911    25.550242302   0   0   0 # oby
    641      1   3 -1.050000    20.373590537     5.541926041    25.428974686   0   0   0 # oby
    642      1   3 -1.050000    20.636400224     4.071756924    23.167693890   0   0   0 # oby
    643      1   3 -1.050000    21.526860291     1.673617734    23.217628846   0   0   0 # oby
    644      1   3 -1.050000    21.443903377     6.577436335    23.110635505   0   0   0 # oby
    645      1   3 -1.050000    22.835208850     7.168387223    25.457507116   0   0   0 # oby
    646      1   3 -1.050000    23.092934605     1.031068902    25.550245126   0   0   0 # oby
    647      1   3 -1.050000    24.085509523     6.177192076    23.574301364   0   0   0 # oby
    648      1   3 -1.050000    24.137409631     2.048692111    23.231900974   0   0   0 # oby
    649      1   4 -0.950000    20.181144083     8.272835768    25.585915783   0   0   0 # ohy
    650      1   4 -0.950000    19.698240194     3.717845567    27.533320659   0   0   0 # ohy
    651      1   4 -0.950000    19.569781826     7.094516428    27.633187371   0   0   0 # ohy
    652      1   4 -0.950000    22.706381636     3.812736118    25.528848656   0   0   0 # ohy
    653      1   4 -0.950000    21.733791736     5.460079813    27.576125327   0   0   0 # ohy
    654      1   4 -0.950000    22.126094305     8.271237587    27.476258480   0   0   0 # ohy
    655      1   4 -0.950000    22.035162155     2.859428180    27.533319008   0   0   0 # ohy
    656      1   5  0.425000    20.777571302     9.204055142    25.814161966   0   0   0 # hoy
    657      1   5  0.425000    19.186375386     4.234239975    28.389322867   0   0   0 # hoy
    658      1   5  0.425000    19.228459964     7.021710108    28.460665357   0   0   0 # hoy
    659      1   5  0.425000    23.241736608     4.576458817    25.157909199   0   0   0 # hoy
    660      1   5  0.425000    21.996063074     5.312581815    28.496327745   0   0   0 # hoy
    661      1   5  0.425000    21.848066447     8.307649828    28.510594905   0   0   0 # hoy
    662      1   5  0.425000    21.928168186     2.168890641    28.382190135   0   0   0 # hoy
    663      1   1  1.575000     0.969490216    13.343781927     5.122348133   0   0   0 # aoy
    664      1   1  1.575000     1.113985464    16.245578999     4.986814346   0   0   0 # aoy
    665      1   1  1.575000     3.675226446    17.743220456     5.122352068   0   0   0 # aoy
    666      1   1  1.575000     3.529319445    11.790311109     5.051013349   0   0   0 # aoy
    667      1   2  2.100000     0.254181469    12.049119647     2.169132252   0   0   0 # sty
    668      1   2  2.100000     0.314236368    14.733381140     2.383133191   0   0   0 # sty
    669      1   2  2.100000     2.710229633    16.443708212     2.311799216   0   0   0 # sty
    670      1   2  2.100000     2.799677976    10.544211462     2.247600363   0   0   0 # sty
    671      1   3 -1.050000     0.019646024    11.925730709     3.959606778   0   0   0 # oby
    672      1   3 -1.050000     0.258081735    14.782326839     3.838339162   0   0   0 # oby
    673      1   3 -1.050000     0.520891422    13.312157722     1.577058366   0   0   0 # oby
    674      1   3 -1.050000     1.411351489    10.914018532     1.626993322   0   0   0 # oby
    675      1   3 -1.050000     1.328394575    15.817837133     1.519999981   0   0   0 # oby
    676      1   3 -1.050000     2.719700048    16.408788021     3.866871592   0   0   0 # oby
    677      1   3 -1.050000     2.977425803    10.271469700     3.959609602   0   0   0 # oby
    678      1   3 -1.050000     2.901755509     8.974584614     1.598464821   0   0   0 # oby
    679      1   3 -1.050000     3.970000721    15.417592874     1.983665840   0   0   0 # oby
    680      1   3 -1.050000     4.021900829    11.289092909     1.641265450   0   0   0 # oby
    681      1   4 -0.950000     0.065635281    17.513236566     3.995280259   0   0   0 # ohy
    682      1   4 -0.950000     4.193441566    10.364753199     5.936434660   0   0   0 # ohy
    683      1   4 -0.950000     2.590872834    13.053136916     3.938213132   0   0   0 # ohy
    684      1   4 -0.950000     1.618282934    14.700480611     5.985489803   0   0   0 # ohy
    685      1   4 -0.950000     2.010585503    17.511638385     5.885622956   0   0   0 # ohy
    686      1   4 -0.950000     1.919653353    12.099828978     5.942683484   0   0   0 # ohy
    687      1   5  0.425000     0.662062500    18.444455940     4.223526442   0   0   0 # hoy
    688      1   5  0.425000     4.714282116    10.467631141     6.856646207   0   0   0 # hoy
    689      1   5  0.425000     3.126227806    13.816859615     3.567273675   0   0   0 # hoy
    690      1   5  0.425000     1.880554272    14.552982613     6.905692221   0   0   0 # hoy
    691      1   5  0.425000     1.732557645    17.548050626     6.919959381   0   0   0 # hoy
    692      1   5  0.425000     1.812659384    11.409291439     6.791554611   0   0   0 # hoy
    693      1   1  1.575000     2.404666114    13.343781927    19.588409437   0   0   0 # aoy
    694      1   1  1.575000     2.549161362    16.245578999    19.452875650   0   0   0 # aoy
    695      1   1  1.575000     5.110402344    17.743220456    19.588413372   0   0   0 # aoy
    696      1   1  1.575000     4.964495343    11.790311109    19.517074653   0   0   0 # aoy
    697      1   2  2.100000     1.689357367    12.049119647    16.635193556   0   0   0 # sty
    698      1   2  2.100000     1.749412266    14.733381140    16.849194495   0   0   0 # sty
    699      1   2  2.100000     4.145405531    16.443708212    16.777860520   0   0   0 # sty
    700      1   2  2.100000     4.234853874    10.544211462    16.713661667   0   0   0 # sty
    701      1   3 -1.050000     1.454821922    11.925730709    18.425668082   0   0   0 # oby
    702      1   3 -1.050000     1.693257633    14.782326839    18.304400466   0   0   0 # oby
    703      1   3 -1.050000     1.956067320    13.312157722    16.043119670   0   0   0 # oby
    704      1   3 -1.050000     2.846527387    10.914018532    16.093054626   0   0   0 # oby
    705      1   3 -1.050000     2.763570473    15.817837133    15.986061285   0   0   0 # oby
    706      1   3 -1.050000     4.154875946    16.408788021    18.332932896   0   0   0 # oby
    707      1   3 -1.050000     4.412601701    10.271469700    18.425670906   0   0   0 # oby
    708      1   3 -1.050000     4.336931407     8.974584614    16.064526125   0   0   0 # oby
    709      1   3 -1.050000     5.405176619    15.417592874    16.449727144   0   0   0 # oby
    710      1   3 -1.050000     5.457076727    11.289092909    16.107326754   0   0   0 # oby
    711      1   4 -0.950000     1.500811179    17.513236566    18.461341563   0   0   0 # ohy
    712      1   4 -0.950000     5.628617464    10.364753199    20.402495964   0   0   0 # ohy
    713      1   4 -0.950000     4.026048732    13.053136916    18.404274436   0   0   0 # ohy
    714      1   4 -0.950000     3.053458832    14.700480611    20.451551107   0   0   0 # ohy
    715      1   4 -0.950000     3.445761401    17.511638385    20.351684260   0   0   0 # ohy
    716      1   4 -0.950000     3.354829251    12.099828978    20.408744788   0   0   0 # ohy
    717      1   5  0.425000     2.097238398    18.444455940    18.689587746   0   0   0 # hoy
    718      1   5  0.425000     6.149458014    10.467631141    21.322707511   0   0   0 # hoy
    719      1   5  0.425000     4.561403704    13.816859615    18.033334979   0   0   0 # hoy
    720      1   5  0.425000     3.315730170    14.552982613    21.371753525   0   0   0 # hoy
    721      1   5  0.425000     3.167733543    17.548050626    21.386020685   0   0   0 # hoy
    722      1   5  0.425000     3.247835282    11.409291439    21.257615915   0   0   0 # hoy
    723      1   1  1.575000     6.123490216    13.343781927     5.122348133   0   0   0 # aoy
    724      1   1  1.575000     6.267985464    16.245578999     4.986814346   0   0   0 # aoy
    725      1   1  1.575000     8.829226446    17.743220456     5.122352068   0   0   0 # aoy
    726      1   1  1.575000     8.683319445    11.790311109     5.051013349   0   0   0 # aoy
    727      1   2  2.100000     5.408181469    12.049119647     2.169132252   0   0   0 # sty
    728      1   2  2.100000     5.468236368    14.733381140     2.383133191   0   0   0 # sty
    729      1   2  2.100000     7.864229633    16.443708212     2.311799216   0   0   0 # sty
    730      1   2  2.100000     7.953677976    10.544211462     2.247600363   0   0   0 # sty
    731      1   3 -1.050000     5.173646024    11.925730709     3.959606778   0   0   0 # oby
    732      1   3 -1.050000     5.412081735    14.782326839     3.838339162   0   0   0 # oby
    733      1   3 -1.050000     5.674891422    13.312157722     1.577058366   0   0   0 # oby
    734      1   3 -1.050000     6.565351489    10.914018532     1.626993322   0   0   0 # oby
    735      1   3 -1.050000     6.482394575    15.817837133     1.519999981   0   0   0 # oby
    736      1   3 -1.050000     7.873700048    16.408788021     3.866871592   0   0   0 # oby
    737      1   3 -1.050000     8.131425803    10.271469700     3.959609602   0   0   0 # oby
    738      1   3 -1.050000     8.055755509     8.974584614     1.598464821   0   0   0 # oby
    739      1   3 -1.050000     9.124000721    15.417592874     1.983665840   0   0   0 # oby
    740      1   3 -1.050000     9.175900829    11.289092909     1.641265450   0   0   0 # oby
    741      1   4 -0.950000     5.219635281    17.513236566     3.995280259   0   0   0 # ohy
    742      1   4 -0.950000     9.347441566    10.364753199     5.936434660   0   0   0 # ohy
    743      1   4 -0.950000     4.736731392    12.958246365     5.942685135   0   0   0 # ohy
    744      1   4 -0.950000     4.608273024    16.334917226     6.042551847   0   0   0 # ohy
    745      1   4 -0.950000     7.744872834    13.053136916     3.938213132   0   0   0 # ohy
    746      1   4 -0.950000     6.772282934    14.700480611     5.985489803   0   0   0 # ohy
    747      1   4 -0.950000     7.164585503    17.511638385     5.885622956   0   0   0 # ohy
    748      1   4 -0.950000     7.073653353    12.099828978     5.942683484   0   0   0 # ohy
    749      1   5  0.425000     5.816062500    18.444455940     4.223526442   0   0   0 # hoy
    750      1   5  0.425000     9.868282116    10.467631141     6.856646207   0   0   0 # hoy
    751      1   5  0.425000     4.224866584    13.474640773     6.798687343   0   0   0 # hoy
    752      1   5  0.425000     4.266951162    16.262110906     6.870029833   0   0   0 # hoy
    753      1   5  0.425000     8.280227806    13.816859615     3.567273675   0   0   0 # hoy
    754      1   5  0.425000     7.034554272    14.552982613     6.905692221   0   0   0 # hoy
    755      1   5  0.425000     6.886557645    17.548050626     6.919959381   0   0   0 # hoy
    756      1   5  0.425000     6.966659384    11.409291439     6.791554611   0   0   0 # hoy
    757      1   1  1.575000     4.219036525    13.045326651    12.246922353   0   0   0 # aoy
    758      1   1  1.575000     4.363531773    15.947123723    12.111388566   0   0   0 # aoy
    759      1   1  1.575000     6.924772755    17.444765180    12.246926288   0   0   0 # aoy
    760      1   1  1.575000     6.778865754    11.491855833    12.175587569   0   0   0 # aoy
    761      1   2  2.100000     3.503727778    11.750664371     9.293706472   0   0   0 # sty
    762      1   2  2.100000     3.563782677    14.434925864     9.507707411   0   0   0 # sty
    763      1   2  2.100000     5.959775942    16.145252936     9.436373436   0   0   0 # sty
    764      1   2  2.100000     6.049224285    10.245756186     9.372174583   0   0   0 # sty
    765      1   3 -1.050000     3.269192333    11.627275433    11.084180998   0   0   0 # oby
    766      1   3 -1.050000     3.507628044    14.483871563    10.962913382   0   0   0 # oby
    767      1   3 -1.050000     3.770437731    13.013702446     8.701632586   0   0   0 # oby
    768      1   3 -1.050000     4.660897798    10.615563256     8.751567542   0   0   0 # oby
    769      1   3 -1.050000     4.577940884    15.519381857     8.644574201   0   0   0 # oby
    770      1   3 -1.050000     5.969246357    16.110332745    10.991445812   0   0   0 # oby
    771      1   3 -1.050000     6.226972112     9.973014424    11.084183822   0   0   0 # oby
    772      1   3 -1.050000     6.151301818     8.676129338     8.723039041   0   0   0 # oby
    773      1   3 -1.050000     7.219547030    15.119137598     9.108240060   0   0   0 # oby
    774      1   3 -1.050000     7.271447138    10.990637633     8.765839670   0   0   0 # oby
    775      1   4 -0.950000     3.315181590    17.214781290    11.119854479   0   0   0 # ohy
    776      1   4 -0.950000     7.442987875    10.066297923    13.061008880   0   0   0 # ohy
    777      1   4 -0.950000     2.832277701    12.659791089    13.067259355   0   0   0 # ohy
    778      1   4 -0.950000     2.703819333    16.036461950    13.167126067   0   0   0 # ohy
    779      1   4 -0.950000     5.840419143    12.754681640    11.062787352   0   0   0 # ohy
    780      1   4 -0.950000     4.867829243    14.402025335    13.110064023   0   0   0 # ohy
    781      1   4 -0.950000     5.260131812    17.213183109    13.010197176   0   0   0 # ohy
    782      1   4 -0.950000     5.169199662    11.801373702    13.067257704   0   0   0 # ohy
    783      1   5  0.425000     3.911608809    18.146000664    11.348100662   0   0   0 # hoy
    784      1   5  0.425000     7.963828425    10.169175865    13.981220427   0   0   0 # hoy
    785      1   5  0.425000     2.320412893    13.176185497    13.923261563   0   0   0 # hoy
    786      1   5  0.425000     2.362497471    15.963655630    13.994604053   0   0   0 # hoy
    787      1   5  0.425000     6.375774115    13.518404339    10.691847895   0   0   0 # hoy
    788      1   5  0.425000     5.130100581    14.254527337    14.030266441   0   0   0 # hoy
    789      1   5  0.425000     4.982103954    17.249595350    14.044533601   0   0   0 # hoy
    790      1   5  0.425000     5.062205693    11.110836163    13.916128831   0   0   0 # hoy
    791      1   1  1.575000     7.558666114    13.343781927    19.588409437   0   0   0 # aoy
    792      1   1  1.575000     7.703161362    16.245578999    19.452875650   0   0   0 # aoy
    793      1   1  1.575000    10.264402344    17.743220456    19.588413372   0   0   0 # aoy
    794      1   1  1.575000    10.118495343    11.790311109    19.517074653   0   0   0 # aoy
    795      1   2  2.100000     6.843357367    12.049119647    16.635193556   0   0   0 # sty
    796      1   2  2.100000     6.903412266    14.733381140    16.849194495   0   0   0 # sty
    797      1   2  2.100000     9.299405531    16.443708212    16.777860520   0   0   0 # sty
    798      1   2  2.100000     9.388853874    10.544211462    16.713661667   0   0   0 # sty
    799      1   3 -1.050000     6.608821922    11.925730709    18.425668082   0   0   0 # oby
    800      1   3 -1.050000     6.847257633    14.782326839    18.304400466   0   0   0 # oby
    801      1   3 -1.050000     7.110067320    13.312157722    16.043119670   0   0   0 # oby
    802      1   3 -1.050000     8.000527387    10.914018532    16.093054626   0   0   0 # oby
    803      1   3 -1.050000     7.917570473    15.817837133    15.986061285   0   0   0 # oby
    804      1   3 -1.050000     9.308875946    16.408788021    18.332932896   0   0   0 # oby
    805      1   3 -1.050000     9.566601701    10.271469700    18.425670906   0   0   0 # oby
    806      1   3 -1.050000     9.490931407     8.974584614    16.064526125   0   0   0 # oby
    807      1   3 -1.050000    10.559176619    15.417592874    16.449727144   0   0   0 # oby
    808      1   3 -1.050000    10.611076727    11.289092909    16.107326754   0   0   0 # oby
    809      1   4 -0.950000     6.654811179    17.513236566    18.461341563   0   0   0 # ohy
    810      1   4 -0.950000    10.782617464    10.364753199    20.402495964   0   0   0 # ohy
    811      1   4 -0.950000     6.171907290    12.958246365    20.408746439   0   0   0 # ohy
    812      1   4 -0.950000     6.043448922    16.334917226    20.508613151   0   0   0 # ohy
    813      1   4 -0.950000     9.180048732    13.053136916    18.404274436   0   0   0 # ohy
    814      1   4 -0.950000     8.207458832    14.700480611    20.451551107   0   0   0 # ohy
    815      1   4 -0.950000     8.599761401    17.511638385    20.351684260   0   0   0 # ohy
    816      1   4 -0.950000     8.508829251    12.099828978    20.408744788   0   0   0 # ohy
    817      1   5  0.425000     7.251238398    18.444455940    18.689587746   0   0   0 # hoy
    818      1   5  0.425000    11.303458014    10.467631141    21.322707511   0   0   0 # hoy
    819      1   5  0.425000     5.660042482    13.474640773    21.264748647   0   0   0 # hoy
    820      1   5  0.425000     5.702127060    16.262110906    21.336091137   0   0   0 # hoy
    821      1   5  0.425000     9.715403704    13.816859615    18.033334979   0   0   0 # hoy
    822      1   5  0.425000     8.469730170    14.552982613    21.371753525   0   0   0 # hoy
    823      1   5  0.425000     8.321733543    17.548050626    21.386020685   0   0   0 # hoy
    824      1   5  0.425000     8.401835282    11.409291439    21.257615915   0   0   0 # hoy
    825      1   1  1.575000     5.654212423    13.045326651    26.712983657   0   0   0 # aoy
    826      1   1  1.575000     5.798707671    15.947123723    26.577449870   0   0   0 # aoy
    827      1   1  1.575000     8.359948653    17.444765180    26.712987592   0   0   0 # aoy
    828      1   1  1.575000     8.214041652    11.491855833    26.641648873   0   0   0 # aoy
    829      1   2  2.100000     4.938903676    11.750664371    23.759767776   0   0   0 # sty
    830      1   2  2.100000     4.998958575    14.434925864    23.973768715   0   0   0 # sty
    831      1   2  2.100000     7.394951840    16.145252936    23.902434740   0   0   0 # sty
    832      1   2  2.100000     7.484400183    10.245756186    23.838235887   0   0   0 # sty
    833      1   3 -1.050000     4.704368231    11.627275433    25.550242302   0   0   0 # oby
    834      1   3 -1.050000     4.942803942    14.483871563    25.428974686   0   0   0 # oby
    835      1   3 -1.050000     5.205613629    13.013702446    23.167693890   0   0   0 # oby
    836      1   3 -1.050000     6.096073696    10.615563256    23.217628846   0   0   0 # oby
    837      1   3 -1.050000     6.013116782    15.519381857    23.110635505   0   0   0 # oby
    838      1   3 -1.050000     7.404422255    16.110332745    25.457507116   0   0   0 # oby
    839      1   3 -1.050000     7.662148010     9.973014424    25.550245126   0   0   0 # oby
    840      1   3 -1.050000     7.586477716     8.676129338    23.189100345   0   0   0 # oby
    841      1   3 -1.050000     8.654722928    15.119137598    23.574301364   0   0   0 # oby
    842      1   3 -1.050000     8.706623036    10.990637633    23.231900974   0   0   0 # oby
    843      1   4 -0.950000     4.750357488    17.214781290    25.585915783   0   0   0 # ohy
    844      1   4 -0.950000     8.878163773    10.066297923    27.527070184   0   0   0 # ohy
    845      1   4 -0.950000     4.267453599    12.659791089    27.533320659   0   0   0 # ohy
    846      1   4 -0.950000     4.138995231    16.036461950    27.633187371   0   0   0 # ohy
    847      1   4 -0.950000     7.275595041    12.754681640    25.528848656   0   0   0 # ohy
    848      1   4 -0.950000     6.303005141    14.402025335    27.576125327   0   0   0 # ohy
    849      1   4 -0.950000     6.695307710    17.213183109    27.476258480   0   0   0 # ohy
    850      1   4 -0.950000     6.604375560    11.801373702    27.533319008   0   0   0 # ohy
    851      1   5  0.425000     5.346784707    18.146000664    25.814161966   0   0   0 # hoy
    852      1   5  0.425000     9.399004323    10.169175865    28.447281731   0   0   0 # hoy
    853      1   5  0.425000     3.755588791    13.176185497    28.389322867   0   0   0 # hoy
    854      1   5  0.425000     3.797673369    15.963655630    28.460665357   0   0   0 # hoy
    855      1   5  0.425000     7.810950013    13.518404339    25.157909199   0   0   0 # hoy
    856      1   5  0.425000     6.565276479    14.254527337    28.496327745   0   0   0 # hoy
    857      1   5  0.425000     6.417279852    17.249595350    28.510594905   0   0   0 # hoy
    858      1   5  0.425000     6.497381591    11.110836163    28.382190135   0   0   0 # hoy
    859      1   1  1.575000    21.585490216    13.343781927     5.122348133   0   0   0 # aoy
    860      1   1  1.575000    21.729985464    16.245578999     4.986814346   0   0   0 # aoy
    861      1   1  1.575000    24.291226446    17.743220456     5.122352068   0   0   0 # aoy
    862      1   1  1.575000    24.145319445    11.790311109     5.051013349   0   0   0 # aoy
    863      1   2  2.100000    20.870181469    12.049119647     2.169132252   0   0   0 # sty
    864      1   2  2.100000    20.930236368    14.733381140     2.383133191   0   0   0 # sty
    865      1   2  2.100000    23.326229633    16.443708212     2.311799216   0   0   0 # sty
    866      1   2  2.100000    23.415677976    10.544211462     2.247600363   0   0   0 # sty
    867      1   3 -1.050000    20.635646024    11.925730709     3.959606778   0   0   0 # oby
    868      1   3 -1.050000    20.874081735    14.782326839     3.838339162   0   0   0 # oby
    869      1   3 -1.050000    21.136891422    13.312157722     1.577058366   0   0   0 # oby
    870      1   3 -1.050000    22.027351489    10.914018532     1.626993322   0   0   0 # oby
    871      1   3 -1.050000    21.944394575    15.817837133     1.519999981   0   0   0 # oby
    872      1   3 -1.050000    23.335700048    16.408788021     3.866871592   0   0   0 # oby
    873      1   3 -1.050000    23.593425803    10.271469700     3.959609602   0   0   0 # oby
    874      1   3 -1.050000    23.517755509     8.974584614     1.598464821   0   0   0 # oby
    875      1   3 -1.050000    24.586000721    15.417592874     1.983665840   0   0   0 # oby
    876      1   3 -1.050000    24.637900829    11.289092909     1.641265450   0   0   0 # oby
    877      1   4 -0.950000    20.681635281    17.513236566     3.995280259   0   0   0 # ohy
    878      1   4 -0.950000    20.198731392    12.958246365     5.942685135   0   0   0 # ohy
    879      1   4 -0.950000    20.070273024    16.334917226     6.042551847   0   0   0 # ohy
    880      1   4 -0.950000    23.206872834    13.053136916     3.938213132   0   0   0 # ohy
    881      1   4 -0.950000    22.234282934    14.700480611     5.985489803   0   0   0 # ohy
    882      1   4 -0.950000    22.626585503    17.511638385     5.885622956   0   0   0 # ohy
    883      1   4 -0.950000    22.535653353    12.099828978     5.942683484   0   0   0 # ohy
    884      1   5  0.425000    21.278062500    18.444455940     4.223526442   0   0   0 # hoy
    885      1   5  0.425000    19.686866584    13.474640773     6.798687343   0   0   0 # hoy
    886      1   5  0.425000    19.728951162    16.262110906     6.870029833   0   0   0 # hoy
    887      1   5  0.425000    23.742227806    13.816859615     3.567273675   0   0   0 # hoy
    888      1   5  0.425000    22.496554272    14.552982613     6.905692221   0   0   0 # hoy
    889      1   5  0.425000    22.348557645    17.548050626     6.919959381   0   0   0 # hoy
    890      1   5  0.425000    22.428659384    11.409291439     6.791554611   0   0   0 # hoy
    891      1   1  1.575000    19.681036525    13.045326651    12.246922353   0   0   0 # aoy
    892      1   1  1.575000    19.825531773    15.947123723    12.111388566   0   0   0 # aoy
    893      1   1  1.575000    22.386772755    17.444765180    12.246926288   0   0   0 # aoy
    894      1   1  1.575000    22.240865754    11.491855833    12.175587569   0   0   0 # aoy
    895      1   2  2.100000    18.965727778    11.750664371     9.293706472   0   0   0 # sty
    896      1   2  2.100000    19.025782677    14.434925864     9.507707411   0   0   0 # sty
    897      1   2  2.100000    21.421775942    16.145252936     9.436373436   0   0   0 # sty
    898      1   2  2.100000    21.511224285    10.245756186     9.372174583   0   0   0 # sty
    899      1   3 -1.050000    18.731192333    11.627275433    11.084180998   0   0   0 # oby
    900      1   3 -1.050000    18.969628044    14.483871563    10.962913382   0   0   0 # oby
    901      1   3 -1.050000    19.232437731    13.013702446     8.701632586   0   0   0 # oby
    902      1   3 -1.050000    20.122897798    10.615563256     8.751567542   0   0   0 # oby
    903      1   3 -1.050000    20.039940884    15.519381857     8.644574201   0   0   0 # oby
    904      1   3 -1.050000    21.431246357    16.110332745    10.991445812   0   0   0 # oby
    905      1   3 -1.050000    21.688972112     9.973014424    11.084183822   0   0   0 # oby
    906      1   3 -1.050000    21.613301818     8.676129338     8.723039041   0   0   0 # oby
    907      1   3 -1.050000    22.681547030    15.119137598     9.108240060   0   0   0 # oby
    908      1   3 -1.050000    22.733447138    10.990637633     8.765839670   0   0   0 # oby
    909      1   4 -0.950000    18.777181590    17.214781290    11.119854479   0   0   0 # ohy
    910      1   4 -0.950000    18.294277701    12.659791089    13.067259355   0   0   0 # ohy
    911      1   4 -0.950000    18.165819333    16.036461950    13.167126067   0   0   0 # ohy
    912      1   4 -0.950000    21.302419143    12.754681640    11.062787352   0   0   0 # ohy
    913      1   4 -0.950000    20.329829243    14.402025335    13.110064023   0   0   0 # ohy
    914      1   4 -0.950000    20.722131812    17.213183109    13.010197176   0   0   0 # ohy
    915      1   4 -0.950000    20.631199662    11.801373702    13.067257704   0   0   0 # ohy
    916      1   5  0.425000    19.373608809    18.146000664    11.348100662   0   0   0 # hoy
    917      1   5  0.425000    17.782412893    13.176185497    13.923261563   0   0   0 # hoy
    918      1   5  0.425000    17.824497471    15.963655630    13.994604053   0   0   0 # hoy
    919      1   5  0.425000    21.837774115    13.518404339    10.691847895   0   0   0 # hoy
    920      1   5  0.425000    20.592100581    14.254527337    14.030266441   0   0   0 # hoy
    921      1   5  0.425000    20.444103954    17.249595350    14.044533601   0   0   0 # hoy
    922      1   5  0.425000    20.524205693    11.110836163    13.916128831   0   0   0 # hoy
    923      1   1  1.575000    21.116212423    13.045326651    26.712983657   0   0   0 # aoy
    924      1   1  1.575000    21.260707671    15.947123723    26.577449870   0   0   0 # aoy
    925      1   1  1.575000    23.821948653    17.444765180    26.712987592   0   0   0 # aoy
    926      1   1  1.575000    23.676041652    11.491855833    26.641648873   0   0   0 # aoy
    927      1   2  2.100000    20.400903676    11.750664371    23.759767776   0   0   0 # sty
    928      1   2  2.100000    20.460958575    14.434925864    23.973768715   0   0   0 # sty
    929      1   2  2.100000    22.856951840    16.145252936    23.902434740   0   0   0 # sty
    930      1   2  2.100000    22.946400183    10.245756186    23.838235887   0   0   0 # sty
    931      1   3 -1.050000    20.166368231    11.627275433    25.550242302   0   0   0 # oby
    932      1   3 -1.050000    20.404803942    14.483871563    25.428974686   0   0   0 # oby
    933      1   3 -1.050000    20.667613629    13.013702446    23.167693890   0   0   0 # oby
    934      1   3 -1.050000    21.558073696    10.615563256    23.217628846   0   0   0 # oby
    935      1   3 -1.050000    21.475116782    15.519381857    23.110635505   0   0   0 # oby
    936      1   3 -1.050000    22.866422255    16.110332745    25.457507116   0   0   0 # oby
    937      1   3 -1.050000    23.124148010     9.973014424    25.550245126   0   0   0 # oby
    938      1   3 -1.050000    23.048477716     8.676129338    23.189100345   0   0   0 # oby
    939      1   3 -1.050000    24.116722928    15.119137598    23.574301364   0   0   0 # oby
    940      1   3 -1.050000    24.168623036    10.990637633    23.231900974   0   0   0 # oby
    941      1   4 -0.950000    20.212357488    17.214781290    25.585915783   0   0   0 # ohy
    942      1   4 -0.950000    19.729453599    12.659791089    27.533320659   0   0   0 # ohy
    943      1   4 -0.950000    19.600995231    16.036461950    27.633187371   0   0   0 # ohy
    944      1   4 -0.950000    22.737595041    12.754681640    25.528848656   0   0   0 # ohy
    945      1   4 -0.950000    21.765005141    14.402025335    27.576125327   0   0   0 # ohy
    946      1   4 -0.950000    22.157307710    17.213183109    27.476258480   0   0   0 # ohy
    947      1   4 -0.950000    22.066375560    11.801373702    27.533319008   0   0   0 # ohy
    948      1   5  0.425000    20.808784707    18.146000664    25.814161966   0   0   0 # hoy
    949      1   5  0.425000    19.217588791    13.176185497    28.389322867   0   0   0 # hoy
    950      1   5  0.425000    19.259673369    15.963655630    28.460665357   0   0   0 # hoy
    951      1   5  0.425000    23.272950013    13.518404339    25.157909199   0   0   0 # hoy
    952      1   5  0.425000    22.027276479    14.254527337    28.496327745   0   0   0 # hoy
    953      1   5  0.425000    21.879279852    17.249595350    28.510594905   0   0   0 # hoy
    954      1   5  0.425000    21.959381591    11.110836163    28.382190135   0   0   0 # hoy
    955      1   1  1.575000     1.000703621    22.285727450     5.122348133   0   0   0 # aoy
    956      1   1  1.575000     1.145198869    25.187524522     4.986814346   0   0   0 # aoy
    957      1   1  1.575000     3.706439851    26.685165979     5.122352068   0   0   0 # aoy
    958      1   1  1.575000     3.560532850    20.732256632     5.051013349   0   0   0 # aoy
    959      1   2  2.100000     0.285394874    20.991065170     2.169132252   0   0   0 # sty
    960      1   2  2.100000     0.345449773    23.675326663     2.383133191   0   0   0 # sty
    961      1   2  2.100000     2.741443038    25.385653735     2.311799216   0   0   0 # sty
    962      1   2  2.100000     2.830891381    19.486156985     2.247600363   0   0   0 # sty
    963      1   3 -1.050000     0.050859429    20.867676232     3.959606778   0   0   0 # oby
    964      1   3 -1.050000     0.289295140    23.724272362     3.838339162   0   0   0 # oby
    965      1   3 -1.050000     0.552104827    22.254103245     1.577058366   0   0   0 # oby
    966      1   3 -1.050000     1.442564894    19.855964055     1.626993322   0   0   0 # oby
    967      1   3 -1.050000     1.359607980    24.759782656     1.519999981   0   0   0 # oby
    968      1   3 -1.050000     2.750913453    25.350733544     3.866871592   0   0   0 # oby
    969      1   3 -1.050000     3.008639208    19.213415223     3.959609602   0   0   0 # oby
    970      1   3 -1.050000     2.932968914    17.916530137     1.598464821   0   0   0 # oby
    971      1   3 -1.050000     4.001214126    24.359538397     1.983665840   0   0   0 # oby
    972      1   3 -1.050000     4.053114234    20.231038432     1.641265450   0   0   0 # oby
    973      1   4 -0.950000     0.096848686    26.455182089     3.995280259   0   0   0 # ohy
    974      1   4 -0.950000     4.224654971    19.306698722     5.936434660   0   0   0 # ohy
    975      1   4 -0.950000     2.622086239    21.995082439     3.938213132   0   0   0 # ohy
    976      1   4 -0.950000     1.649496339    23.642426134     5.985489803   0   0   0 # ohy
    977      1   4 -0.950000     2.041798908    26.453583908     5.885622956   0   0   0 # ohy
    978      1   4 -0.950000     1.950866758    21.041774501     5.942683484   0   0   0 # ohy
    979      1   5  0.425000     4.745495521    19.409576664     6.856646207   0   0   0 # hoy
    980      1   5  0.425000     3.157441211    22.758805138     3.567273675   0   0   0 # hoy
    981      1   5  0.425000     1.911767677    23.494928136     6.905692221   0   0   0 # hoy
    982      1   5  0.425000     1.763771050    26.489996149     6.919959381   0   0   0 # hoy
    983      1   5  0.425000     1.843872789    20.351236962     6.791554611   0   0   0 # hoy
    984      1   1  1.575000    24.866249930    21.987272174    12.246922353   0   0   0 # aoy
    985      1   1  1.575000    25.010745178    24.889069246    12.111388566   0   0   0 # aoy
    986      1   2  2.100000    24.150941183    20.692609894     9.293706472   0   0   0 # sty
    987      1   2  2.100000    24.210996082    23.376871387     9.507707411   0   0   0 # sty
    988      1   3 -1.050000    23.916405738    20.569220956    11.084180998   0   0   0 # oby
    989      1   3 -1.050000    24.154841449    23.425817086    10.962913382   0   0   0 # oby
    990      1   3 -1.050000    24.417651136    21.955647969     8.701632586   0   0   0 # oby
    991      1   3 -1.050000    25.308111203    19.557508779     8.751567542   0   0   0 # oby
    992      1   3 -1.050000    25.225154289    24.461327380     8.644574201   0   0   0 # oby
    993      1   4 -0.950000    23.962394995    26.156726813    11.119854479   0   0   0 # ohy
    994      1   4 -0.950000    23.479491106    21.601736612    13.067259355   0   0   0 # ohy
    995      1   4 -0.950000    23.351032738    24.978407473    13.167126067   0   0   0 # ohy
    996      1   4 -0.950000    25.515042648    23.343970858    13.110064023   0   0   0 # ohy
    997      1   5  0.425000    22.967626298    22.118131020    13.923261563   0   0   0 # hoy
    998      1   5  0.425000    23.009710876    24.905601153    13.994604053   0   0   0 # hoy
    999      1   5  0.425000    25.629317359    26.191540873    14.044533601   0   0   0 # hoy
   1000      1   5  0.425000    25.709419098    20.052781686    13.916128831   0   0   0 # hoy
   1001      1   1  1.575000     2.435879519    22.285727450    19.588409437   0   0   0 # aoy
   1002      1   1  1.575000     2.580374767    25.187524522    19.452875650   0   0   0 # aoy
   1003      1   1  1.575000     5.141615749    26.685165979    19.588413372   0   0   0 # aoy
   1004      1   1  1.575000     4.995708748    20.732256632    19.517074653   0   0   0 # aoy
   1005      1   2  2.100000     1.720570772    20.991065170    16.635193556   0   0   0 # sty
   1006      1   2  2.100000     1.780625671    23.675326663    16.849194495   0   0   0 # sty
   1007      1   2  2.100000     4.176618936    25.385653735    16.777860520   0   0   0 # sty
   1008      1   2  2.100000     4.266067279    19.486156985    16.713661667   0   0   0 # sty
   1009      1   3 -1.050000     1.486035327    20.867676232    18.425668082   0   0   0 # oby
   1010      1   3 -1.050000     1.724471038    23.724272362    18.304400466   0   0   0 # oby
   1011      1   3 -1.050000     1.987280725    22.254103245    16.043119670   0   0   0 # oby
   1012      1   3 -1.050000     2.877740792    19.855964055    16.093054626   0   0   0 # oby
   1013      1   3 -1.050000     2.794783878    24.759782656    15.986061285   0   0   0 # oby
   1014      1   3 -1.050000     4.186089351    25.350733544    18.332932896   0   0   0 # oby
   1015      1   3 -1.050000     4.443815106    19.213415223    18.425670906   0   0   0 # oby
   1016      1   3 -1.050000     4.368144812    17.916530137    16.064526125   0   0   0 # oby
   1017      1   3 -1.050000     5.436390024    24.359538397    16.449727144   0   0   0 # oby
   1018      1   3 -1.050000     5.488290132    20.231038432    16.107326754   0   0   0 # oby
   1019      1   4 -0.950000     1.532024584    26.455182089    18.461341563   0   0   0 # ohy
   1020      1   4 -0.950000     5.659830869    19.306698722    20.402495964   0   0   0 # ohy
   1021      1   4 -0.950000     4.057262137    21.995082439    18.404274436   0   0   0 # ohy
   1022      1   4 -0.950000     3.084672237    23.642426134    20.451551107   0   0   0 # ohy
   1023      1   4 -0.950000     3.476974806    26.453583908    20.351684260   0   0   0 # ohy
   1024      1   4 -0.950000     3.386042656    21.041774501    20.408744788   0   0   0 # ohy
   1025      1   5  0.425000     6.180671419    19.409576664    21.322707511   0   0   0 # hoy
   1026      1   5  0.425000     4.592617109    22.758805138    18.033334979   0   0   0 # hoy
   1027      1   5  0.425000     3.346943575    23.494928136    21.371753525   0   0   0 # hoy
   1028      1   5  0.425000     3.198946948    26.489996149    21.386020685   0   0   0 # hoy
   1029      1   5  0.425000     3.279048687    20.351236962    21.257615915   0   0   0 # hoy
   1030      1   1  1.575000     0.531425828    21.987272174    26.712983657   0   0   0 # aoy
   1031      1   1  1.575000     0.675921076    24.889069246    26.577449870   0   0   0 # aoy
   1032      1   2  2.100000    25.586117081    20.692609894    23.759767776   0   0   0 # sty
   1033      1   2  2.100000    25.646171980    23.376871387    23.973768715   0   0   0 # sty
   1034      1   3 -1.050000    25.351581636    20.569220956    25.550242302   0   0   0 # oby
   1035      1   3 -1.050000    25.590017347    23.425817086    25.428974686   0   0   0 # oby
   1036      1   3 -1.050000     0.082827034    21.955647969    23.167693890   0   0   0 # oby
   1037      1   3 -1.050000     0.973287101    19.557508779    23.217628846   0   0   0 # oby
   1038      1   3 -1.050000     0.890330187    24.461327380    23.110635505   0   0   0 # oby
   1039      1   4 -0.950000    25.397570893    26.156726813    25.585915783   0   0   0 # ohy
   1040      1   4 -0.950000    24.914667004    21.601736612    27.533320659   0   0   0 # ohy
   1041      1   4 -0.950000    24.786208636    24.978407473    27.633187371   0   0   0 # ohy
   1042      1   4 -0.950000     1.180218546    23.343970858    27.576125327   0   0   0 # ohy
   1043      1   5  0.425000    24.402802196    22.118131020    28.389322867   0   0   0 # hoy
   1044      1   5  0.425000    24.444886774    24.905601153    28.460665357   0   0   0 # hoy
   1045      1   5  0.425000     1.294493257    26.191540873    28.510594905   0   0   0 # hoy
   1046      1   5  0.425000     1.374594996    20.052781686    28.382190135   0   0   0 # hoy
   1047      1   1  1.575000     1.801986160    26.386710703    12.246926288   0   0   0 # aoy
   1048      1   1  1.575000     1.656079159    20.433801356    12.175587569   0   0   0 # aoy
   1049      1   2  2.100000     0.836989347    25.087198459     9.436373436   0   0   0 # sty
   1050      1   2  2.100000     0.926437690    19.187701709     9.372174583   0   0   0 # sty
   1051      1   3 -1.050000     0.846459762    25.052278268    10.991445812   0   0   0 # oby
   1052      1   3 -1.050000     1.104185517    18.914959947    11.084183822   0   0   0 # oby
   1053      1   3 -1.050000     1.028515223    17.618074861     8.723039041   0   0   0 # oby
   1054      1   3 -1.050000     2.096760435    24.061083121     9.108240060   0   0   0 # oby
   1055      1   3 -1.050000     2.148660543    19.932583156     8.765839670   0   0   0 # oby
   1056      1   4 -0.950000     2.320201280    19.008243446    13.061008880   0   0   0 # ohy
   1057      1   4 -0.950000     0.717632548    21.696627163    11.062787352   0   0   0 # ohy
   1058      1   4 -0.950000     0.137345217    26.155128632    13.010197176   0   0   0 # ohy
   1059      1   4 -0.950000     0.046413067    20.743319225    13.067257704   0   0   0 # ohy
   1060      1   5  0.425000     2.841041830    19.111121388    13.981220427   0   0   0 # hoy
   1061      1   5  0.425000     1.252987520    22.460349862    10.691847895   0   0   0 # hoy
   1062      1   5  0.425000     0.007313986    23.196472860    14.030266441   0   0   0 # hoy
   1063      1   1  1.575000     3.237162058    26.386710703    26.712987592   0   0   0 # aoy
   1064      1   1  1.575000     3.091255057    20.433801356    26.641648873   0   0   0 # aoy
   1065      1   2  2.100000     2.272165245    25.087198459    23.902434740   0   0   0 # sty
   1066      1   2  2.100000     2.361613588    19.187701709    23.838235887   0   0   0 # sty
   1067      1   3 -1.050000     2.281635660    25.052278268    25.457507116   0   0   0 # oby
   1068      1   3 -1.050000     2.539361415    18.914959947    25.550245126   0   0   0 # oby
   1069      1   3 -1.050000     2.463691121    17.618074861    23.189100345   0   0   0 # oby
   1070      1   3 -1.050000     3.531936333    24.061083121    23.574301364   0   0   0 # oby
   1071      1   3 -1.050000     3.583836441    19.932583156    23.231900974   0   0   0 # oby
   1072      1   4 -0.950000     3.755377178    19.008243446    27.527070184   0   0   0 # ohy
   1073      1   4 -0.950000     2.152808446    21.696627163    25.528848656   0   0   0 # ohy
   1074      1   4 -0.950000     1.572521115    26.155128632    27.476258480   0   0   0 # ohy
   1075      1   4 -0.950000     1.481588965    20.743319225    27.533319008   0   0   0 # ohy
   1076      1   5  0.425000     4.276217728    19.111121388    28.447281731   0   0   0 # hoy
   1077      1   5  0.425000     2.688163418    22.460349862    25.157909199   0   0   0 # hoy
   1078      1   5  0.425000     1.442489884    23.196472860    28.496327745   0   0   0 # hoy
   1079      1   4 -0.950000    25.383944797    21.900191888     5.942685135   0   0   0 # ohy
   1080      1   4 -0.950000    25.255486429    25.276862749     6.042551847   0   0   0 # ohy
   1081      1   5  0.425000    24.872079989    22.416586296     6.798687343   0   0   0 # hoy
   1082      1   5  0.425000    24.914164567    25.204056429     6.870029833   0   0   0 # hoy
   1083      1   4 -0.950000     1.049120695    21.900191888    20.408746439   0   0   0 # ohy
   1084      1   4 -0.950000     0.920662327    25.276862749    20.508613151   0   0   0 # ohy
   1085      1   5  0.425000     0.537255887    22.416586296    21.264748647   0   0   0 # hoy
   1086      1   5  0.425000     0.579340465    25.204056429    21.336091137   0   0   0 # hoy
   1087      1   1  1.575000     6.154703621    22.285727450     5.122348133   0   0   0 # aoy
   1088      1   1  1.575000     6.299198869    25.187524522     4.986814346   0   0   0 # aoy
   1089      1   1  1.575000     8.860439851    26.685165979     5.122352068   0   0   0 # aoy
   1090      1   1  1.575000     8.714532850    20.732256632     5.051013349   0   0   0 # aoy
   1091      1   2  2.100000     5.439394874    20.991065170     2.169132252   0   0   0 # sty
   1092      1   2  2.100000     5.499449773    23.675326663     2.383133191   0   0   0 # sty
   1093      1   2  2.100000     7.895443038    25.385653735     2.311799216   0   0   0 # sty
   1094      1   2  2.100000     7.984891381    19.486156985     2.247600363   0   0   0 # sty
   1095      1   3 -1.050000     5.204859429    20.867676232     3.959606778   0   0   0 # oby
   1096      1   3 -1.050000     5.443295140    23.724272362     3.838339162   0   0   0 # oby
   1097      1   3 -1.050000     5.706104827    22.254103245     1.577058366   0   0   0 # oby
   1098      1   3 -1.050000     6.596564894    19.855964055     1.626993322   0   0   0 # oby
   1099      1   3 -1.050000     6.513607980    24.759782656     1.519999981   0   0   0 # oby
   1100      1   3 -1.050000     7.904913453    25.350733544     3.866871592   0   0   0 # oby
   1101      1   3 -1.050000     8.162639208    19.213415223     3.959609602   0   0   0 # oby
   1102      1   3 -1.050000     8.086968914    17.916530137     1.598464821   0   0   0 # oby
   1103      1   3 -1.050000     9.155214126    24.359538397     1.983665840   0   0   0 # oby
   1104      1   3 -1.050000     9.207114234    20.231038432     1.641265450   0   0   0 # oby
   1105      1   4 -0.950000     5.250848686    26.455182089     3.995280259   0   0   0 # ohy
   1106      1   4 -0.950000     9.378654971    19.306698722     5.936434660   0   0   0 # ohy
   1107      1   4 -0.950000     4.767944797    21.900191888     5.942685135   0   0   0 # ohy
   1108      1   4 -0.950000     4.639486429    25.276862749     6.042551847   0   0   0 # ohy
   1109      1   4 -0.950000     7.776086239    21.995082439     3.938213132   0   0   0 # ohy
   1110      1   4 -0.950000     6.803496339    23.642426134     5.985489803   0   0   0 # ohy
   1111      1   4 -0.950000     7.195798908    26.453583908     5.885622956   0   0   0 # ohy
   1112      1   4 -0.950000     7.104866758    21.041774501     5.942683484   0   0   0 # ohy
   1113      1   5  0.425000     9.899495521    19.409576664     6.856646207   0   0   0 # hoy
   1114      1   5  0.425000     4.256079989    22.416586296     6.798687343   0   0   0 # hoy
   1115      1   5  0.425000     4.298164567    25.204056429     6.870029833   0   0   0 # hoy
   1116      1   5  0.425000     8.311441211    22.758805138     3.567273675   0   0   0 # hoy
   1117      1   5  0.425000     7.065767677    23.494928136     6.905692221   0   0   0 # hoy
   1118      1   5  0.425000     6.917771050    26.489996149     6.919959381   0   0   0 # hoy
   1119      1   5  0.425000     6.997872789    20.351236962     6.791554611   0   0   0 # hoy
   1120      1   1  1.575000     4.250249930    21.987272174    12.246922353   0   0   0 # aoy
   1121      1   1  1.575000     4.394745178    24.889069246    12.111388566   0   0   0 # aoy
   1122      1   1  1.575000     6.955986160    26.386710703    12.246926288   0   0   0 # aoy
   1123      1   1  1.575000     6.810079159    20.433801356    12.175587569   0   0   0 # aoy
   1124      1   2  2.100000     3.534941183    20.692609894     9.293706472   0   0   0 # sty
   1125      1   2  2.100000     3.594996082    23.376871387     9.507707411   0   0   0 # sty
   1126      1   2  2.100000     5.990989347    25.087198459     9.436373436   0   0   0 # sty
   1127      1   2  2.100000     6.080437690    19.187701709     9.372174583   0   0   0 # sty
   1128      1   3 -1.050000     3.300405738    20.569220956    11.084180998   0   0   0 # oby
   1129      1   3 -1.050000     3.538841449    23.425817086    10.962913382   0   0   0 # oby
   1130      1   3 -1.050000     3.801651136    21.955647969     8.701632586   0   0   0 # oby
   1131      1   3 -1.050000     4.692111203    19.557508779     8.751567542   0   0   0 # oby
   1132      1   3 -1.050000     4.609154289    24.461327380     8.644574201   0   0   0 # oby
   1133      1   3 -1.050000     6.000459762    25.052278268    10.991445812   0   0   0 # oby
   1134      1   3 -1.050000     6.258185517    18.914959947    11.084183822   0   0   0 # oby
   1135      1   3 -1.050000     6.182515223    17.618074861     8.723039041   0   0   0 # oby
   1136      1   3 -1.050000     7.250760435    24.061083121     9.108240060   0   0   0 # oby
   1137      1   3 -1.050000     7.302660543    19.932583156     8.765839670   0   0   0 # oby
   1138      1   4 -0.950000     3.346394995    26.156726813    11.119854479   0   0   0 # ohy
   1139      1   4 -0.950000     7.474201280    19.008243446    13.061008880   0   0   0 # ohy
   1140      1   4 -0.950000     2.863491106    21.601736612    13.067259355   0   0   0 # ohy
   1141      1   4 -0.950000     2.735032738    24.978407473    13.167126067   0   0   0 # ohy
   1142      1   4 -0.950000     5.871632548    21.696627163    11.062787352   0   0   0 # ohy
   1143      1   4 -0.950000     4.899042648    23.343970858    13.110064023   0   0   0 # ohy
   1144      1   4 -0.950000     5.291345217    26.155128632    13.010197176   0   0   0 # ohy
   1145      1   4 -0.950000     5.200413067    20.743319225    13.067257704   0   0   0 # ohy
   1146      1   5  0.425000     7.995041830    19.111121388    13.981220427   0   0   0 # hoy
   1147      1   5  0.425000     2.351626298    22.118131020    13.923261563   0   0   0 # hoy
   1148      1   5  0.425000     2.393710876    24.905601153    13.994604053   0   0   0 # hoy
   1149      1   5  0.425000     6.406987520    22.460349862    10.691847895   0   0   0 # hoy
   1150      1   5  0.425000     5.161313986    23.196472860    14.030266441   0   0   0 # hoy
   1151      1   5  0.425000     5.013317359    26.191540873    14.044533601   0   0   0 # hoy
   1152      1   5  0.425000     5.093419098    20.052781686    13.916128831   0   0   0 # hoy
   1153      1   1  1.575000     7.589879519    22.285727450    19.588409437   0   0   0 # aoy
   1154      1   1  1.575000     7.734374767    25.187524522    19.452875650   0   0   0 # aoy
   1155      1   1  1.575000    10.295615749    26.685165979    19.588413372   0   0   0 # aoy
   1156      1   1  1.575000    10.149708748    20.732256632    19.517074653   0   0   0 # aoy
   1157      1   2  2.100000     6.874570772    20.991065170    16.635193556   0   0   0 # sty
   1158      1   2  2.100000     6.934625671    23.675326663    16.849194495   0   0   0 # sty
   1159      1   2  2.100000     9.330618936    25.385653735    16.777860520   0   0   0 # sty
   1160      1   2  2.100000     9.420067279    19.486156985    16.713661667   0   0   0 # sty
   1161      1   3 -1.050000     6.640035327    20.867676232    18.425668082   0   0   0 # oby
   1162      1   3 -1.050000     6.878471038    23.724272362    18.304400466   0   0   0 # oby
   1163      1   3 -1.050000     7.141280725    22.254103245    16.043119670   0   0   0 # oby
   1164      1   3 -1.050000     8.031740792    19.855964055    16.093054626   0   0   0 # oby
   1165      1   3 -1.050000     7.948783878    24.759782656    15.986061285   0   0   0 # oby
   1166      1   3 -1.050000     9.340089351    25.350733544    18.332932896   0   0   0 # oby
   1167      1   3 -1.050000     9.597815106    19.213415223    18.425670906   0   0   0 # oby
   1168      1   3 -1.050000     9.522144812    17.916530137    16.064526125   0   0   0 # oby
   1169      1   3 -1.050000    10.590390024    24.359538397    16.449727144   0   0   0 # oby
   1170      1   3 -1.050000    10.642290132    20.231038432    16.107326754   0   0   0 # oby
   1171      1   4 -0.950000     6.686024584    26.455182089    18.461341563   0   0   0 # ohy
   1172      1   4 -0.950000    10.813830869    19.306698722    20.402495964   0   0   0 # ohy
   1173      1   4 -0.950000     6.203120695    21.900191888    20.408746439   0   0   0 # ohy
   1174      1   4 -0.950000     6.074662327    25.276862749    20.508613151   0   0   0 # ohy
   1175      1   4 -0.950000     9.211262137    21.995082439    18.404274436   0   0   0 # ohy
   1176      1   4 -0.950000     8.238672237    23.642426134    20.451551107   0   0   0 # ohy
   1177      1   4 -0.950000     8.630974806    26.453583908    20.351684260   0   0   0 # ohy
   1178      1   4 -0.950000     8.540042656    21.041774501    20.408744788   0   0   0 # ohy
   1179      1   5  0.425000    11.334671419    19.409576664    21.322707511   0   0   0 # hoy
   1180      1   5  0.425000     5.691255887    22.416586296    21.264748647   0   0   0 # hoy
   1181      1   5  0.425000     5.733340465    25.204056429    21.336091137   0   0   0 # hoy
   1182      1   5  0.425000     9.746617109    22.758805138    18.033334979   0   0   0 # hoy
   1183      1   5  0.425000     8.500943575    23.494928136    21.371753525   0   0   0 # hoy
   1184      1   5  0.425000     8.352946948    26.489996149    21.386020685   0   0   0 # hoy
   1185      1   5  0.425000     8.433048687    20.351236962    21.257615915   0   0   0 # hoy
   1186      1   1  1.575000     5.685425828    21.987272174    26.712983657   0   0   0 # aoy
   1187      1   1  1.575000     5.829921076    24.889069246    26.577449870   0   0   0 # aoy
   1188      1   1  1.575000     8.391162058    26.386710703    26.712987592   0   0   0 # aoy
   1189      1   1  1.575000     8.245255057    20.433801356    26.641648873   0   0   0 # aoy
   1190      1   2  2.100000     4.970117081    20.692609894    23.759767776   0   0   0 # sty
   1191      1   2  2.100000     5.030171980    23.376871387    23.973768715   0   0   0 # sty
   1192      1   2  2.100000     7.426165245    25.087198459    23.902434740   0   0   0 # sty
   1193      1   2  2.100000     7.515613588    19.187701709    23.838235887   0   0   0 # sty
   1194      1   3 -1.050000     4.735581636    20.569220956    25.550242302   0   0   0 # oby
   1195      1   3 -1.050000     4.974017347    23.425817086    25.428974686   0   0   0 # oby
   1196      1   3 -1.050000     5.236827034    21.955647969    23.167693890   0   0   0 # oby
   1197      1   3 -1.050000     6.127287101    19.557508779    23.217628846   0   0   0 # oby
   1198      1   3 -1.050000     6.044330187    24.461327380    23.110635505   0   0   0 # oby
   1199      1   3 -1.050000     7.435635660    25.052278268    25.457507116   0   0   0 # oby
   1200      1   3 -1.050000     7.693361415    18.914959947    25.550245126   0   0   0 # oby
   1201      1   3 -1.050000     7.617691121    17.618074861    23.189100345   0   0   0 # oby
   1202      1   3 -1.050000     8.685936333    24.061083121    23.574301364   0   0   0 # oby
   1203      1   3 -1.050000     8.737836441    19.932583156    23.231900974   0   0   0 # oby
   1204      1   4 -0.950000     4.781570893    26.156726813    25.585915783   0   0   0 # ohy
   1205      1   4 -0.950000     8.909377178    19.008243446    27.527070184   0   0   0 # ohy
   1206      1   4 -0.950000     4.298667004    21.601736612    27.533320659   0   0   0 # ohy
   1207      1   4 -0.950000     4.170208636    24.978407473    27.633187371   0   0   0 # ohy
   1208      1   4 -0.950000     7.306808446    21.696627163    25.528848656   0   0   0 # ohy
   1209      1   4 -0.950000     6.334218546    23.343970858    27.576125327   0   0   0 # ohy
   1210      1   4 -0.950000     6.726521115    26.155128632    27.476258480   0   0   0 # ohy
   1211      1   4 -0.950000     6.635588965    20.743319225    27.533319008   0   0   0 # ohy
   1212      1   5  0.425000     9.430217728    19.111121388    28.447281731   0   0   0 # hoy
   1213      1   5  0.425000     3.786802196    22.118131020    28.389322867   0   0   0 # hoy
   1214      1   5  0.425000     3.828886774    24.905601153    28.460665357   0   0   0 # hoy
   1215      1   5  0.425000     7.842163418    22.460349862    25.157909199   0   0   0 # hoy
   1216      1   5  0.425000     6.596489884    23.196472860    28.496327745   0   0   0 # hoy
   1217      1   5  0.425000     6.448493257    26.191540873    28.510594905   0   0   0 # hoy
   1218      1   5  0.425000     6.528594996    20.052781686    28.382190135   0   0   0 # hoy
   1219      1   1  1.575000    11.308703621    22.285727450     5.122348133   0   0   0 # aoy
   1220      1   1  1.575000    11.453198869    25.187524522     4.986814346   0   0   0 # aoy
   1221      1   1  1.575000    14.014439851    26.685165979     5.122352068   0   0   0 # aoy
   1222      1   1  1.575000    13.868532850    20.732256632     5.051013349   0   0   0 # aoy
   1223      1   2  2.100000    10.593394874    20.991065170     2.169132252   0   0   0 # sty
   1224      1   2  2.100000    10.653449773    23.675326663     2.383133191   0   0   0 # sty
   1225      1   2  2.100000    13.049443038    25.385653735     2.311799216   0   0   0 # sty
   1226      1   2  2.100000    13.138891381    19.486156985     2.247600363   0   0   0 # sty
   1227      1   3 -1.050000    10.358859429    20.867676232     3.959606778   0   0   0 # oby
   1228      1   3 -1.050000    10.597295140    23.724272362     3.838339162   0   0   0 # oby
   1229      1   3 -1.050000    10.860104827    22.254103245     1.577058366   0   0   0 # oby
   1230      1   3 -1.050000    11.750564894    19.855964055     1.626993322   0   0   0 # oby
   1231      1   3 -1.050000    11.667607980    24.759782656     1.519999981   0   0   0 # oby
   1232      1   3 -1.050000    13.058913453    25.350733544     3.866871592   0   0   0 # oby
   1233      1   3 -1.050000    13.316639208    19.213415223     3.959609602   0   0   0 # oby
   1234      1   3 -1.050000    13.240968914    17.916530137     1.598464821   0   0   0 # oby
   1235      1   3 -1.050000    14.309214126    24.359538397     1.983665840   0   0   0 # oby
   1236      1   3 -1.050000    14.361114234    20.231038432     1.641265450   0   0   0 # oby
   1237      1   4 -0.950000    10.404848686    26.455182089     3.995280259   0   0   0 # ohy
   1238      1   4 -0.950000    14.532654971    19.306698722     5.936434660   0   0   0 # ohy
   1239      1   4 -0.950000     9.921944797    21.900191888     5.942685135   0   0   0 # ohy
   1240      1   4 -0.950000     9.793486429    25.276862749     6.042551847   0   0   0 # ohy
   1241      1   4 -0.950000    12.930086239    21.995082439     3.938213132   0   0   0 # ohy
   1242      1   4 -0.950000    11.957496339    23.642426134     5.985489803   0   0   0 # ohy
   1243      1   4 -0.950000    12.349798908    26.453583908     5.885622956   0   0   0 # ohy
   1244      1   4 -0.950000    12.258866758    21.041774501     5.942683484   0   0   0 # ohy
   1245      1   5  0.425000    15.053495521    19.409576664     6.856646207   0   0   0 # hoy
   1246      1   5  0.425000     9.410079989    22.416586296     6.798687343   0   0   0 # hoy
   1247      1   5  0.425000     9.452164567    25.204056429     6.870029833   0   0   0 # hoy
   1248      1   5  0.425000    13.465441211    22.758805138     3.567273675   0   0   0 # hoy
   1249      1   5  0.425000    12.219767677    23.494928136     6.905692221   0   0   0 # hoy
   1250      1   5  0.425000    12.071771050    26.489996149     6.919959381   0   0   0 # hoy
   1251      1   5  0.425000    12.151872789    20.351236962     6.791554611   0   0   0 # hoy
   1252      1   1  1.575000     9.404249930    21.987272174    12.246922353   0   0   0 # aoy
   1253      1   1  1.575000     9.548745178    24.889069246    12.111388566   0   0   0 # aoy
   1254      1   1  1.575000    12.109986160    26.386710703    12.246926288   0   0   0 # aoy
   1255      1   1  1.575000    11.964079159    20.433801356    12.175587569   0   0   0 # aoy
   1256      1   2  2.100000     8.688941183    20.692609894     9.293706472   0   0   0 # sty
   1257      1   2  2.100000     8.748996082    23.376871387     9.507707411   0   0   0 # sty
   1258      1   2  2.100000    11.144989347    25.087198459     9.436373436   0   0   0 # sty
   1259      1   2  2.100000    11.234437690    19.187701709     9.372174583   0   0   0 # sty
   1260      1   3 -1.050000     8.454405738    20.569220956    11.084180998   0   0   0 # oby
   1261      1   3 -1.050000     8.692841449    23.425817086    10.962913382   0   0   0 # oby
   1262      1   3 -1.050000     8.955651136    21.955647969     8.701632586   0   0   0 # oby
   1263      1   3 -1.050000     9.846111203    19.557508779     8.751567542   0   0   0 # oby
   1264      1   3 -1.050000     9.763154289    24.461327380     8.644574201   0   0   0 # oby
   1265      1   3 -1.050000    11.154459762    25.052278268    10.991445812   0   0   0 # oby
   1266      1   3 -1.050000    11.412185517    18.914959947    11.084183822   0   0   0 # oby
   1267      1   3 -1.050000    11.336515223    17.618074861     8.723039041   0   0   0 # oby
   1268      1   3 -1.050000    12.404760435    24.061083121     9.108240060   0   0   0 # oby
   1269      1   3 -1.050000    12.456660543    19.932583156     8.765839670   0   0   0 # oby
   1270      1   4 -0.950000     8.500394995    26.156726813    11.119854479   0   0   0 # ohy
   1271      1   4 -0.950000    12.628201280    19.008243446    13.061008880   0   0   0 # ohy
   1272      1   4 -0.950000     8.017491106    21.601736612    13.067259355   0   0   0 # ohy
   1273      1   4 -0.950000     7.889032738    24.978407473    13.167126067   0   0   0 # ohy
   1274      1   4 -0.950000    11.025632548    21.696627163    11.062787352   0   0   0 # ohy
   1275      1   4 -0.950000    10.053042648    23.343970858    13.110064023   0   0   0 # ohy
   1276      1   4 -0.950000    10.445345217    26.155128632    13.010197176   0   0   0 # ohy
   1277      1   4 -0.950000    10.354413067    20.743319225    13.067257704   0   0   0 # ohy
   1278      1   5  0.425000    13.149041830    19.111121388    13.981220427   0   0   0 # hoy
   1279      1   5  0.425000     7.505626298    22.118131020    13.923261563   0   0   0 # hoy
   1280      1   5  0.425000     7.547710876    24.905601153    13.994604053   0   0   0 # hoy
   1281      1   5  0.425000    11.560987520    22.460349862    10.691847895   0   0   0 # hoy
   1282      1   5  0.425000    10.315313986    23.196472860    14.030266441   0   0   0 # hoy
   1283      1   5  0.425000    10.167317359    26.191540873    14.044533601   0   0   0 # hoy
   1284      1   5  0.425000    10.247419098    20.052781686    13.916128831   0   0   0 # hoy
   1285      1   1  1.575000    12.743879519    22.285727450    19.588409437   0   0   0 # aoy
   1286      1   1  1.575000    12.888374767    25.187524522    19.452875650   0   0   0 # aoy
   1287      1   1  1.575000    15.449615749    26.685165979    19.588413372   0   0   0 # aoy
   1288      1   1  1.575000    15.303708748    20.732256632    19.517074653   0   0   0 # aoy
   1289      1   2  2.100000    12.028570772    20.991065170    16.635193556   0   0   0 # sty
   1290      1   2  2.100000    12.088625671    23.675326663    16.849194495   0   0   0 # sty
   1291      1   2  2.100000    14.484618936    25.385653735    16.777860520   0   0   0 # sty
   1292      1   2  2.100000    14.574067279    19.486156985    16.713661667   0   0   0 # sty
   1293      1   3 -1.050000    11.794035327    20.867676232    18.425668082   0   0   0 # oby
   1294      1   3 -1.050000    12.032471038    23.724272362    18.304400466   0   0   0 # oby
   1295      1   3 -1.050000    12.295280725    22.254103245    16.043119670   0   0   0 # oby
   1296      1   3 -1.050000    13.185740792    19.855964055    16.093054626   0   0   0 # oby
   1297      1   3 -1.050000    13.102783878    24.759782656    15.986061285   0   0   0 # oby
   1298      1   3 -1.050000    14.494089351    25.350733544    18.332932896   0   0   0 # oby
   1299      1   3 -1.050000    14.751815106    19.213415223    18.425670906   0   0   0 # oby
   1300      1   3 -1.050000    14.676144812    17.916530137    16.064526125   0   0   0 # oby
   1301      1   3 -1.050000    15.744390024    24.359538397    16.449727144   0   0   0 # oby
   1302      1   3 -1.050000    15.796290132    20.231038432    16.107326754   0   0   0 # oby
   1303      1   4 -0.950000    11.840024584    26.455182089    18.461341563   0   0   0 # ohy
   1304      1   4 -0.950000    15.967830869    19.306698722    20.402495964   0   0   0 # ohy
   1305      1   4 -0.950000    11.357120695    21.900191888    20.408746439   0   0   0 # ohy
   1306      1   4 -0.950000    11.228662327    25.276862749    20.508613151   0   0   0 # ohy
   1307      1   4 -0.950000    14.365262137    21.995082439    18.404274436   0   0   0 # ohy
   1308      1   4 -0.950000    13.392672237    23.642426134    20.451551107   0   0   0 # ohy
   1309      1   4 -0.950000    13.784974806    26.453583908    20.351684260   0   0   0 # ohy
   1310      1   4 -0.950000    13.694042656    21.041774501    20.408744788   0   0   0 # ohy
   1311      1   5  0.425000    16.488671419    19.409576664    21.322707511   0   0   0 # hoy
   1312      1   5  0.425000    10.845255887    22.416586296    21.264748647   0   0   0 # hoy
   1313      1   5  0.425000    10.887340465    25.204056429    21.336091137   0   0   0 # hoy
   1314      1   5  0.425000    14.900617109    22.758805138    18.033334979   0   0   0 # hoy
   1315      1   5  0.425000    13.654943575    23.494928136    21.371753525   0   0   0 # hoy
   1316      1   5  0.425000    13.506946948    26.489996149    21.386020685   0   0   0 # hoy
   1317      1   5  0.425000    13.587048687    20.351236962    21.257615915   0   0   0 # hoy
   1318      1   1  1.575000    10.839425828    21.987272174    26.712983657   0   0   0 # aoy
   1319      1   1  1.575000    10.983921076    24.889069246    26.577449870   0   0   0 # aoy
   1320      1   1  1.575000    13.545162058    26.386710703    26.712987592   0   0   0 # aoy
   1321      1   1  1.575000    13.399255057    20.433801356    26.641648873   0   0   0 # aoy
   1322      1   2  2.100000    10.124117081    20.692609894    23.759767776   0   0   0 # sty
   1323      1   2  2.100000    10.184171980    23.376871387    23.973768715   0   0   0 # sty
   1324      1   2  2.100000    12.580165245    25.087198459    23.902434740   0   0   0 # sty
   1325      1   2  2.100000    12.669613588    19.187701709    23.838235887   0   0   0 # sty
   1326      1   3 -1.050000     9.889581636    20.569220956    25.550242302   0   0   0 # oby
   1327      1   3 -1.050000    10.128017347    23.425817086    25.428974686   0   0   0 # oby
   1328      1   3 -1.050000    10.390827034    21.955647969    23.167693890   0   0   0 # oby
   1329      1   3 -1.050000    11.281287101    19.557508779    23.217628846   0   0   0 # oby
   1330      1   3 -1.050000    11.198330187    24.461327380    23.110635505   0   0   0 # oby
   1331      1   3 -1.050000    12.589635660    25.052278268    25.457507116   0   0   0 # oby
   1332      1   3 -1.050000    12.847361415    18.914959947    25.550245126   0   0   0 # oby
   1333      1   3 -1.050000    12.771691121    17.618074861    23.189100345   0   0   0 # oby
   1334      1   3 -1.050000    13.839936333    24.061083121    23.574301364   0   0   0 # oby
   1335      1   3 -1.050000    13.891836441    19.932583156    23.231900974   0   0   0 # oby
   1336      1   4 -0.950000     9.935570893    26.156726813    25.585915783   0   0   0 # ohy
   1337      1   4 -0.950000    14.063377178    19.008243446    27.527070184   0   0   0 # ohy
   1338      1   4 -0.950000     9.452667004    21.601736612    27.533320659   0   0   0 # ohy
   1339      1   4 -0.950000     9.324208636    24.978407473    27.633187371   0   0   0 # ohy
   1340      1   4 -0.950000    12.460808446    21.696627163    25.528848656   0   0   0 # ohy
   1341      1   4 -0.950000    11.488218546    23.343970858    27.576125327   0   0   0 # ohy
   1342      1   4 -0.950000    11.880521115    26.155128632    27.476258480   0   0   0 # ohy
   1343      1   4 -0.950000    11.789588965    20.743319225    27.533319008   0   0   0 # ohy
   1344      1   5  0.425000    14.584217728    19.111121388    28.447281731   0   0   0 # hoy
   1345      1   5  0.425000     8.940802196    22.118131020    28.389322867   0   0   0 # hoy
   1346      1   5  0.425000     8.982886774    24.905601153    28.460665357   0   0   0 # hoy
   1347      1   5  0.425000    12.996163418    22.460349862    25.157909199   0   0   0 # hoy
   1348      1   5  0.425000    11.750489884    23.196472860    28.496327745   0   0   0 # hoy
   1349      1   5  0.425000    11.602493257    26.191540873    28.510594905   0   0   0 # hoy
   1350      1   5  0.425000    11.682594996    20.052781686    28.382190135   0   0   0 # hoy
   1351      1   1  1.575000    16.462703621    22.285727450     5.122348133   0   0   0 # aoy
   1352      1   1  1.575000    16.607198869    25.187524522     4.986814346   0   0   0 # aoy
   1353      1   1  1.575000    19.168439851    26.685165979     5.122352068   0   0   0 # aoy
   1354      1   1  1.575000    19.022532850    20.732256632     5.051013349   0   0   0 # aoy
   1355      1   2  2.100000    15.747394874    20.991065170     2.169132252   0   0   0 # sty
   1356      1   2  2.100000    15.807449773    23.675326663     2.383133191   0   0   0 # sty
   1357      1   2  2.100000    18.203443038    25.385653735     2.311799216   0   0   0 # sty
   1358      1   2  2.100000    18.292891381    19.486156985     2.247600363   0   0   0 # sty
   1359      1   3 -1.050000    15.512859429    20.867676232     3.959606778   0   0   0 # oby
   1360      1   3 -1.050000    15.751295140    23.724272362     3.838339162   0   0   0 # oby
   1361      1   3 -1.050000    16.014104827    22.254103245     1.577058366   0   0   0 # oby
   1362      1   3 -1.050000    16.904564894    19.855964055     1.626993322   0   0   0 # oby
   1363      1   3 -1.050000    16.821607980    24.759782656     1.519999981   0   0   0 # oby
   1364      1   3 -1.050000    18.212913453    25.350733544     3.866871592   0   0   0 # oby
   1365      1   3 -1.050000    18.470639208    19.213415223     3.959609602   0   0   0 # oby
   1366      1   3 -1.050000    18.394968914    17.916530137     1.598464821   0   0   0 # oby
   1367      1   3 -1.050000    19.463214126    24.359538397     1.983665840   0   0   0 # oby
   1368      1   3 -1.050000    19.515114234    20.231038432     1.641265450   0   0   0 # oby
   1369      1   4 -0.950000    15.558848686    26.455182089     3.995280259   0   0   0 # ohy
   1370      1   4 -0.950000    19.686654971    19.306698722     5.936434660   0   0   0 # ohy
   1371      1   4 -0.950000    15.075944797    21.900191888     5.942685135   0   0   0 # ohy
   1372      1   4 -0.950000    14.947486429    25.276862749     6.042551847   0   0   0 # ohy
   1373      1   4 -0.950000    18.084086239    21.995082439     3.938213132   0   0   0 # ohy
   1374      1   4 -0.950000    17.111496339    23.642426134     5.985489803   0   0   0 # ohy
   1375      1   4 -0.950000    17.503798908    26.453583908     5.885622956   0   0   0 # ohy
   1376      1   4 -0.950000    17.412866758    21.041774501     5.942683484   0   0   0 # ohy
   1377      1   5  0.425000    20.207495521    19.409576664     6.856646207   0   0   0 # hoy
   1378      1   5  0.425000    14.564079989    22.416586296     6.798687343   0   0   0 # hoy
   1379      1   5  0.425000    14.606164567    25.204056429     6.870029833   0   0   0 # hoy
   1380      1   5  0.425000    18.619441211    22.758805138     3.567273675   0   0   0 # hoy
   1381      1   5  0.425000    17.373767677    23.494928136     6.905692221   0   0   0 # hoy
   1382      1   5  0.425000    17.225771050    26.489996149     6.919959381   0   0   0 # hoy
   1383      1   5  0.425000    17.305872789    20.351236962     6.791554611   0   0   0 # hoy
   1384      1   1  1.575000    14.558249930    21.987272174    12.246922353   0   0   0 # aoy
   1385      1   1  1.575000    14.702745178    24.889069246    12.111388566   0   0   0 # aoy
   1386      1   1  1.575000    17.263986160    26.386710703    12.246926288   0   0   0 # aoy
   1387      1   1  1.575000    17.118079159    20.433801356    12.175587569   0   0   0 # aoy
   1388      1   2  2.100000    13.842941183    20.692609894     9.293706472   0   0   0 # sty
   1389      1   2  2.100000    13.902996082    23.376871387     9.507707411   0   0   0 # sty
   1390      1   2  2.100000    16.298989347    25.087198459     9.436373436   0   0   0 # sty
   1391      1   2  2.100000    16.388437690    19.187701709     9.372174583   0   0   0 # sty
   1392      1   3 -1.050000    13.608405738    20.569220956    11.084180998   0   0   0 # oby
   1393      1   3 -1.050000    13.846841449    23.425817086    10.962913382   0   0   0 # oby
   1394      1   3 -1.050000    14.109651136    21.955647969     8.701632586   0   0   0 # oby
   1395      1   3 -1.050000    15.000111203    19.557508779     8.751567542   0   0   0 # oby
   1396      1   3 -1.050000    14.917154289    24.461327380     8.644574201   0   0   0 # oby
   1397      1   3 -1.050000    16.308459762    25.052278268    10.991445812   0   0   0 # oby
   1398      1   3 -1.050000    16.566185517    18.914959947    11.084183822   0   0   0 # oby
   1399      1   3 -1.050000    16.490515223    17.618074861     8.723039041   0   0   0 # oby
   1400      1   3 -1.050000    17.558760435    24.061083121     9.108240060   0   0   0 # oby
   1401      1   3 -1.050000    17.610660543    19.932583156     8.765839670   0   0   0 # oby
   1402      1   4 -0.950000    13.654394995    26.156726813    11.119854479   0   0   0 # ohy
   1403      1   4 -0.950000    17.782201280    19.008243446    13.061008880   0   0   0 # ohy
   1404      1   4 -0.950000    13.171491106    21.601736612    13.067259355   0   0   0 # ohy
   1405      1   4 -0.950000    13.043032738    24.978407473    13.167126067   0   0   0 # ohy
   1406      1   4 -0.950000    16.179632548    21.696627163    11.062787352   0   0   0 # ohy
   1407      1   4 -0.950000    15.207042648    23.343970858    13.110064023   0   0   0 # ohy
   1408      1   4 -0.950000    15.599345217    26.155128632    13.010197176   0   0   0 # ohy
   1409      1   4 -0.950000    15.508413067    20.743319225    13.067257704   0   0   0 # ohy
   1410      1   5  0.425000    18.303041830    19.111121388    13.981220427   0   0   0 # hoy
   1411      1   5  0.425000    12.659626298    22.118131020    13.923261563   0   0   0 # hoy
   1412      1   5  0.425000    12.701710876    24.905601153    13.994604053   0   0   0 # hoy
   1413      1   5  0.425000    16.714987520    22.460349862    10.691847895   0   0   0 # hoy
   1414      1   5  0.425000    15.469313986    23.196472860    14.030266441   0   0   0 # hoy
   1415      1   5  0.425000    15.321317359    26.191540873    14.044533601   0   0   0 # hoy
   1416      1   5  0.425000    15.401419098    20.052781686    13.916128831   0   0   0 # hoy
   1417      1   1  1.575000    17.897879519    22.285727450    19.588409437   0   0   0 # aoy
   1418      1   1  1.575000    18.042374767    25.187524522    19.452875650   0   0   0 # aoy
   1419      1   1  1.575000    20.603615749    26.685165979    19.588413372   0   0   0 # aoy
   1420      1   1  1.575000    20.457708748    20.732256632    19.517074653   0   0   0 # aoy
   1421      1   2  2.100000    17.182570772    20.991065170    16.635193556   0   0   0 # sty
   1422      1   2  2.100000    17.242625671    23.675326663    16.849194495   0   0   0 # sty
   1423      1   2  2.100000    19.638618936    25.385653735    16.777860520   0   0   0 # sty
   1424      1   2  2.100000    19.728067279    19.486156985    16.713661667   0   0   0 # sty
   1425      1   3 -1.050000    16.948035327    20.867676232    18.425668082   0   0   0 # oby
   1426      1   3 -1.050000    17.186471038    23.724272362    18.304400466   0   0   0 # oby
   1427      1   3 -1.050000    17.449280725    22.254103245    16.043119670   0   0   0 # oby
   1428      1   3 -1.050000    18.339740792    19.855964055    16.093054626   0   0   0 # oby
   1429      1   3 -1.050000    18.256783878    24.759782656    15.986061285   0   0   0 # oby
   1430      1   3 -1.050000    19.648089351    25.350733544    18.332932896   0   0   0 # oby
   1431      1   3 -1.050000    19.905815106    19.213415223    18.425670906   0   0   0 # oby
   1432      1   3 -1.050000    19.830144812    17.916530137    16.064526125   0   0   0 # oby
   1433      1   3 -1.050000    20.898390024    24.359538397    16.449727144   0   0   0 # oby
   1434      1   3 -1.050000    20.950290132    20.231038432    16.107326754   0   0   0 # oby
   1435      1   4 -0.950000    16.994024584    26.455182089    18.461341563   0   0   0 # ohy
   1436      1   4 -0.950000    21.121830869    19.306698722    20.402495964   0   0   0 # ohy
   1437      1   4 -0.950000    16.511120695    21.900191888    20.408746439   0   0   0 # ohy
   1438      1   4 -0.950000    16.382662327    25.276862749    20.508613151   0   0   0 # ohy
   1439      1   4 -0.950000    19.519262137    21.995082439    18.404274436   0   0   0 # ohy
   1440      1   4 -0.950000    18.546672237    23.642426134    20.451551107   0   0   0 # ohy
   1441      1   4 -0.950000    18.938974806    26.453583908    20.351684260   0   0   0 # ohy
   1442      1   4 -0.950000    18.848042656    21.041774501    20.408744788   0   0   0 # ohy
   1443      1   5  0.425000    21.642671419    19.409576664    21.322707511   0   0   0 # hoy
   1444      1   5  0.425000    15.999255887    22.416586296    21.264748647   0   0   0 # hoy
   1445      1   5  0.425000    16.041340465    25.204056429    21.336091137   0   0   0 # hoy
   1446      1   5  0.425000    20.054617109    22.758805138    18.033334979   0   0   0 # hoy
   1447      1   5  0.425000    18.808943575    23.494928136    21.371753525   0   0   0 # hoy
   1448      1   5  0.425000    18.660946948    26.489996149    21.386020685   0   0   0 # hoy
   1449      1   5  0.425000    18.741048687    20.351236962    21.257615915   0   0   0 # hoy
   1450      1   1  1.575000    15.993425828    21.987272174    26.712983657   0   0   0 # aoy
   1451      1   1  1.575000    16.137921076    24.889069246    26.577449870   0   0   0 # aoy
   1452      1   1  1.575000    18.699162058    26.386710703    26.712987592   0   0   0 # aoy
   1453      1   1  1.575000    18.553255057    20.433801356    26.641648873   0   0   0 # aoy
   1454      1   2  2.100000    15.278117081    20.692609894    23.759767776   0   0   0 # sty
   1455      1   2  2.100000    15.338171980    23.376871387    23.973768715   0   0   0 # sty
   1456      1   2  2.100000    17.734165245    25.087198459    23.902434740   0   0   0 # sty
   1457      1   2  2.100000    17.823613588    19.187701709    23.838235887   0   0   0 # sty
   1458      1   3 -1.050000    15.043581636    20.569220956    25.550242302   0   0   0 # oby
   1459      1   3 -1.050000    15.282017347    23.425817086    25.428974686   0   0   0 # oby
   1460      1   3 -1.050000    15.544827034    21.955647969    23.167693890   0   0   0 # oby
   1461      1   3 -1.050000    16.435287101    19.557508779    23.217628846   0   0   0 # oby
   1462      1   3 -1.050000    16.352330187    24.461327380    23.110635505   0   0   0 # oby
   1463      1   3 -1.050000    17.743635660    25.052278268    25.457507116   0   0   0 # oby
   1464      1   3 -1.050000    18.001361415    18.914959947    25.550245126   0   0   0 # oby
   1465      1   3 -1.050000    17.925691121    17.618074861    23.189100345   0   0   0 # oby
   1466      1   3 -1.050000    18.993936333    24.061083121    23.574301364   0   0   0 # oby
   1467      1   3 -1.050000    19.045836441    19.932583156    23.231900974   0   0   0 # oby
   1468      1   4 -0.950000    15.089570893    26.156726813    25.585915783   0   0   0 # ohy
   1469      1   4 -0.950000    19.217377178    19.008243446    27.527070184   0   0   0 # ohy
   1470      1   4 -0.950000    14.606667004    21.601736612    27.533320659   0   0   0 # ohy
   1471      1   4 -0.950000    14.478208636    24.978407473    27.633187371   0   0   0 # ohy
   1472      1   4 -0.950000    17.614808446    21.696627163    25.528848656   0   0   0 # ohy
   1473      1   4 -0.950000    16.642218546    23.343970858    27.576125327   0   0   0 # ohy
   1474      1   4 -0.950000    17.034521115    26.155128632    27.476258480   0   0   0 # ohy
   1475      1   4 -0.950000    16.943588965    20.743319225    27.533319008   0   0   0 # ohy
   1476      1   5  0.425000    19.738217728    19.111121388    28.447281731   0   0   0 # hoy
   1477      1   5  0.425000    14.094802196    22.118131020    28.389322867   0   0   0 # hoy
   1478      1   5  0.425000    14.136886774    24.905601153    28.460665357   0   0   0 # hoy
   1479      1   5  0.425000    18.150163418    22.460349862    25.157909199   0   0   0 # hoy
   1480      1   5  0.425000    16.904489884    23.196472860    28.496327745   0   0   0 # hoy
   1481      1   5  0.425000    16.756493257    26.191540873    28.510594905   0   0   0 # hoy
   1482      1   5  0.425000    16.836594996    20.052781686    28.382190135   0   0   0 # hoy
   1483      1   1  1.575000    21.616703621    22.285727450     5.122348133   0   0   0 # aoy
   1484      1   1  1.575000    21.761198869    25.187524522     4.986814346   0   0   0 # aoy
   1485      1   1  1.575000    24.322439851    26.685165979     5.122352068   0   0   0 # aoy
   1486      1   1  1.575000    24.176532850    20.732256632     5.051013349   0   0   0 # aoy
   1487      1   2  2.100000    20.901394874    20.991065170     2.169132252   0   0   0 # sty
   1488      1   2  2.100000    20.961449773    23.675326663     2.383133191   0   0   0 # sty
   1489      1   2  2.100000    23.357443038    25.385653735     2.311799216   0   0   0 # sty
   1490      1   2  2.100000    23.446891381    19.486156985     2.247600363   0   0   0 # sty
   1491      1   3 -1.050000    20.666859429    20.867676232     3.959606778   0   0   0 # oby
   1492      1   3 -1.050000    20.905295140    23.724272362     3.838339162   0   0   0 # oby
   1493      1   3 -1.050000    21.168104827    22.254103245     1.577058366   0   0   0 # oby
   1494      1   3 -1.050000    22.058564894    19.855964055     1.626993322   0   0   0 # oby
   1495      1   3 -1.050000    21.975607980    24.759782656     1.519999981   0   0   0 # oby
   1496      1   3 -1.050000    23.366913453    25.350733544     3.866871592   0   0   0 # oby
   1497      1   3 -1.050000    23.624639208    19.213415223     3.959609602   0   0   0 # oby
   1498      1   3 -1.050000    23.548968914    17.916530137     1.598464821   0   0   0 # oby
   1499      1   3 -1.050000    24.617214126    24.359538397     1.983665840   0   0   0 # oby
   1500      1   3 -1.050000    24.669114234    20.231038432     1.641265450   0   0   0 # oby
   1501      1   4 -0.950000    20.712848686    26.455182089     3.995280259   0   0   0 # ohy
   1502      1   4 -0.950000    20.229944797    21.900191888     5.942685135   0   0   0 # ohy
   1503      1   4 -0.950000    20.101486429    25.276862749     6.042551847   0   0   0 # ohy
   1504      1   4 -0.950000    23.238086239    21.995082439     3.938213132   0   0   0 # ohy
   1505      1   4 -0.950000    22.265496339    23.642426134     5.985489803   0   0   0 # ohy
   1506      1   4 -0.950000    22.657798908    26.453583908     5.885622956   0   0   0 # ohy
   1507      1   4 -0.950000    22.566866758    21.041774501     5.942683484   0   0   0 # ohy
   1508      1   5  0.425000    19.718079989    22.416586296     6.798687343   0   0   0 # hoy
   1509      1   5  0.425000    19.760164567    25.204056429     6.870029833   0   0   0 # hoy
   1510      1   5  0.425000    23.773441211    22.758805138     3.567273675   0   0   0 # hoy
   1511      1   5  0.425000    22.527767677    23.494928136     6.905692221   0   0   0 # hoy
   1512      1   5  0.425000    22.379771050    26.489996149     6.919959381   0   0   0 # hoy
   1513      1   5  0.425000    22.459872789    20.351236962     6.791554611   0   0   0 # hoy
   1514      1   1  1.575000    19.712249930    21.987272174    12.246922353   0   0   0 # aoy
   1515      1   1  1.575000    19.856745178    24.889069246    12.111388566   0   0   0 # aoy
   1516      1   1  1.575000    22.417986160    26.386710703    12.246926288   0   0   0 # aoy
   1517      1   1  1.575000    22.272079159    20.433801356    12.175587569   0   0   0 # aoy
   1518      1   2  2.100000    18.996941183    20.692609894     9.293706472   0   0   0 # sty
   1519      1   2  2.100000    19.056996082    23.376871387     9.507707411   0   0   0 # sty
   1520      1   2  2.100000    21.452989347    25.087198459     9.436373436   0   0   0 # sty
   1521      1   2  2.100000    21.542437690    19.187701709     9.372174583   0   0   0 # sty
   1522      1   3 -1.050000    18.762405738    20.569220956    11.084180998   0   0   0 # oby
   1523      1   3 -1.050000    19.000841449    23.425817086    10.962913382   0   0   0 # oby
   1524      1   3 -1.050000    19.263651136    21.955647969     8.701632586   0   0   0 # oby
   1525      1   3 -1.050000    20.154111203    19.557508779     8.751567542   0   0   0 # oby
   1526      1   3 -1.050000    20.071154289    24.461327380     8.644574201   0   0   0 # oby
   1527      1   3 -1.050000    21.462459762    25.052278268    10.991445812   0   0   0 # oby
   1528      1   3 -1.050000    21.720185517    18.914959947    11.084183822   0   0   0 # oby
   1529      1   3 -1.050000    21.644515223    17.618074861     8.723039041   0   0   0 # oby
   1530      1   3 -1.050000    22.712760435    24.061083121     9.108240060   0   0   0 # oby
   1531      1   3 -1.050000    22.764660543    19.932583156     8.765839670   0   0   0 # oby
   1532      1   4 -0.950000    18.808394995    26.156726813    11.119854479   0   0   0 # ohy
   1533      1   4 -0.950000    18.325491106    21.601736612    13.067259355   0   0   0 # ohy
   1534      1   4 -0.950000    18.197032738    24.978407473    13.167126067   0   0   0 # ohy
   1535      1   4 -0.950000    21.333632548    21.696627163    11.062787352   0   0   0 # ohy
   1536      1   4 -0.950000    20.361042648    23.343970858    13.110064023   0   0   0 # ohy
   1537      1   4 -0.950000    20.753345217    26.155128632    13.010197176   0   0   0 # ohy
   1538      1   4 -0.950000    20.662413067    20.743319225    13.067257704   0   0   0 # ohy
   1539      1   5  0.425000    17.813626298    22.118131020    13.923261563   0   0   0 # hoy
   1540      1   5  0.425000    17.855710876    24.905601153    13.994604053   0   0   0 # hoy
   1541      1   5  0.425000    21.868987520    22.460349862    10.691847895   0   0   0 # hoy
   1542      1   5  0.425000    20.623313986    23.196472860    14.030266441   0   0   0 # hoy
   1543      1   5  0.425000    20.475317359    26.191540873    14.044533601   0   0   0 # hoy
   1544      1   5  0.425000    20.555419098    20.052781686    13.916128831   0   0   0 # hoy
   1545      1   1  1.575000    23.051879519    22.285727450    19.588409437   0   0   0 # aoy
   1546      1   1  1.575000    23.196374767    25.187524522    19.452875650   0   0   0 # aoy
   1547      1   1  1.575000    25.757615749    26.685165979    19.588413372   0   0   0 # aoy
   1548      1   1  1.575000    25.611708748    20.732256632    19.517074653   0   0   0 # aoy
   1549      1   2  2.100000    22.336570772    20.991065170    16.635193556   0   0   0 # sty
   1550      1   2  2.100000    22.396625671    23.675326663    16.849194495   0   0   0 # sty
   1551      1   2  2.100000    24.792618936    25.385653735    16.777860520   0   0   0 # sty
   1552      1   2  2.100000    24.882067279    19.486156985    16.713661667   0   0   0 # sty
   1553      1   3 -1.050000    22.102035327    20.867676232    18.425668082   0   0   0 # oby
   1554      1   3 -1.050000    22.340471038    23.724272362    18.304400466   0   0   0 # oby
   1555      1   3 -1.050000    22.603280725    22.254103245    16.043119670   0   0   0 # oby
   1556      1   3 -1.050000    23.493740792    19.855964055    16.093054626   0   0   0 # oby
   1557      1   3 -1.050000    23.410783878    24.759782656    15.986061285   0   0   0 # oby
   1558      1   3 -1.050000    24.802089351    25.350733544    18.332932896   0   0   0 # oby
   1559      1   3 -1.050000    25.059815106    19.213415223    18.425670906   0   0   0 # oby
   1560      1   3 -1.050000    24.984144812    17.916530137    16.064526125   0   0   0 # oby
   1561      1   3 -1.050000     0.282390024    24.359538397    16.449727144   0   0   0 # oby
   1562      1   3 -1.050000     0.334290132    20.231038432    16.107326754   0   0   0 # oby
   1563      1   4 -0.950000    22.148024584    26.455182089    18.461341563   0   0   0 # ohy
   1564      1   4 -0.950000    21.665120695    21.900191888    20.408746439   0   0   0 # ohy
   1565      1   4 -0.950000    21.536662327    25.276862749    20.508613151   0   0   0 # ohy
   1566      1   4 -0.950000    24.673262137    21.995082439    18.404274436   0   0   0 # ohy
   1567      1   4 -0.950000    23.700672237    23.642426134    20.451551107   0   0   0 # ohy
   1568      1   4 -0.950000    24.092974806    26.453583908    20.351684260   0   0   0 # ohy
   1569      1   4 -0.950000    24.002042656    21.041774501    20.408744788   0   0   0 # ohy
   1570      1   5  0.425000    21.153255887    22.416586296    21.264748647   0   0   0 # hoy
   1571      1   5  0.425000    21.195340465    25.204056429    21.336091137   0   0   0 # hoy
   1572      1   5  0.425000    25.208617109    22.758805138    18.033334979   0   0   0 # hoy
   1573      1   5  0.425000    23.962943575    23.494928136    21.371753525   0   0   0 # hoy
   1574      1   5  0.425000    23.814946948    26.489996149    21.386020685   0   0   0 # hoy
   1575      1   5  0.425000    23.895048687    20.351236962    21.257615915   0   0   0 # hoy
   1576      1   1  1.575000    21.147425828    21.987272174    26.712983657   0   0   0 # aoy
   1577      1   1  1.575000    21.291921076    24.889069246    26.577449870   0   0   0 # aoy
   1578      1   1  1.575000    23.853162058    26.386710703    26.712987592   0   0   0 # aoy
   1579      1   1  1.575000    23.707255057    20.433801356    26.641648873   0   0   0 # aoy
   1580      1   2  2.100000    20.432117081    20.692609894    23.759767776   0   0   0 # sty
   1581      1   2  2.100000    20.492171980    23.376871387    23.973768715   0   0   0 # sty
   1582      1   2  2.100000    22.888165245    25.087198459    23.902434740   0   0   0 # sty
   1583      1   2  2.100000    22.977613588    19.187701709    23.838235887   0   0   0 # sty
   1584      1   3 -1.050000    20.197581636    20.569220956    25.550242302   0   0   0 # oby
   1585      1   3 -1.050000    20.436017347    23.425817086    25.428974686   0   0   0 # oby
   1586      1   3 -1.050000    20.698827034    21.955647969    23.167693890   0   0   0 # oby
   1587      1   3 -1.050000    21.589287101    19.557508779    23.217628846   0   0   0 # oby
   1588      1   3 -1.050000    21.506330187    24.461327380    23.110635505   0   0   0 # oby
   1589      1   3 -1.050000    22.897635660    25.052278268    25.457507116   0   0   0 # oby
   1590      1   3 -1.050000    23.155361415    18.914959947    25.550245126   0   0   0 # oby
   1591      1   3 -1.050000    23.079691121    17.618074861    23.189100345   0   0   0 # oby
   1592      1   3 -1.050000    24.147936333    24.061083121    23.574301364   0   0   0 # oby
   1593      1   3 -1.050000    24.199836441    19.932583156    23.231900974   0   0   0 # oby
   1594      1   4 -0.950000    20.243570893    26.156726813    25.585915783   0   0   0 # ohy
   1595      1   4 -0.950000    19.760667004    21.601736612    27.533320659   0   0   0 # ohy
   1596      1   4 -0.950000    19.632208636    24.978407473    27.633187371   0   0   0 # ohy
   1597      1   4 -0.950000    22.768808446    21.696627163    25.528848656   0   0   0 # ohy
   1598      1   4 -0.950000    21.796218546    23.343970858    27.576125327   0   0   0 # ohy
   1599      1   4 -0.950000    22.188521115    26.155128632    27.476258480   0   0   0 # ohy
   1600      1   4 -0.950000    22.097588965    20.743319225    27.533319008   0   0   0 # ohy
   1601      1   5  0.425000    19.248802196    22.118131020    28.389322867   0   0   0 # hoy
   1602      1   5  0.425000    19.290886774    24.905601153    28.460665357   0   0   0 # hoy
   1603      1   5  0.425000    23.304163418    22.460349862    25.157909199   0   0   0 # hoy
   1604      1   5  0.425000    22.058489884    23.196472860    28.496327745   0   0   0 # hoy
   1605      1   5  0.425000    21.910493257    26.191540873    28.510594905   0   0   0 # hoy
   1606      1   5  0.425000    21.990594996    20.052781686    28.382190135   0   0   0 # hoy
   1607      1   4 -0.950000    22.873774470     1.124352401    13.061008880   0   0   0 # ohy
   1608      1   5  0.425000    23.394615020     1.227230343    13.981220427   0   0   0 # hoy
   1609      1   4 -0.950000    22.904987875    10.066297923    13.061008880   0   0   0 # ohy
   1610      1   5  0.425000    23.425828425    10.169175865    13.981220427   0   0   0 # hoy
   1611      2   3 -1.050000     0.966088413    26.560183816     8.723039041   0   0   0 # oby
   1612      3   3 -1.050000     2.401264311    26.560183816    23.189100345   0   0   0 # oby
   1613      4   3 -1.050000     6.120088413    26.560183816     8.723039041   0   0   0 # oby
   1614      5   3 -1.050000     7.555264311    26.560183816    23.189100345   0   0   0 # oby
   1615      6   3 -1.050000    11.274088413    26.560183816     8.723039041   0   0   0 # oby
   1616      7   3 -1.050000    12.709264311    26.560183816    23.189100345   0   0   0 # oby
   1617      8   3 -1.050000    16.428088413    26.560183816     8.723039041   0   0   0 # oby
   1618      9   3 -1.050000    17.863264311    26.560183816    23.189100345   0   0   0 # oby
   1619     10   3 -1.050000    21.582088413    26.560183816     8.723039041   0   0   0 # oby
   1620     11   3 -1.050000    23.017264311    26.560183816    23.189100345   0   0   0 # oby
   1621     12   1  1.575000    24.835036525    13.045326651    12.246922353   0   0   0 # aoy
   1622     12   1  1.575000    24.979531773    15.947123723    12.111388566   0   0   0 # aoy
   1623     12   2  2.100000    24.119727778    11.750664371     9.293706472   0   0   0 # sty
   1624     12   2  2.100000    24.179782677    14.434925864     9.507707411   0   0   0 # sty
   1625     12   3 -1.050000    23.885192333    11.627275433    11.084180998   0   0   0 # oby
   1626     12   3 -1.050000    24.123628044    14.483871563    10.962913382   0   0   0 # oby
   1627     12   3 -1.050000    24.386437731    13.013702446     8.701632586   0   0   0 # oby
   1628     12   3 -1.050000    25.276897798    10.615563256     8.751567542   0   0   0 # oby
   1629     12   3 -1.050000    25.193940884    15.519381857     8.644574201   0   0   0 # oby
   1630     12   4 -0.950000    23.931181590    17.214781290    11.119854479   0   0   0 # ohy
   1631     12   4 -0.950000    23.448277701    12.659791089    13.067259355   0   0   0 # ohy
   1632     12   4 -0.950000    23.319819333    16.036461950    13.167126067   0   0   0 # ohy
   1633     12   4 -0.950000    25.483829243    14.402025335    13.110064023   0   0   0 # ohy
   1634     12   5  0.425000    24.527608809    18.146000664    11.348100662   0   0   0 # hoy
   1635     12   5  0.425000    22.936412893    13.176185497    13.923261563   0   0   0 # hoy
   1636     12   5  0.425000    22.978497471    15.963655630    13.994604053   0   0   0 # hoy
   1637     12   5  0.425000    25.746100581    14.254527337    14.030266441   0   0   0 # hoy
   1638     12   5  0.425000    25.598103954    17.249595350    14.044533601   0   0   0 # hoy
   1639     12   5  0.425000    25.678205693    11.110836163    13.916128831   0   0   0 # hoy
   1640     13   1  1.575000     0.500212423    13.045326651    26.712983657   0   0   0 # aoy
   1641     13   1  1.575000     0.644707671    15.947123723    26.577449870   0   0   0 # aoy
   1642     13   3 -1.050000     0.051613629    13.013702446    23.167693890   0   0   0 # oby
   1643     13   3 -1.050000     0.942073696    10.615563256    23.217628846   0   0   0 # oby
   1644     13   3 -1.050000     0.859116782    15.519381857    23.110635505   0   0   0 # oby
   1645     13   4 -0.950000     1.149005141    14.402025335    27.576125327   0   0   0 # ohy
   1646     13   5  0.425000     0.192784707    18.146000664    25.814161966   0   0   0 # hoy
   1647     13   5  0.425000     1.411276479    14.254527337    28.496327745   0   0   0 # hoy
   1648     13   5  0.425000     1.263279852    17.249595350    28.510594905   0   0   0 # hoy
   1649     13   5  0.425000     1.343381591    11.110836163    28.382190135   0   0   0 # hoy
   1650     14   2  2.100000    25.554903676    11.750664371    23.759767776   0   0   0 # sty
   1651     14   2  2.100000    25.614958575    14.434925864    23.973768715   0   0   0 # sty
   1652     14   3 -1.050000    25.320368231    11.627275433    25.550242302   0   0   0 # oby
   1653     14   3 -1.050000    25.558803942    14.483871563    25.428974686   0   0   0 # oby
   1654     14   4 -0.950000    25.366357488    17.214781290    25.585915783   0   0   0 # ohy
   1655     14   4 -0.950000    24.883453599    12.659791089    27.533320659   0   0   0 # ohy
   1656     14   4 -0.950000    24.754995231    16.036461950    27.633187371   0   0   0 # ohy
   1657     14   5  0.425000    24.371588791    13.176185497    28.389322867   0   0   0 # hoy
   1658     14   5  0.425000    24.413673369    15.963655630    28.460665357   0   0   0 # hoy
   1659     15   1  1.575000     1.770772755    17.444765180    12.246926288   0   0   0 # aoy
   1660     15   1  1.575000     1.624865754    11.491855833    12.175587569   0   0   0 # aoy
   1661     15   2  2.100000     0.805775942    16.145252936     9.436373436   0   0   0 # sty
   1662     15   2  2.100000     0.895224285    10.245756186     9.372174583   0   0   0 # sty
   1663     15   3 -1.050000     0.815246357    16.110332745    10.991445812   0   0   0 # oby
   1664     15   3 -1.050000     1.072972112     9.973014424    11.084183822   0   0   0 # oby
   1665     15   3 -1.050000     0.997301818     8.676129338     8.723039041   0   0   0 # oby
   1666     15   3 -1.050000     2.065547030    15.119137598     9.108240060   0   0   0 # oby
   1667     15   3 -1.050000     2.117447138    10.990637633     8.765839670   0   0   0 # oby
   1668     15   4 -0.950000     2.288987875    10.066297923    13.061008880   0   0   0 # ohy
   1669     15   4 -0.950000     0.686419143    12.754681640    11.062787352   0   0   0 # ohy
   1670     15   4 -0.950000     0.106131812    17.213183109    13.010197176   0   0   0 # ohy
   1671     15   4 -0.950000     0.015199662    11.801373702    13.067257704   0   0   0 # ohy
   1672     15   5  0.425000     2.809828425    10.169175865    13.981220427   0   0   0 # hoy
   1673     15   5  0.425000     1.221774115    13.518404339    10.691847895   0   0   0 # hoy
   1674     16   1  1.575000     3.205948653    17.444765180    26.712987592   0   0   0 # aoy
   1675     16   1  1.575000     3.060041652    11.491855833    26.641648873   0   0   0 # aoy
   1676     16   2  2.100000     2.240951840    16.145252936    23.902434740   0   0   0 # sty
   1677     16   2  2.100000     2.330400183    10.245756186    23.838235887   0   0   0 # sty
   1678     16   3 -1.050000     2.250422255    16.110332745    25.457507116   0   0   0 # oby
   1679     16   3 -1.050000     2.508148010     9.973014424    25.550245126   0   0   0 # oby
   1680     16   3 -1.050000     2.432477716     8.676129338    23.189100345   0   0   0 # oby
   1681     16   3 -1.050000     3.500722928    15.119137598    23.574301364   0   0   0 # oby
   1682     16   3 -1.050000     3.552623036    10.990637633    23.231900974   0   0   0 # oby
   1683     16   4 -0.950000     3.724163773    10.066297923    27.527070184   0   0   0 # ohy
   1684     16   4 -0.950000     2.121595041    12.754681640    25.528848656   0   0   0 # ohy
   1685     16   4 -0.950000     1.541307710    17.213183109    27.476258480   0   0   0 # ohy
   1686     16   4 -0.950000     1.450375560    11.801373702    27.533319008   0   0   0 # ohy
   1687     16   5  0.425000     4.245004323    10.169175865    28.447281731   0   0   0 # hoy
   1688     16   5  0.425000     2.656950013    13.518404339    25.157909199   0   0   0 # hoy
   1689     17   4 -0.950000    25.352731392    12.958246365     5.942685135   0   0   0 # ohy
   1690     17   4 -0.950000    25.224273024    16.334917226     6.042551847   0   0   0 # ohy
   1691     17   5  0.425000    24.840866584    13.474640773     6.798687343   0   0   0 # hoy
   1692     17   5  0.425000    24.882951162    16.262110906     6.870029833   0   0   0 # hoy
   1693     18   4 -0.950000     1.017907290    12.958246365    20.408746439   0   0   0 # ohy
   1694     18   4 -0.950000     0.889448922    16.334917226    20.508613151   0   0   0 # ohy
   1695     18   5  0.425000     0.506042482    13.474640773    21.264748647   0   0   0 # hoy
   1696     18   5  0.425000     0.548127060    16.262110906    21.336091137   0   0   0 # hoy
   1697     19   1  1.575000    11.277490216    13.343781927     5.122348133   0   0   0 # aoy
   1698     19   1  1.575000    11.421985464    16.245578999     4.986814346   0   0   0 # aoy
   1699     19   1  1.575000    13.983226446    17.743220456     5.122352068   0   0   0 # aoy
   1700     19   1  1.575000    13.837319445    11.790311109     5.051013349   0   0   0 # aoy
   1701     19   2  2.100000    10.562181469    12.049119647     2.169132252   0   0   0 # sty
   1702     19   2  2.100000    10.622236368    14.733381140     2.383133191   0   0   0 # sty
   1703     19   2  2.100000    13.018229633    16.443708212     2.311799216   0   0   0 # sty
   1704     19   2  2.100000    13.107677976    10.544211462     2.247600363   0   0   0 # sty
   1705     19   3 -1.050000    10.327646024    11.925730709     3.959606778   0   0   0 # oby
   1706     19   3 -1.050000    10.566081735    14.782326839     3.838339162   0   0   0 # oby
   1707     19   3 -1.050000    10.828891422    13.312157722     1.577058366   0   0   0 # oby
   1708     19   3 -1.050000    11.719351489    10.914018532     1.626993322   0   0   0 # oby
   1709     19   3 -1.050000    11.636394575    15.817837133     1.519999981   0   0   0 # oby
   1710     19   3 -1.050000    13.027700048    16.408788021     3.866871592   0   0   0 # oby
   1711     19   3 -1.050000    13.285425803    10.271469700     3.959609602   0   0   0 # oby
   1712     19   3 -1.050000    13.209755509     8.974584614     1.598464821   0   0   0 # oby
   1713     19   3 -1.050000    14.278000721    15.417592874     1.983665840   0   0   0 # oby
   1714     19   3 -1.050000    14.329900829    11.289092909     1.641265450   0   0   0 # oby
   1715     19   4 -0.950000    10.373635281    17.513236566     3.995280259   0   0   0 # ohy
   1716     19   4 -0.950000    14.501441566    10.364753199     5.936434660   0   0   0 # ohy
   1717     19   4 -0.950000     9.890731392    12.958246365     5.942685135   0   0   0 # ohy
   1718     19   4 -0.950000     9.762273024    16.334917226     6.042551847   0   0   0 # ohy
   1719     19   4 -0.950000    12.898872834    13.053136916     3.938213132   0   0   0 # ohy
   1720     19   4 -0.950000    11.926282934    14.700480611     5.985489803   0   0   0 # ohy
   1721     19   4 -0.950000    12.318585503    17.511638385     5.885622956   0   0   0 # ohy
   1722     19   4 -0.950000    12.227653353    12.099828978     5.942683484   0   0   0 # ohy
   1723     19   5  0.425000    10.970062500    18.444455940     4.223526442   0   0   0 # hoy
   1724     19   5  0.425000    15.022282116    10.467631141     6.856646207   0   0   0 # hoy
   1725     19   5  0.425000     9.378866584    13.474640773     6.798687343   0   0   0 # hoy
   1726     19   5  0.425000     9.420951162    16.262110906     6.870029833   0   0   0 # hoy
   1727     19   5  0.425000    13.434227806    13.816859615     3.567273675   0   0   0 # hoy
   1728     19   5  0.425000    12.188554272    14.552982613     6.905692221   0   0   0 # hoy
   1729     19   5  0.425000    12.040557645    17.548050626     6.919959381   0   0   0 # hoy
   1730     19   5  0.425000    12.120659384    11.409291439     6.791554611   0   0   0 # hoy
   1731     20   1  1.575000     9.373036525    13.045326651    12.246922353   0   0   0 # aoy
   1732     20   1  1.575000     9.517531773    15.947123723    12.111388566   0   0   0 # aoy
   1733     20   1  1.575000    12.078772755    17.444765180    12.246926288   0   0   0 # aoy
   1734     20   1  1.575000    11.932865754    11.491855833    12.175587569   0   0   0 # aoy
   1735     20   2  2.100000     8.657727778    11.750664371     9.293706472   0   0   0 # sty
   1736     20   2  2.100000     8.717782677    14.434925864     9.507707411   0   0   0 # sty
   1737     20   2  2.100000    11.113775942    16.145252936     9.436373436   0   0   0 # sty
   1738     20   2  2.100000    11.203224285    10.245756186     9.372174583   0   0   0 # sty
   1739     20   3 -1.050000     8.423192333    11.627275433    11.084180998   0   0   0 # oby
   1740     20   3 -1.050000     8.661628044    14.483871563    10.962913382   0   0   0 # oby
   1741     20   3 -1.050000     8.924437731    13.013702446     8.701632586   0   0   0 # oby
   1742     20   3 -1.050000     9.814897798    10.615563256     8.751567542   0   0   0 # oby
   1743     20   3 -1.050000     9.731940884    15.519381857     8.644574201   0   0   0 # oby
   1744     20   3 -1.050000    11.123246357    16.110332745    10.991445812   0   0   0 # oby
   1745     20   3 -1.050000    11.380972112     9.973014424    11.084183822   0   0   0 # oby
   1746     20   3 -1.050000    11.305301818     8.676129338     8.723039041   0   0   0 # oby
   1747     20   3 -1.050000    12.373547030    15.119137598     9.108240060   0   0   0 # oby
   1748     20   3 -1.050000    12.425447138    10.990637633     8.765839670   0   0   0 # oby
   1749     20   4 -0.950000     8.469181590    17.214781290    11.119854479   0   0   0 # ohy
   1750     20   4 -0.950000    12.596987875    10.066297923    13.061008880   0   0   0 # ohy
   1751     20   4 -0.950000     7.986277701    12.659791089    13.067259355   0   0   0 # ohy
   1752     20   4 -0.950000     7.857819333    16.036461950    13.167126067   0   0   0 # ohy
   1753     20   4 -0.950000    10.994419143    12.754681640    11.062787352   0   0   0 # ohy
   1754     20   4 -0.950000    10.021829243    14.402025335    13.110064023   0   0   0 # ohy
   1755     20   4 -0.950000    10.414131812    17.213183109    13.010197176   0   0   0 # ohy
   1756     20   4 -0.950000    10.323199662    11.801373702    13.067257704   0   0   0 # ohy
   1757     20   5  0.425000     9.065608809    18.146000664    11.348100662   0   0   0 # hoy
   1758     20   5  0.425000    13.117828425    10.169175865    13.981220427   0   0   0 # hoy
   1759     20   5  0.425000     7.474412893    13.176185497    13.923261563   0   0   0 # hoy
   1760     20   5  0.425000     7.516497471    15.963655630    13.994604053   0   0   0 # hoy
   1761     20   5  0.425000    11.529774115    13.518404339    10.691847895   0   0   0 # hoy
   1762     20   5  0.425000    10.284100581    14.254527337    14.030266441   0   0   0 # hoy
   1763     20   5  0.425000    10.136103954    17.249595350    14.044533601   0   0   0 # hoy
   1764     20   5  0.425000    10.216205693    11.110836163    13.916128831   0   0   0 # hoy
   1765     21   1  1.575000    12.712666114    13.343781927    19.588409437   0   0   0 # aoy
   1766     21   1  1.575000    12.857161362    16.245578999    19.452875650   0   0   0 # aoy
   1767     21   1  1.575000    15.418402344    17.743220456    19.588413372   0   0   0 # aoy
   1768     21   1  1.575000    15.272495343    11.790311109    19.517074653   0   0   0 # aoy
   1769     21   2  2.100000    11.997357367    12.049119647    16.635193556   0   0   0 # sty
   1770     21   2  2.100000    12.057412266    14.733381140    16.849194495   0   0   0 # sty
   1771     21   2  2.100000    14.453405531    16.443708212    16.777860520   0   0   0 # sty
   1772     21   2  2.100000    14.542853874    10.544211462    16.713661667   0   0   0 # sty
   1773     21   3 -1.050000    11.762821922    11.925730709    18.425668082   0   0   0 # oby
   1774     21   3 -1.050000    12.001257633    14.782326839    18.304400466   0   0   0 # oby
   1775     21   3 -1.050000    12.264067320    13.312157722    16.043119670   0   0   0 # oby
   1776     21   3 -1.050000    13.154527387    10.914018532    16.093054626   0   0   0 # oby
   1777     21   3 -1.050000    13.071570473    15.817837133    15.986061285   0   0   0 # oby
   1778     21   3 -1.050000    14.462875946    16.408788021    18.332932896   0   0   0 # oby
   1779     21   3 -1.050000    14.720601701    10.271469700    18.425670906   0   0   0 # oby
   1780     21   3 -1.050000    14.644931407     8.974584614    16.064526125   0   0   0 # oby
   1781     21   3 -1.050000    15.713176619    15.417592874    16.449727144   0   0   0 # oby
   1782     21   3 -1.050000    15.765076727    11.289092909    16.107326754   0   0   0 # oby
   1783     21   4 -0.950000    11.808811179    17.513236566    18.461341563   0   0   0 # ohy
   1784     21   4 -0.950000    15.936617464    10.364753199    20.402495964   0   0   0 # ohy
   1785     21   4 -0.950000    11.325907290    12.958246365    20.408746439   0   0   0 # ohy
   1786     21   4 -0.950000    11.197448922    16.334917226    20.508613151   0   0   0 # ohy
   1787     21   4 -0.950000    14.334048732    13.053136916    18.404274436   0   0   0 # ohy
   1788     21   4 -0.950000    13.361458832    14.700480611    20.451551107   0   0   0 # ohy
   1789     21   4 -0.950000    13.753761401    17.511638385    20.351684260   0   0   0 # ohy
   1790     21   4 -0.950000    13.662829251    12.099828978    20.408744788   0   0   0 # ohy
   1791     21   5  0.425000    12.405238398    18.444455940    18.689587746   0   0   0 # hoy
   1792     21   5  0.425000    16.457458014    10.467631141    21.322707511   0   0   0 # hoy
   1793     21   5  0.425000    10.814042482    13.474640773    21.264748647   0   0   0 # hoy
   1794     21   5  0.425000    10.856127060    16.262110906    21.336091137   0   0   0 # hoy
   1795     21   5  0.425000    14.869403704    13.816859615    18.033334979   0   0   0 # hoy
   1796     21   5  0.425000    13.623730170    14.552982613    21.371753525   0   0   0 # hoy
   1797     21   5  0.425000    13.475733543    17.548050626    21.386020685   0   0   0 # hoy
   1798     21   5  0.425000    13.555835282    11.409291439    21.257615915   0   0   0 # hoy
   1799     22   1  1.575000    10.808212423    13.045326651    26.712983657   0   0   0 # aoy
   1800     22   1  1.575000    10.952707671    15.947123723    26.577449870   0   0   0 # aoy
   1801     22   1  1.575000    13.513948653    17.444765180    26.712987592   0   0   0 # aoy
   1802     22   1  1.575000    13.368041652    11.491855833    26.641648873   0   0   0 # aoy
   1803     22   2  2.100000    10.092903676    11.750664371    23.759767776   0   0   0 # sty
   1804     22   2  2.100000    10.152958575    14.434925864    23.973768715   0   0   0 # sty
   1805     22   2  2.100000    12.548951840    16.145252936    23.902434740   0   0   0 # sty
   1806     22   2  2.100000    12.638400183    10.245756186    23.838235887   0   0   0 # sty
   1807     22   3 -1.050000     9.858368231    11.627275433    25.550242302   0   0   0 # oby
   1808     22   3 -1.050000    10.096803942    14.483871563    25.428974686   0   0   0 # oby
   1809     22   3 -1.050000    10.359613629    13.013702446    23.167693890   0   0   0 # oby
   1810     22   3 -1.050000    11.250073696    10.615563256    23.217628846   0   0   0 # oby
   1811     22   3 -1.050000    11.167116782    15.519381857    23.110635505   0   0   0 # oby
   1812     22   3 -1.050000    12.558422255    16.110332745    25.457507116   0   0   0 # oby
   1813     22   3 -1.050000    12.816148010     9.973014424    25.550245126   0   0   0 # oby
   1814     22   3 -1.050000    12.740477716     8.676129338    23.189100345   0   0   0 # oby
   1815     22   3 -1.050000    13.808722928    15.119137598    23.574301364   0   0   0 # oby
   1816     22   3 -1.050000    13.860623036    10.990637633    23.231900974   0   0   0 # oby
   1817     22   4 -0.950000     9.904357488    17.214781290    25.585915783   0   0   0 # ohy
   1818     22   4 -0.950000    14.032163773    10.066297923    27.527070184   0   0   0 # ohy
   1819     22   4 -0.950000     9.421453599    12.659791089    27.533320659   0   0   0 # ohy
   1820     22   4 -0.950000     9.292995231    16.036461950    27.633187371   0   0   0 # ohy
   1821     22   4 -0.950000    12.429595041    12.754681640    25.528848656   0   0   0 # ohy
   1822     22   4 -0.950000    11.457005141    14.402025335    27.576125327   0   0   0 # ohy
   1823     22   4 -0.950000    11.849307710    17.213183109    27.476258480   0   0   0 # ohy
   1824     22   4 -0.950000    11.758375560    11.801373702    27.533319008   0   0   0 # ohy
   1825     22   5  0.425000    10.500784707    18.146000664    25.814161966   0   0   0 # hoy
   1826     22   5  0.425000    14.553004323    10.169175865    28.447281731   0   0   0 # hoy
   1827     22   5  0.425000     8.909588791    13.176185497    28.389322867   0   0   0 # hoy
   1828     22   5  0.425000     8.951673369    15.963655630    28.460665357   0   0   0 # hoy
   1829     22   5  0.425000    12.964950013    13.518404339    25.157909199   0   0   0 # hoy
   1830     22   5  0.425000    11.719276479    14.254527337    28.496327745   0   0   0 # hoy
   1831     22   5  0.425000    11.571279852    17.249595350    28.510594905   0   0   0 # hoy
   1832     22   5  0.425000    11.651381591    11.110836163    28.382190135   0   0   0 # hoy
   1833     23   1  1.575000    16.431490216    13.343781927     5.122348133   0   0   0 # aoy
   1834     23   1  1.575000    16.575985464    16.245578999     4.986814346   0   0   0 # aoy
   1835     23   1  1.575000    19.137226446    17.743220456     5.122352068   0   0   0 # aoy
   1836     23   1  1.575000    18.991319445    11.790311109     5.051013349   0   0   0 # aoy
   1837     23   2  2.100000    15.716181469    12.049119647     2.169132252   0   0   0 # sty
   1838     23   2  2.100000    15.776236368    14.733381140     2.383133191   0   0   0 # sty
   1839     23   2  2.100000    18.172229633    16.443708212     2.311799216   0   0   0 # sty
   1840     23   2  2.100000    18.261677976    10.544211462     2.247600363   0   0   0 # sty
   1841     23   3 -1.050000    15.481646024    11.925730709     3.959606778   0   0   0 # oby
   1842     23   3 -1.050000    15.720081735    14.782326839     3.838339162   0   0   0 # oby
   1843     23   3 -1.050000    15.982891422    13.312157722     1.577058366   0   0   0 # oby
   1844     23   3 -1.050000    16.873351489    10.914018532     1.626993322   0   0   0 # oby
   1845     23   3 -1.050000    16.790394575    15.817837133     1.519999981   0   0   0 # oby
   1846     23   3 -1.050000    18.181700048    16.408788021     3.866871592   0   0   0 # oby
   1847     23   3 -1.050000    18.439425803    10.271469700     3.959609602   0   0   0 # oby
   1848     23   3 -1.050000    18.363755509     8.974584614     1.598464821   0   0   0 # oby
   1849     23   3 -1.050000    19.432000721    15.417592874     1.983665840   0   0   0 # oby
   1850     23   3 -1.050000    19.483900829    11.289092909     1.641265450   0   0   0 # oby
   1851     23   4 -0.950000    15.527635281    17.513236566     3.995280259   0   0   0 # ohy
   1852     23   4 -0.950000    19.655441566    10.364753199     5.936434660   0   0   0 # ohy
   1853     23   4 -0.950000    15.044731392    12.958246365     5.942685135   0   0   0 # ohy
   1854     23   4 -0.950000    14.916273024    16.334917226     6.042551847   0   0   0 # ohy
   1855     23   4 -0.950000    18.052872834    13.053136916     3.938213132   0   0   0 # ohy
   1856     23   4 -0.950000    17.080282934    14.700480611     5.985489803   0   0   0 # ohy
   1857     23   4 -0.950000    17.472585503    17.511638385     5.885622956   0   0   0 # ohy
   1858     23   4 -0.950000    17.381653353    12.099828978     5.942683484   0   0   0 # ohy
   1859     23   5  0.425000    16.124062500    18.444455940     4.223526442   0   0   0 # hoy
   1860     23   5  0.425000    20.176282116    10.467631141     6.856646207   0   0   0 # hoy
   1861     23   5  0.425000    14.532866584    13.474640773     6.798687343   0   0   0 # hoy
   1862     23   5  0.425000    14.574951162    16.262110906     6.870029833   0   0   0 # hoy
   1863     23   5  0.425000    18.588227806    13.816859615     3.567273675   0   0   0 # hoy
   1864     23   5  0.425000    17.342554272    14.552982613     6.905692221   0   0   0 # hoy
   1865     23   5  0.425000    17.194557645    17.548050626     6.919959381   0   0   0 # hoy
   1866     23   5  0.425000    17.274659384    11.409291439     6.791554611   0   0   0 # hoy
   1867     24   1  1.575000    14.527036525    13.045326651    12.246922353   0   0   0 # aoy
   1868     24   1  1.575000    14.671531773    15.947123723    12.111388566   0   0   0 # aoy
   1869     24   1  1.575000    17.232772755    17.444765180    12.246926288   0   0   0 # aoy
   1870     24   1  1.575000    17.086865754    11.491855833    12.175587569   0   0   0 # aoy
   1871     24   2  2.100000    13.811727778    11.750664371     9.293706472   0   0   0 # sty
   1872     24   2  2.100000    13.871782677    14.434925864     9.507707411   0   0   0 # sty
   1873     24   2  2.100000    16.267775942    16.145252936     9.436373436   0   0   0 # sty
   1874     24   2  2.100000    16.357224285    10.245756186     9.372174583   0   0   0 # sty
   1875     24   3 -1.050000    13.577192333    11.627275433    11.084180998   0   0   0 # oby
   1876     24   3 -1.050000    13.815628044    14.483871563    10.962913382   0   0   0 # oby
   1877     24   3 -1.050000    14.078437731    13.013702446     8.701632586   0   0   0 # oby
   1878     24   3 -1.050000    14.968897798    10.615563256     8.751567542   0   0   0 # oby
   1879     24   3 -1.050000    14.885940884    15.519381857     8.644574201   0   0   0 # oby
   1880     24   3 -1.050000    16.277246357    16.110332745    10.991445812   0   0   0 # oby
   1881     24   3 -1.050000    16.534972112     9.973014424    11.084183822   0   0   0 # oby
   1882     24   3 -1.050000    16.459301818     8.676129338     8.723039041   0   0   0 # oby
   1883     24   3 -1.050000    17.527547030    15.119137598     9.108240060   0   0   0 # oby
   1884     24   3 -1.050000    17.579447138    10.990637633     8.765839670   0   0   0 # oby
   1885     24   4 -0.950000    13.623181590    17.214781290    11.119854479   0   0   0 # ohy
   1886     24   4 -0.950000    17.750987875    10.066297923    13.061008880   0   0   0 # ohy
   1887     24   4 -0.950000    13.140277701    12.659791089    13.067259355   0   0   0 # ohy
   1888     24   4 -0.950000    13.011819333    16.036461950    13.167126067   0   0   0 # ohy
   1889     24   4 -0.950000    16.148419143    12.754681640    11.062787352   0   0   0 # ohy
   1890     24   4 -0.950000    15.175829243    14.402025335    13.110064023   0   0   0 # ohy
   1891     24   4 -0.950000    15.568131812    17.213183109    13.010197176   0   0   0 # ohy
   1892     24   4 -0.950000    15.477199662    11.801373702    13.067257704   0   0   0 # ohy
   1893     24   5  0.425000    14.219608809    18.146000664    11.348100662   0   0   0 # hoy
   1894     24   5  0.425000    18.271828425    10.169175865    13.981220427   0   0   0 # hoy
   1895     24   5  0.425000    12.628412893    13.176185497    13.923261563   0   0   0 # hoy
   1896     24   5  0.425000    12.670497471    15.963655630    13.994604053   0   0   0 # hoy
   1897     24   5  0.425000    16.683774115    13.518404339    10.691847895   0   0   0 # hoy
   1898     24   5  0.425000    15.438100581    14.254527337    14.030266441   0   0   0 # hoy
   1899     24   5  0.425000    15.290103954    17.249595350    14.044533601   0   0   0 # hoy
   1900     24   5  0.425000    15.370205693    11.110836163    13.916128831   0   0   0 # hoy
   1901     25   1  1.575000    17.866666114    13.343781927    19.588409437   0   0   0 # aoy
   1902     25   1  1.575000    18.011161362    16.245578999    19.452875650   0   0   0 # aoy
   1903     25   1  1.575000    20.572402344    17.743220456    19.588413372   0   0   0 # aoy
   1904     25   1  1.575000    20.426495343    11.790311109    19.517074653   0   0   0 # aoy
   1905     25   2  2.100000    17.151357367    12.049119647    16.635193556   0   0   0 # sty
   1906     25   2  2.100000    17.211412266    14.733381140    16.849194495   0   0   0 # sty
   1907     25   2  2.100000    19.607405531    16.443708212    16.777860520   0   0   0 # sty
   1908     25   2  2.100000    19.696853874    10.544211462    16.713661667   0   0   0 # sty
   1909     25   3 -1.050000    16.916821922    11.925730709    18.425668082   0   0   0 # oby
   1910     25   3 -1.050000    17.155257633    14.782326839    18.304400466   0   0   0 # oby
   1911     25   3 -1.050000    17.418067320    13.312157722    16.043119670   0   0   0 # oby
   1912     25   3 -1.050000    18.308527387    10.914018532    16.093054626   0   0   0 # oby
   1913     25   3 -1.050000    18.225570473    15.817837133    15.986061285   0   0   0 # oby
   1914     25   3 -1.050000    19.616875946    16.408788021    18.332932896   0   0   0 # oby
   1915     25   3 -1.050000    19.874601701    10.271469700    18.425670906   0   0   0 # oby
   1916     25   3 -1.050000    19.798931407     8.974584614    16.064526125   0   0   0 # oby
   1917     25   3 -1.050000    20.867176619    15.417592874    16.449727144   0   0   0 # oby
   1918     25   3 -1.050000    20.919076727    11.289092909    16.107326754   0   0   0 # oby
   1919     25   4 -0.950000    16.962811179    17.513236566    18.461341563   0   0   0 # ohy
   1920     25   4 -0.950000    21.090617464    10.364753199    20.402495964   0   0   0 # ohy
   1921     25   4 -0.950000    16.479907290    12.958246365    20.408746439   0   0   0 # ohy
   1922     25   4 -0.950000    16.351448922    16.334917226    20.508613151   0   0   0 # ohy
   1923     25   4 -0.950000    19.488048732    13.053136916    18.404274436   0   0   0 # ohy
   1924     25   4 -0.950000    18.515458832    14.700480611    20.451551107   0   0   0 # ohy
   1925     25   4 -0.950000    18.907761401    17.511638385    20.351684260   0   0   0 # ohy
   1926     25   4 -0.950000    18.816829251    12.099828978    20.408744788   0   0   0 # ohy
   1927     25   5  0.425000    17.559238398    18.444455940    18.689587746   0   0   0 # hoy
   1928     25   5  0.425000    21.611458014    10.467631141    21.322707511   0   0   0 # hoy
   1929     25   5  0.425000    15.968042482    13.474640773    21.264748647   0   0   0 # hoy
   1930     25   5  0.425000    16.010127060    16.262110906    21.336091137   0   0   0 # hoy
   1931     25   5  0.425000    20.023403704    13.816859615    18.033334979   0   0   0 # hoy
   1932     25   5  0.425000    18.777730170    14.552982613    21.371753525   0   0   0 # hoy
   1933     25   5  0.425000    18.629733543    17.548050626    21.386020685   0   0   0 # hoy
   1934     25   5  0.425000    18.709835282    11.409291439    21.257615915   0   0   0 # hoy
   1935     26   1  1.575000    15.962212423    13.045326651    26.712983657   0   0   0 # aoy
   1936     26   1  1.575000    16.106707671    15.947123723    26.577449870   0   0   0 # aoy
   1937     26   1  1.575000    18.667948653    17.444765180    26.712987592   0   0   0 # aoy
   1938     26   1  1.575000    18.522041652    11.491855833    26.641648873   0   0   0 # aoy
   1939     26   2  2.100000    15.246903676    11.750664371    23.759767776   0   0   0 # sty
   1940     26   2  2.100000    15.306958575    14.434925864    23.973768715   0   0   0 # sty
   1941     26   2  2.100000    17.702951840    16.145252936    23.902434740   0   0   0 # sty
   1942     26   2  2.100000    17.792400183    10.245756186    23.838235887   0   0   0 # sty
   1943     26   3 -1.050000    15.012368231    11.627275433    25.550242302   0   0   0 # oby
   1944     26   3 -1.050000    15.250803942    14.483871563    25.428974686   0   0   0 # oby
   1945     26   3 -1.050000    15.513613629    13.013702446    23.167693890   0   0   0 # oby
   1946     26   3 -1.050000    16.404073696    10.615563256    23.217628846   0   0   0 # oby
   1947     26   3 -1.050000    16.321116782    15.519381857    23.110635505   0   0   0 # oby
   1948     26   3 -1.050000    17.712422255    16.110332745    25.457507116   0   0   0 # oby
   1949     26   3 -1.050000    17.970148010     9.973014424    25.550245126   0   0   0 # oby
   1950     26   3 -1.050000    17.894477716     8.676129338    23.189100345   0   0   0 # oby
   1951     26   3 -1.050000    18.962722928    15.119137598    23.574301364   0   0   0 # oby
   1952     26   3 -1.050000    19.014623036    10.990637633    23.231900974   0   0   0 # oby
   1953     26   4 -0.950000    15.058357488    17.214781290    25.585915783   0   0   0 # ohy
   1954     26   4 -0.950000    19.186163773    10.066297923    27.527070184   0   0   0 # ohy
   1955     26   4 -0.950000    14.575453599    12.659791089    27.533320659   0   0   0 # ohy
   1956     26   4 -0.950000    14.446995231    16.036461950    27.633187371   0   0   0 # ohy
   1957     26   4 -0.950000    17.583595041    12.754681640    25.528848656   0   0   0 # ohy
   1958     26   4 -0.950000    16.611005141    14.402025335    27.576125327   0   0   0 # ohy
   1959     26   4 -0.950000    17.003307710    17.213183109    27.476258480   0   0   0 # ohy
   1960     26   4 -0.950000    16.912375560    11.801373702    27.533319008   0   0   0 # ohy
   1961     26   5  0.425000    15.654784707    18.146000664    25.814161966   0   0   0 # hoy
   1962     26   5  0.425000    19.707004323    10.169175865    28.447281731   0   0   0 # hoy
   1963     26   5  0.425000    14.063588791    13.176185497    28.389322867   0   0   0 # hoy
   1964     26   5  0.425000    14.105673369    15.963655630    28.460665357   0   0   0 # hoy
   1965     26   5  0.425000    18.118950013    13.518404339    25.157909199   0   0   0 # hoy
   1966     26   5  0.425000    16.873276479    14.254527337    28.496327745   0   0   0 # hoy
   1967     26   5  0.425000    16.725279852    17.249595350    28.510594905   0   0   0 # hoy
   1968     26   5  0.425000    16.805381591    11.110836163    28.382190135   0   0   0 # hoy
   1969     27   1  1.575000    23.020666114    13.343781927    19.588409437   0   0   0 # aoy
   1970     27   1  1.575000    23.165161362    16.245578999    19.452875650   0   0   0 # aoy
   1971     27   1  1.575000    25.726402344    17.743220456    19.588413372   0   0   0 # aoy
   1972     27   1  1.575000    25.580495343    11.790311109    19.517074653   0   0   0 # aoy
   1973     27   2  2.100000    22.305357367    12.049119647    16.635193556   0   0   0 # sty
   1974     27   2  2.100000    22.365412266    14.733381140    16.849194495   0   0   0 # sty
   1975     27   2  2.100000    24.761405531    16.443708212    16.777860520   0   0   0 # sty
   1976     27   2  2.100000    24.850853874    10.544211462    16.713661667   0   0   0 # sty
   1977     27   3 -1.050000    22.070821922    11.925730709    18.425668082   0   0   0 # oby
   1978     27   3 -1.050000    22.309257633    14.782326839    18.304400466   0   0   0 # oby
   1979     27   3 -1.050000    22.572067320    13.312157722    16.043119670   0   0   0 # oby
   1980     27   3 -1.050000    23.462527387    10.914018532    16.093054626   0   0   0 # oby
   1981     27   3 -1.050000    23.379570473    15.817837133    15.986061285   0   0   0 # oby
   1982     27   3 -1.050000    24.770875946    16.408788021    18.332932896   0   0   0 # oby
   1983     27   3 -1.050000    25.028601701    10.271469700    18.425670906   0   0   0 # oby
   1984     27   3 -1.050000    24.952931407     8.974584614    16.064526125   0   0   0 # oby
   1985     27   4 -0.950000    22.116811179    17.513236566    18.461341563   0   0   0 # ohy
   1986     27   4 -0.950000    21.633907290    12.958246365    20.408746439   0   0   0 # ohy
   1987     27   4 -0.950000    21.505448922    16.334917226    20.508613151   0   0   0 # ohy
   1988     27   4 -0.950000    24.642048732    13.053136916    18.404274436   0   0   0 # ohy
   1989     27   4 -0.950000    23.669458832    14.700480611    20.451551107   0   0   0 # ohy
   1990     27   4 -0.950000    24.061761401    17.511638385    20.351684260   0   0   0 # ohy
   1991     27   4 -0.950000    23.970829251    12.099828978    20.408744788   0   0   0 # ohy
   1992     27   5  0.425000    22.713238398    18.444455940    18.689587746   0   0   0 # hoy
   1993     27   5  0.425000    21.122042482    13.474640773    21.264748647   0   0   0 # hoy
   1994     27   5  0.425000    21.164127060    16.262110906    21.336091137   0   0   0 # hoy
   1995     27   5  0.425000    25.177403704    13.816859615    18.033334979   0   0   0 # hoy
   1996     27   5  0.425000    23.931730170    14.552982613    21.371753525   0   0   0 # hoy
   1997     27   5  0.425000    23.783733543    17.548050626    21.386020685   0   0   0 # hoy
   1998     27   5  0.425000    23.863835282    11.409291439    21.257615915   0   0   0 # hoy
   1999     28   3 -1.050000     0.251176619    15.417592874    16.449727144   0   0   0 # oby
   2000     28   3 -1.050000     0.303076727    11.289092909    16.107326754   0   0   0 # oby
   2001     29   4 -0.950000    24.778228161     1.422807677     5.936434660   0   0   0 # ohy
   2002     29   5  0.425000    25.299068711     1.525685619     6.856646207   0   0   0 # hoy
   2003     30   4 -0.950000     0.443404059     1.422807677    20.402495964   0   0   0 # ohy
   2004     30   5  0.425000     0.964244609     1.525685619    21.322707511   0   0   0 # hoy
   2005     31   4 -0.950000    24.308950368     1.124352401    27.527070184   0   0   0 # ohy
   2006     31   5  0.425000    24.829790918     1.227230343    28.447281731   0   0   0 # hoy
   2007     32   4 -0.950000    24.809441566    10.364753199     5.936434660   0   0   0 # ohy
   2008     32   5  0.425000    25.330282116    10.467631141     6.856646207   0   0   0 # hoy
   2009     33   4 -0.950000     0.474617464    10.364753199    20.402495964   0   0   0 # ohy
   2010     33   5  0.425000     0.995458014    10.467631141    21.322707511   0   0   0 # hoy
   2011     34   4 -0.950000    24.340163773    10.066297923    27.527070184   0   0   0 # ohy
   2012     34   5  0.425000    24.861004323    10.169175865    28.447281731   0   0   0 # hoy
   2013     35   4 -0.950000    24.840654971    19.306698722     5.936434660   0   0   0 # ohy
   2014     35   5  0.425000    25.361495521    19.409576664     6.856646207   0   0   0 # hoy
   2015     36   4 -0.950000    22.936201280    19.008243446    13.061008880   0   0   0 # ohy
   2016     36   5  0.425000    23.457041830    19.111121388    13.981220427   0   0   0 # hoy
   2017     37   4 -0.950000     0.505830869    19.306698722    20.402495964   0   0   0 # ohy
   2018     37   5  0.425000     1.026671419    19.409576664    21.322707511   0   0   0 # hoy
   2019     38   4 -0.950000    24.371377178    19.008243446    27.527070184   0   0   0 # ohy
   2020     38   5  0.425000    24.892217728    19.111121388    28.447281731   0   0   0 # hoy
   2021     39   5  0.425000     0.599635690     0.560564896     4.223526442   0   0   0 # hoy
   2022     40   5  0.425000    24.465181999     0.262109620    11.348100662   0   0   0 # hoy
   2023     41   5  0.425000     2.034811588     0.560564896    18.689587746   0   0   0 # hoy
   2024     42   5  0.425000     0.130357897     0.262109620    25.814161966   0   0   0 # hoy
   2025     43   5  0.425000     5.753635690     0.560564896     4.223526442   0   0   0 # hoy
   2026     44   5  0.425000     3.849181999     0.262109620    11.348100662   0   0   0 # hoy
   2027     45   5  0.425000     7.188811588     0.560564896    18.689587746   0   0   0 # hoy
   2028     46   5  0.425000     5.284357897     0.262109620    25.814161966   0   0   0 # hoy
   2029     47   5  0.425000    10.907635690     0.560564896     4.223526442   0   0   0 # hoy
   2030     48   5  0.425000     9.003181999     0.262109620    11.348100662   0   0   0 # hoy
   2031     49   5  0.425000    12.342811588     0.560564896    18.689587746   0   0   0 # hoy
   2032     50   5  0.425000    10.438357897     0.262109620    25.814161966   0   0   0 # hoy
   2033     51   5  0.425000    16.061635690     0.560564896     4.223526442   0   0   0 # hoy
   2034     52   5  0.425000    14.157181999     0.262109620    11.348100662   0   0   0 # hoy
   2035     53   5  0.425000    17.496811588     0.560564896    18.689587746   0   0   0 # hoy
   2036     54   5  0.425000    15.592357897     0.262109620    25.814161966   0   0   0 # hoy
   2037     55   5  0.425000    21.215635690     0.560564896     4.223526442   0   0   0 # hoy
   2038     56   5  0.425000    19.311181999     0.262109620    11.348100662   0   0   0 # hoy
   2039     57   5  0.425000    22.650811588     0.560564896    18.689587746   0   0   0 # hoy
   2040     58   5  0.425000    20.746357897     0.262109620    25.814161966   0   0   0 # hoy

Bonds

     1   1     18     24
     2   1     19     25
     3   1     20     26
     4   1     21     27
     5   1     22     28
     6   1     23     29
     7   1     39     44
     8   1     40     45
     9   1     41     46
    10   1     42     47
    11   1     43     49
    12   1    109     48
    13   1     67     73
    14   1     68     74
    15   1     69     75
    16   1     70     76
    17   1     71     77
    18   1     72     78
    19   1     88     93
    20   1     89     94
    21   1     90     95
    22   1     91     96
    23   1     92     98
    24   1    122     97
    25   1    107    110
    26   1    108    111
    27   1    120    123
    28   1    121    124
    29   1    126    128
    30   1    127    129
    31   1    131    133
    32   1    132    134
    33   1    153    161
    34   1    154    162
    35   1    155    163
    36   1    156    164
    37   1    157    165
    38   1    158    166
    39   1    159    167
    40   1    160    168
    41   1    186    194
    42   1    187    195
    43   1    188    196
    44   1    189    197
    45   1    190    198
    46   1    191    199
    47   1    192    200
    48   1    193    201
    49   1    220    228
    50   1    221    229
    51   1    222    230
    52   1    223    231
    53   1    224    232
    54   1    225    233
    55   1    226    234
    56   1    227    235
    57   1    253    261
    58   1    254    262
    59   1    255    263
    60   1    256    264
    61   1    257    265
    62   1    258    266
    63   1    259    267
    64   1    260    268
    65   1    287    295
    66   1    288    296
    67   1    289    297
    68   1    290    298
    69   1    291    299
    70   1    292    300
    71   1    293    301
    72   1    294    302
    73   1    320    328
    74   1    321    329
    75   1    322    330
    76   1    323    331
    77   1    324    332
    78   1    325    333
    79   1    326    334
    80   1    327    335
    81   1    354    362
    82   1    355    363
    83   1    356    364
    84   1    357    365
    85   1    358    366
    86   1    359    367
    87   1    360    368
    88   1    361    369
    89   1    387    395
    90   1    388    396
    91   1    389    397
    92   1    390    398
    93   1    391    399
    94   1    392    400
    95   1    393    401
    96   1    394    402
    97   1    421    429
    98   1    422    430
    99   1    423    431
   100   1    424    432
   101   1    425    433
   102   1    426    434
   103   1    427    435
   104   1    428    436
   105   1    454    462
   106   1    455    463
   107   1    456    464
   108   1    457    465
   109   1    458    466
   110   1    459    467
   111   1    460    468
   112   1    461    469
   113   1    488    496
   114   1    489    497
   115   1    490    498
   116   1    491    499
   117   1    492    500
   118   1    493    501
   119   1    494    502
   120   1    495    503
   121   1    521    529
   122   1    522    530
   123   1    523    531
   124   1    524    532
   125   1    525    533
   126   1    526    534
   127   1    527    535
   128   1    528    536
   129   1    555    562
   130   1    556    563
   131   1    557    564
   132   1    558    565
   133   1    559    566
   134   1    560    567
   135   1    561    568
   136   1    586    593
   137   1    587    594
   138   1    588    595
   139   1    589    596
   140   1    590    597
   141   1    591    598
   142   1    592    599
   143   1    618    625
   144   1    619    626
   145   1    620    627
   146   1    621    628
   147   1    622    629
   148   1    623    630
   149   1    624    631
   150   1    649    656
   151   1    650    657
   152   1    651    658
   153   1    652    659
   154   1    653    660
   155   1    654    661
   156   1    655    662
   157   1    681    687
   158   1    682    688
   159   1    683    689
   160   1    684    690
   161   1    685    691
   162   1    686    692
   163   1    711    717
   164   1    712    718
   165   1    713    719
   166   1    714    720
   167   1    715    721
   168   1    716    722
   169   1    741    749
   170   1    742    750
   171   1    743    751
   172   1    744    752
   173   1    745    753
   174   1    746    754
   175   1    747    755
   176   1    748    756
   177   1    775    783
   178   1    776    784
   179   1    777    785
   180   1    778    786
   181   1    779    787
   182   1    780    788
   183   1    781    789
   184   1    782    790
   185   1    809    817
   186   1    810    818
   187   1    811    819
   188   1    812    820
   189   1    813    821
   190   1    814    822
   191   1    815    823
   192   1    816    824
   193   1    843    851
   194   1    844    852
   195   1    845    853
   196   1    846    854
   197   1    847    855
   198   1    848    856
   199   1    849    857
   200   1    850    858
   201   1    877    884
   202   1    878    885
   203   1    879    886
   204   1    880    887
   205   1    881    888
   206   1    882    889
   207   1    883    890
   208   1    909    916
   209   1    910    917
   210   1    911    918
   211   1    912    919
   212   1    913    920
   213   1    914    921
   214   1    915    922
   215   1    941    948
   216   1    942    949
   217   1    943    950
   218   1    944    951
   219   1    945    952
   220   1    946    953
   221   1    947    954
   222   1    973   2021
   223   1    974    979
   224   1    975    980
   225   1    976    981
   226   1    977    982
   227   1    978    983
   228   1    993   2022
   229   1    994    997
   230   1    995    998
   231   1    996   1062
   232   1   1058    999
   233   1   1059   1000
   234   1   1019   2023
   235   1   1020   1025
   236   1   1021   1026
   237   1   1022   1027
   238   1   1023   1028
   239   1   1024   1029
   240   1   1039   2024
   241   1   1040   1043
   242   1   1041   1044
   243   1   1042   1078
   244   1   1074   1045
   245   1   1075   1046
   246   1   1056   1060
   247   1   1057   1061
   248   1   1072   1076
   249   1   1073   1077
   250   1   1079   1081
   251   1   1080   1082
   252   1   1083   1085
   253   1   1084   1086
   254   1   1105   2025
   255   1   1106   1113
   256   1   1107   1114
   257   1   1108   1115
   258   1   1109   1116
   259   1   1110   1117
   260   1   1111   1118
   261   1   1112   1119
   262   1   1138   2026
   263   1   1139   1146
   264   1   1140   1147
   265   1   1141   1148
   266   1   1142   1149
   267   1   1143   1150
   268   1   1144   1151
   269   1   1145   1152
   270   1   1171   2027
   271   1   1172   1179
   272   1   1173   1180
   273   1   1174   1181
   274   1   1175   1182
   275   1   1176   1183
   276   1   1177   1184
   277   1   1178   1185
   278   1   1204   2028
   279   1   1205   1212
   280   1   1206   1213
   281   1   1207   1214
   282   1   1208   1215
   283   1   1209   1216
   284   1   1210   1217
   285   1   1211   1218
   286   1   1237   2029
   287   1   1238   1245
   288   1   1239   1246
   289   1   1240   1247
   290   1   1241   1248
   291   1   1242   1249
   292   1   1243   1250
   293   1   1244   1251
   294   1   1270   2030
   295   1   1271   1278
   296   1   1272   1279
   297   1   1273   1280
   298   1   1274   1281
   299   1   1275   1282
   300   1   1276   1283
   301   1   1277   1284
   302   1   1303   2031
   303   1   1304   1311
   304   1   1305   1312
   305   1   1306   1313
   306   1   1307   1314
   307   1   1308   1315
   308   1   1309   1316
   309   1   1310   1317
   310   1   1336   2032
   311   1   1337   1344
   312   1   1338   1345
   313   1   1339   1346
   314   1   1340   1347
   315   1   1341   1348
   316   1   1342   1349
   317   1   1343   1350
   318   1   1369   2033
   319   1   1370   1377
   320   1   1371   1378
   321   1   1372   1379
   322   1   1373   1380
   323   1   1374   1381
   324   1   1375   1382
   325   1   1376   1383
   326   1   1402   2034
   327   1   1403   1410
   328   1   1404   1411
   329   1   1405   1412
   330   1   1406   1413
   331   1   1407   1414
   332   1   1408   1415
   333   1   1409   1416
   334   1   1435   2035
   335   1   1436   1443
   336   1   1437   1444
   337   1   1438   1445
   338   1   1439   1446
   339   1   1440   1447
   340   1   1441   1448
   341   1   1442   1449
   342   1   1468   2036
   343   1   1469   1476
   344   1   1470   1477
   345   1   1471   1478
   346   1   1472   1479
   347   1   1473   1480
   348   1   1474   1481
   349   1   1475   1482
   350   1   1501   2037
   351   1   1502   1508
   352   1   1503   1509
   353   1   1504   1510
   354   1   1505   1511
   355   1   1506   1512
   356   1   1507   1513
   357   1   1532   2038
   358   1   1533   1539
   359   1   1534   1540
   360   1   1535   1541
   361   1   1536   1542
   362   1   1537   1543
   363   1   1538   1544
   364   1   1563   2039
   365   1   1564   1570
   366   1   1565   1571
   367   1   1566   1572
   368   1   1567   1573
   369   1   1568   1574
   370   1   1569   1575
   371   1   1594   2040
   372   1   1595   1601
   373   1   1596   1602
   374   1   1597   1603
   375   1   1598   1604
   376   1   1599   1605
   377   1   1600   1606
   378   1   1607   1608
   379   1   1609   1610
   380   1   1630   1634
   381   1   1631   1635
   382   1   1632   1636
   383   1   1633   1637
   384   1   1670   1638
   385   1   1671   1639
   386   1   1645   1647
   387   1   1654   1646
   388   1   1685   1648
   389   1   1686   1649
   390   1   1655   1657
   391   1   1656   1658
   392   1   1668   1672
   393   1   1669   1673
   394   1   1683   1687
   395   1   1684   1688
   396   1   1689   1691
   397   1   1690   1692
   398   1   1693   1695
   399   1   1694   1696
   400   1   1715   1723
   401   1   1716   1724
   402   1   1717   1725
   403   1   1718   1726
   404   1   1719   1727
   405   1   1720   1728
   406   1   1721   1729
   407   1   1722   1730
   408   1   1749   1757
   409   1   1750   1758
   410   1   1751   1759
   411   1   1752   1760
   412   1   1753   1761
   413   1   1754   1762
   414   1   1755   1763
   415   1   1756   1764
   416   1   1783   1791
   417   1   1784   1792
   418   1   1785   1793
   419   1   1786   1794
   420   1   1787   1795
   421   1   1788   1796
   422   1   1789   1797
   423   1   1790   1798
   424   1   1817   1825
   425   1   1818   1826
   426   1   1819   1827
   427   1   1820   1828
   428   1   1821   1829
   429   1   1822   1830
   430   1   1823   1831
   431   1   1824   1832
   432   1   1851   1859
   433   1   1852   1860
   434   1   1853   1861
   435   1   1854   1862
   436   1   1855   1863
   437   1   1856   1864
   438   1   1857   1865
   439   1   1858   1866
   440   1   1885   1893
   441   1   1886   1894
   442   1   1887   1895
   443   1   1888   1896
   444   1   1889   1897
   445   1   1890   1898
   446   1   1891   1899
   447   1   1892   1900
   448   1   1919   1927
   449   1   1920   1928
   450   1   1921   1929
   451   1   1922   1930
   452   1   1923   1931
   453   1   1924   1932
   454   1   1925   1933
   455   1   1926   1934
   456   1   1953   1961
   457   1   1954   1962
   458   1   1955   1963
   459   1   1956   1964
   460   1   1957   1965
   461   1   1958   1966
   462   1   1959   1967
   463   1   1960   1968
   464   1   1985   1992
   465   1   1986   1993
   466   1   1987   1994
   467   1   1988   1995
   468   1   1989   1996
   469   1   1990   1997
   470   1   1991   1998
   471   1   2001   2002
   472   1   2003   2004
   473   1   2005   2006
   474   1   2007   2008
   475   1   2009   2010
   476   1   2011   2012
   477   1   2013   2014
   478   1   2015   2016
   479   1   2017   2018
   480   1   2019   2020

Angles

     1   1      2     18     24
     2   1    539     18     24
     3   1      4     19     25
     4   1    957     19     25
     5   1      1     20     26
     6   1      4     20     26
     7   1      1     21     27
     8   1      2     21     27
     9   1      2     22     28
    10   1      3     22     28
    11   1      1     23     29
    12   1      4     23     29
    13   1     31     39     44
    14   1    571     39     44
    15   1     30     40     45
    16   1    572     40     45
    17   1     31     41     46
    18   1    571     41     46
    19   1     30     42     47
    20   1     31     42     47
    21   1     30     43     49
    22   1    100     43     49
    23   1     51     67     73
    24   1    602     67     73
    25   1     53     68     74
    26   1   1003     68     74
    27   1     50     69     75
    28   1     53     69     75
    29   1     50     70     76
    30   1     51     70     76
    31   1     51     71     77
    32   1     52     71     77
    33   1     50     72     78
    34   1     53     72     78
    35   1    634     88     93
    36   1     80     88     93
    37   1     79     89     94
    38   1    635     89     94
    39   1    634     90     95
    40   1     80     90     95
    41   1     79     91     96
    42   1     80     91     96
    43   1     79     92     98
    44   1    113     92     98
    45   1    100    107    110
    46   1   1047    107    110
    47   1     30    108    111
    48   1    100    108    111
    49   1     31    109     48
    50   1     99    109     48
    51   1    113    120    123
    52   1   1063    120    123
    53   1    113    121    124
    54   1     79    121    124
    55   1     80    122     97
    56   1    112    122     97
    57   1      1    126    128
    58   1    540    126    128
    59   1      2    127    129
    60   1    539    127    129
    61   1     50    131    133
    62   1    603    131    133
    63   1     51    132    134
    64   1    602    132    134
    65   1      3    153    161
    66   1    136    153    161
    67   1    138    154    162
    68   1   1089    154    162
    69   1    135    155    163
    70   1      4    155    163
    71   1      3    156    164
    72   1    136    156    164
    73   1    135    157    165
    74   1    138    157    165
    75   1    135    158    166
    76   1    136    158    166
    77   1    136    159    167
    78   1    137    159    167
    79   1    135    160    168
    80   1    138    160    168
    81   1     99    186    194
    82   1    170    186    194
    83   1    172    187    195
    84   1   1122    187    195
    85   1    169    188    196
    86   1    100    188    196
    87   1     99    189    197
    88   1    170    189    197
    89   1    169    190    198
    90   1    172    190    198
    91   1    169    191    199
    92   1    170    191    199
    93   1    170    192    200
    94   1    171    192    200
    95   1    169    193    201
    96   1    172    193    201
    97   1     52    220    228
    98   1    203    220    228
    99   1    205    221    229
   100   1   1155    221    229
   101   1    202    222    230
   102   1     53    222    230
   103   1     52    223    231
   104   1    203    223    231
   105   1    202    224    232
   106   1    205    224    232
   107   1    202    225    233
   108   1    203    225    233
   109   1    203    226    234
   110   1    204    226    234
   111   1    202    227    235
   112   1    205    227    235
   113   1    112    253    261
   114   1    237    253    261
   115   1    239    254    262
   116   1   1188    254    262
   117   1    236    255    263
   118   1    113    255    263
   119   1    112    256    264
   120   1    237    256    264
   121   1    236    257    265
   122   1    239    257    265
   123   1    236    258    266
   124   1    237    258    266
   125   1    237    259    267
   126   1    238    259    267
   127   1    236    260    268
   128   1    239    260    268
   129   1    137    287    295
   130   1    270    287    295
   131   1    272    288    296
   132   1   1221    288    296
   133   1    269    289    297
   134   1    138    289    297
   135   1    137    290    298
   136   1    270    290    298
   137   1    269    291    299
   138   1    272    291    299
   139   1    269    292    300
   140   1    270    292    300
   141   1    270    293    301
   142   1    271    293    301
   143   1    269    294    302
   144   1    272    294    302
   145   1    171    320    328
   146   1    304    320    328
   147   1    306    321    329
   148   1   1254    321    329
   149   1    303    322    330
   150   1    172    322    330
   151   1    171    323    331
   152   1    304    323    331
   153   1    303    324    332
   154   1    306    324    332
   155   1    303    325    333
   156   1    304    325    333
   157   1    304    326    334
   158   1    305    326    334
   159   1    303    327    335
   160   1    306    327    335
   161   1    204    354    362
   162   1    337    354    362
   163   1    339    355    363
   164   1   1287    355    363
   165   1    336    356    364
   166   1    205    356    364
   167   1    204    357    365
   168   1    337    357    365
   169   1    336    358    366
   170   1    339    358    366
   171   1    336    359    367
   172   1    337    359    367
   173   1    337    360    368
   174   1    338    360    368
   175   1    336    361    369
   176   1    339    361    369
   177   1    238    387    395
   178   1    371    387    395
   179   1    373    388    396
   180   1   1320    388    396
   181   1    370    389    397
   182   1    239    389    397
   183   1    238    390    398
   184   1    371    390    398
   185   1    370    391    399
   186   1    373    391    399
   187   1    370    392    400
   188   1    371    392    400
   189   1    371    393    401
   190   1    372    393    401
   191   1    370    394    402
   192   1    373    394    402
   193   1    271    421    429
   194   1    404    421    429
   195   1    406    422    430
   196   1   1353    422    430
   197   1    403    423    431
   198   1    272    423    431
   199   1    271    424    432
   200   1    404    424    432
   201   1    403    425    433
   202   1    406    425    433
   203   1    403    426    434
   204   1    404    426    434
   205   1    404    427    435
   206   1    405    427    435
   207   1    403    428    436
   208   1    406    428    436
   209   1    305    454    462
   210   1    438    454    462
   211   1    440    455    463
   212   1   1386    455    463
   213   1    437    456    464
   214   1    306    456    464
   215   1    305    457    465
   216   1    438    457    465
   217   1    437    458    466
   218   1    440    458    466
   219   1    437    459    467
   220   1    438    459    467
   221   1    438    460    468
   222   1    439    460    468
   223   1    437    461    469
   224   1    440    461    469
   225   1    338    488    496
   226   1    471    488    496
   227   1    473    489    497
   228   1   1419    489    497
   229   1    470    490    498
   230   1    339    490    498
   231   1    338    491    499
   232   1    471    491    499
   233   1    470    492    500
   234   1    473    492    500
   235   1    470    493    501
   236   1    471    493    501
   237   1    471    494    502
   238   1    472    494    502
   239   1    470    495    503
   240   1    473    495    503
   241   1    372    521    529
   242   1    505    521    529
   243   1    507    522    530
   244   1   1452    522    530
   245   1    504    523    531
   246   1    373    523    531
   247   1    372    524    532
   248   1    505    524    532
   249   1    504    525    533
   250   1    507    525    533
   251   1    504    526    534
   252   1    505    526    534
   253   1    505    527    535
   254   1    506    527    535
   255   1    504    528    536
   256   1    507    528    536
   257   1    405    555    562
   258   1    538    555    562
   259   1    537    556    563
   260   1    406    556    563
   261   1    405    557    564
   262   1    538    557    564
   263   1    537    558    565
   264   1    540    558    565
   265   1    537    559    566
   266   1    538    559    566
   267   1    538    560    567
   268   1    539    560    567
   269   1    537    561    568
   270   1    540    561    568
   271   1    439    586    593
   272   1    570    586    593
   273   1    569    587    594
   274   1    440    587    594
   275   1    439    588    595
   276   1    570    588    595
   277   1    569    589    596
   278   1    572    589    596
   279   1    569    590    597
   280   1    570    590    597
   281   1    570    591    598
   282   1    571    591    598
   283   1    569    592    599
   284   1    572    592    599
   285   1    472    618    625
   286   1    601    618    625
   287   1    600    619    626
   288   1    473    619    626
   289   1    472    620    627
   290   1    601    620    627
   291   1    600    621    628
   292   1    603    621    628
   293   1    600    622    629
   294   1    601    622    629
   295   1    601    623    630
   296   1    602    623    630
   297   1    600    624    631
   298   1    603    624    631
   299   1    506    649    656
   300   1    633    649    656
   301   1    632    650    657
   302   1    507    650    657
   303   1    506    651    658
   304   1    633    651    658
   305   1    632    652    659
   306   1    635    652    659
   307   1    632    653    660
   308   1    633    653    660
   309   1    633    654    661
   310   1    634    654    661
   311   1    632    655    662
   312   1    635    655    662
   313   1    664    681    687
   314   1    861    681    687
   315   1      3    682    688
   316   1    666    682    688
   317   1    663    683    689
   318   1    666    683    689
   319   1    663    684    690
   320   1    664    684    690
   321   1    664    685    691
   322   1    665    685    691
   323   1    663    686    692
   324   1    666    686    692
   325   1    694    711    717
   326   1   1971    711    717
   327   1     52    712    718
   328   1    696    712    718
   329   1    693    713    719
   330   1    696    713    719
   331   1    693    714    720
   332   1    694    714    720
   333   1    694    715    721
   334   1    695    715    721
   335   1    693    716    722
   336   1    696    716    722
   337   1    665    741    749
   338   1    724    741    749
   339   1    137    742    750
   340   1    726    742    750
   341   1    723    743    751
   342   1    666    743    751
   343   1    665    744    752
   344   1    724    744    752
   345   1    723    745    753
   346   1    726    745    753
   347   1    723    746    754
   348   1    724    746    754
   349   1    724    747    755
   350   1    725    747    755
   351   1    723    748    756
   352   1    726    748    756
   353   1   1659    775    783
   354   1    758    775    783
   355   1    171    776    784
   356   1    760    776    784
   357   1    757    777    785
   358   1   1660    777    785
   359   1   1659    778    786
   360   1    758    778    786
   361   1    757    779    787
   362   1    760    779    787
   363   1    757    780    788
   364   1    758    780    788
   365   1    758    781    789
   366   1    759    781    789
   367   1    757    782    790
   368   1    760    782    790
   369   1    695    809    817
   370   1    792    809    817
   371   1    204    810    818
   372   1    794    810    818
   373   1    791    811    819
   374   1    696    811    819
   375   1    695    812    820
   376   1    792    812    820
   377   1    791    813    821
   378   1    794    813    821
   379   1    791    814    822
   380   1    792    814    822
   381   1    792    815    823
   382   1    793    815    823
   383   1    791    816    824
   384   1    794    816    824
   385   1   1674    843    851
   386   1    826    843    851
   387   1    238    844    852
   388   1    828    844    852
   389   1    825    845    853
   390   1   1675    845    853
   391   1   1674    846    854
   392   1    826    846    854
   393   1    825    847    855
   394   1    828    847    855
   395   1    825    848    856
   396   1    826    848    856
   397   1    826    849    857
   398   1    827    849    857
   399   1    825    850    858
   400   1    828    850    858
   401   1   1835    877    884
   402   1    860    877    884
   403   1    859    878    885
   404   1   1836    878    885
   405   1   1835    879    886
   406   1    860    879    886
   407   1    859    880    887
   408   1    862    880    887
   409   1    859    881    888
   410   1    860    881    888
   411   1    860    882    889
   412   1    861    882    889
   413   1    859    883    890
   414   1    862    883    890
   415   1   1869    909    916
   416   1    892    909    916
   417   1    891    910    917
   418   1   1870    910    917
   419   1   1869    911    918
   420   1    892    911    918
   421   1    891    912    919
   422   1    894    912    919
   423   1    891    913    920
   424   1    892    913    920
   425   1    892    914    921
   426   1    893    914    921
   427   1    891    915    922
   428   1    894    915    922
   429   1   1937    941    948
   430   1    924    941    948
   431   1    923    942    949
   432   1   1938    942    949
   433   1   1937    943    950
   434   1    924    943    950
   435   1    923    944    951
   436   1    926    944    951
   437   1    923    945    952
   438   1    924    945    952
   439   1    924    946    953
   440   1    925    946    953
   441   1    923    947    954
   442   1    926    947    954
   443   1    956    973   2021
   444   1   1485    973   2021
   445   1    665    974    979
   446   1    958    974    979
   447   1    955    975    980
   448   1    958    975    980
   449   1    955    976    981
   450   1    956    976    981
   451   1    956    977    982
   452   1    957    977    982
   453   1    955    978    983
   454   1    958    978    983
   455   1    985    993   2022
   456   1   1516    993   2022
   457   1    984    994    997
   458   1   1517    994    997
   459   1    985    995    998
   460   1   1516    995    998
   461   1    984    996   1062
   462   1    985    996   1062
   463   1   1002   1019   2023
   464   1   1547   1019   2023
   465   1    695   1020   1025
   466   1   1004   1020   1025
   467   1   1001   1021   1026
   468   1   1004   1021   1026
   469   1   1001   1022   1027
   470   1   1002   1022   1027
   471   1   1002   1023   1028
   472   1   1003   1023   1028
   473   1   1001   1024   1029
   474   1   1004   1024   1029
   475   1   1578   1039   2024
   476   1   1031   1039   2024
   477   1   1030   1040   1043
   478   1   1579   1040   1043
   479   1   1578   1041   1044
   480   1   1031   1041   1044
   481   1   1030   1042   1078
   482   1   1031   1042   1078
   483   1   1659   1056   1060
   484   1   1048   1056   1060
   485   1    984   1057   1061
   486   1   1048   1057   1061
   487   1    985   1058    999
   488   1   1047   1058    999
   489   1    984   1059   1000
   490   1   1048   1059   1000
   491   1   1674   1072   1076
   492   1   1064   1072   1076
   493   1   1064   1073   1077
   494   1   1030   1073   1077
   495   1   1031   1074   1045
   496   1   1063   1074   1045
   497   1   1030   1075   1046
   498   1   1064   1075   1046
   499   1    955   1079   1081
   500   1   1486   1079   1081
   501   1    956   1080   1082
   502   1   1485   1080   1082
   503   1   1001   1083   1085
   504   1   1548   1083   1085
   505   1   1002   1084   1086
   506   1   1547   1084   1086
   507   1    957   1105   2025
   508   1   1088   1105   2025
   509   1    725   1106   1113
   510   1   1090   1106   1113
   511   1   1087   1107   1114
   512   1    958   1107   1114
   513   1    957   1108   1115
   514   1   1088   1108   1115
   515   1   1087   1109   1116
   516   1   1090   1109   1116
   517   1   1087   1110   1117
   518   1   1088   1110   1117
   519   1   1088   1111   1118
   520   1   1089   1111   1118
   521   1   1087   1112   1119
   522   1   1090   1112   1119
   523   1   1047   1138   2026
   524   1   1121   1138   2026
   525   1    759   1139   1146
   526   1   1123   1139   1146
   527   1   1120   1140   1147
   528   1   1048   1140   1147
   529   1   1047   1141   1148
   530   1   1121   1141   1148
   531   1   1120   1142   1149
   532   1   1123   1142   1149
   533   1   1120   1143   1150
   534   1   1121   1143   1150
   535   1   1121   1144   1151
   536   1   1122   1144   1151
   537   1   1120   1145   1152
   538   1   1123   1145   1152
   539   1   1003   1171   2027
   540   1   1154   1171   2027
   541   1    793   1172   1179
   542   1   1156   1172   1179
   543   1   1153   1173   1180
   544   1   1004   1173   1180
   545   1   1003   1174   1181
   546   1   1154   1174   1181
   547   1   1153   1175   1182
   548   1   1156   1175   1182
   549   1   1153   1176   1183
   550   1   1154   1176   1183
   551   1   1154   1177   1184
   552   1   1155   1177   1184
   553   1   1153   1178   1185
   554   1   1156   1178   1185
   555   1   1063   1204   2028
   556   1   1187   1204   2028
   557   1    827   1205   1212
   558   1   1189   1205   1212
   559   1   1186   1206   1213
   560   1   1064   1206   1213
   561   1   1063   1207   1214
   562   1   1187   1207   1214
   563   1   1186   1208   1215
   564   1   1189   1208   1215
   565   1   1186   1209   1216
   566   1   1187   1209   1216
   567   1   1187   1210   1217
   568   1   1188   1210   1217
   569   1   1186   1211   1218
   570   1   1189   1211   1218
   571   1   1089   1237   2029
   572   1   1220   1237   2029
   573   1   1699   1238   1245
   574   1   1222   1238   1245
   575   1   1219   1239   1246
   576   1   1090   1239   1246
   577   1   1089   1240   1247
   578   1   1220   1240   1247
   579   1   1219   1241   1248
   580   1   1222   1241   1248
   581   1   1219   1242   1249
   582   1   1220   1242   1249
   583   1   1220   1243   1250
   584   1   1221   1243   1250
   585   1   1219   1244   1251
   586   1   1222   1244   1251
   587   1   1122   1270   2030
   588   1   1253   1270   2030
   589   1   1733   1271   1278
   590   1   1255   1271   1278
   591   1   1252   1272   1279
   592   1   1123   1272   1279
   593   1   1122   1273   1280
   594   1   1253   1273   1280
   595   1   1252   1274   1281
   596   1   1255   1274   1281
   597   1   1252   1275   1282
   598   1   1253   1275   1282
   599   1   1253   1276   1283
   600   1   1254   1276   1283
   601   1   1252   1277   1284
   602   1   1255   1277   1284
   603   1   1155   1303   2031
   604   1   1286   1303   2031
   605   1   1767   1304   1311
   606   1   1288   1304   1311
   607   1   1285   1305   1312
   608   1   1156   1305   1312
   609   1   1155   1306   1313
   610   1   1286   1306   1313
   611   1   1285   1307   1314
   612   1   1288   1307   1314
   613   1   1285   1308   1315
   614   1   1286   1308   1315
   615   1   1286   1309   1316
   616   1   1287   1309   1316
   617   1   1285   1310   1317
   618   1   1288   1310   1317
   619   1   1188   1336   2032
   620   1   1319   1336   2032
   621   1   1801   1337   1344
   622   1   1321   1337   1344
   623   1   1318   1338   1345
   624   1   1189   1338   1345
   625   1   1188   1339   1346
   626   1   1319   1339   1346
   627   1   1318   1340   1347
   628   1   1321   1340   1347
   629   1   1318   1341   1348
   630   1   1319   1341   1348
   631   1   1319   1342   1349
   632   1   1320   1342   1349
   633   1   1318   1343   1350
   634   1   1321   1343   1350
   635   1   1221   1369   2033
   636   1   1352   1369   2033
   637   1   1835   1370   1377
   638   1   1354   1370   1377
   639   1   1351   1371   1378
   640   1   1222   1371   1378
   641   1   1221   1372   1379
   642   1   1352   1372   1379
   643   1   1351   1373   1380
   644   1   1354   1373   1380
   645   1   1351   1374   1381
   646   1   1352   1374   1381
   647   1   1352   1375   1382
   648   1   1353   1375   1382
   649   1   1351   1376   1383
   650   1   1354   1376   1383
   651   1   1254   1402   2034
   652   1   1385   1402   2034
   653   1   1869   1403   1410
   654   1   1387   1403   1410
   655   1   1384   1404   1411
   656   1   1255   1404   1411
   657   1   1254   1405   1412
   658   1   1385   1405   1412
   659   1   1384   1406   1413
   660   1   1387   1406   1413
   661   1   1384   1407   1414
   662   1   1385   1407   1414
   663   1   1385   1408   1415
   664   1   1386   1408   1415
   665   1   1384   1409   1416
   666   1   1387   1409   1416
   667   1   1287   1435   2035
   668   1   1418   1435   2035
   669   1   1903   1436   1443
   670   1   1420   1436   1443
   671   1   1417   1437   1444
   672   1   1288   1437   1444
   673   1   1287   1438   1445
   674   1   1418   1438   1445
   675   1   1417   1439   1446
   676   1   1420   1439   1446
   677   1   1417   1440   1447
   678   1   1418   1440   1447
   679   1   1418   1441   1448
   680   1   1419   1441   1448
   681   1   1417   1442   1449
   682   1   1420   1442   1449
   683   1   1320   1468   2036
   684   1   1451   1468   2036
   685   1   1937   1469   1476
   686   1   1453   1469   1476
   687   1   1450   1470   1477
   688   1   1321   1470   1477
   689   1   1320   1471   1478
   690   1   1451   1471   1478
   691   1   1450   1472   1479
   692   1   1453   1472   1479
   693   1   1450   1473   1480
   694   1   1451   1473   1480
   695   1   1451   1474   1481
   696   1   1452   1474   1481
   697   1   1450   1475   1482
   698   1   1453   1475   1482
   699   1   1353   1501   2037
   700   1   1484   1501   2037
   701   1   1483   1502   1508
   702   1   1354   1502   1508
   703   1   1353   1503   1509
   704   1   1484   1503   1509
   705   1   1483   1504   1510
   706   1   1486   1504   1510
   707   1   1483   1505   1511
   708   1   1484   1505   1511
   709   1   1484   1506   1512
   710   1   1485   1506   1512
   711   1   1483   1507   1513
   712   1   1486   1507   1513
   713   1   1386   1532   2038
   714   1   1515   1532   2038
   715   1   1514   1533   1539
   716   1   1387   1533   1539
   717   1   1386   1534   1540
   718   1   1515   1534   1540
   719   1   1514   1535   1541
   720   1   1517   1535   1541
   721   1   1514   1536   1542
   722   1   1515   1536   1542
   723   1   1515   1537   1543
   724   1   1516   1537   1543
   725   1   1514   1538   1544
   726   1   1517   1538   1544
   727   1   1419   1563   2039
   728   1   1546   1563   2039
   729   1   1545   1564   1570
   730   1   1420   1564   1570
   731   1   1419   1565   1571
   732   1   1546   1565   1571
   733   1   1545   1566   1572
   734   1   1548   1566   1572
   735   1   1545   1567   1573
   736   1   1546   1567   1573
   737   1   1546   1568   1574
   738   1   1547   1568   1574
   739   1   1545   1569   1575
   740   1   1548   1569   1575
   741   1   1452   1594   2040
   742   1   1577   1594   2040
   743   1   1576   1595   1601
   744   1   1453   1595   1601
   745   1   1452   1596   1602
   746   1   1577   1596   1602
   747   1   1576   1597   1603
   748   1   1579   1597   1603
   749   1   1576   1598   1604
   750   1   1577   1598   1604
   751   1   1577   1599   1605
   752   1   1578   1599   1605
   753   1   1576   1600   1606
   754   1   1579   1600   1606
   755   1    572   1607   1608
   756   1   1516   1607   1608
   757   1    571   1609   1610
   758   1    894   1609   1610
   759   1   1622   1630   1634
   760   1    893   1630   1634
   761   1   1621   1631   1635
   762   1    894   1631   1635
   763   1   1622   1632   1636
   764   1    893   1632   1636
   765   1   1621   1633   1637
   766   1   1622   1633   1637
   767   1   1640   1645   1647
   768   1   1641   1645   1647
   769   1    925   1654   1646
   770   1   1641   1654   1646
   771   1   1640   1655   1657
   772   1    926   1655   1657
   773   1    925   1656   1658
   774   1   1641   1656   1658
   775   1     99   1668   1672
   776   1   1660   1668   1672
   777   1   1621   1669   1673
   778   1   1660   1669   1673
   779   1   1622   1670   1638
   780   1   1659   1670   1638
   781   1   1621   1671   1639
   782   1   1660   1671   1639
   783   1    112   1683   1687
   784   1   1675   1683   1687
   785   1   1675   1684   1688
   786   1   1640   1684   1688
   787   1   1641   1685   1648
   788   1   1674   1685   1648
   789   1   1640   1686   1649
   790   1   1675   1686   1649
   791   1    663   1689   1691
   792   1    862   1689   1691
   793   1    664   1690   1692
   794   1    861   1690   1692
   795   1    693   1693   1695
   796   1   1972   1693   1695
   797   1    694   1694   1696
   798   1   1971   1694   1696
   799   1    725   1715   1723
   800   1   1698   1715   1723
   801   1    271   1716   1724
   802   1   1700   1716   1724
   803   1   1697   1717   1725
   804   1    726   1717   1725
   805   1    725   1718   1726
   806   1   1698   1718   1726
   807   1   1697   1719   1727
   808   1   1700   1719   1727
   809   1   1697   1720   1728
   810   1   1698   1720   1728
   811   1   1698   1721   1729
   812   1   1699   1721   1729
   813   1   1697   1722   1730
   814   1   1700   1722   1730
   815   1    759   1749   1757
   816   1   1732   1749   1757
   817   1    305   1750   1758
   818   1   1734   1750   1758
   819   1   1731   1751   1759
   820   1    760   1751   1759
   821   1    759   1752   1760
   822   1   1732   1752   1760
   823   1   1731   1753   1761
   824   1   1734   1753   1761
   825   1   1731   1754   1762
   826   1   1732   1754   1762
   827   1   1732   1755   1763
   828   1   1733   1755   1763
   829   1   1731   1756   1764
   830   1   1734   1756   1764
   831   1    793   1783   1791
   832   1   1766   1783   1791
   833   1    338   1784   1792
   834   1   1768   1784   1792
   835   1   1765   1785   1793
   836   1    794   1785   1793
   837   1    793   1786   1794
   838   1   1766   1786   1794
   839   1   1765   1787   1795
   840   1   1768   1787   1795
   841   1   1765   1788   1796
   842   1   1766   1788   1796
   843   1   1766   1789   1797
   844   1   1767   1789   1797
   845   1   1765   1790   1798
   846   1   1768   1790   1798
   847   1    827   1817   1825
   848   1   1800   1817   1825
   849   1    372   1818   1826
   850   1   1802   1818   1826
   851   1   1799   1819   1827
   852   1    828   1819   1827
   853   1    827   1820   1828
   854   1   1800   1820   1828
   855   1   1799   1821   1829
   856   1   1802   1821   1829
   857   1   1799   1822   1830
   858   1   1800   1822   1830
   859   1   1800   1823   1831
   860   1   1801   1823   1831
   861   1   1799   1824   1832
   862   1   1802   1824   1832
   863   1   1699   1851   1859
   864   1   1834   1851   1859
   865   1    405   1852   1860
   866   1   1836   1852   1860
   867   1   1833   1853   1861
   868   1   1700   1853   1861
   869   1   1699   1854   1862
   870   1   1834   1854   1862
   871   1   1833   1855   1863
   872   1   1836   1855   1863
   873   1   1833   1856   1864
   874   1   1834   1856   1864
   875   1   1834   1857   1865
   876   1   1835   1857   1865
   877   1   1833   1858   1866
   878   1   1836   1858   1866
   879   1   1733   1885   1893
   880   1   1868   1885   1893
   881   1    439   1886   1894
   882   1   1870   1886   1894
   883   1   1867   1887   1895
   884   1   1734   1887   1895
   885   1   1733   1888   1896
   886   1   1868   1888   1896
   887   1   1867   1889   1897
   888   1   1870   1889   1897
   889   1   1867   1890   1898
   890   1   1868   1890   1898
   891   1   1868   1891   1899
   892   1   1869   1891   1899
   893   1   1867   1892   1900
   894   1   1870   1892   1900
   895   1   1767   1919   1927
   896   1   1902   1919   1927
   897   1    472   1920   1928
   898   1   1904   1920   1928
   899   1   1901   1921   1929
   900   1   1768   1921   1929
   901   1   1767   1922   1930
   902   1   1902   1922   1930
   903   1   1901   1923   1931
   904   1   1904   1923   1931
   905   1   1901   1924   1932
   906   1   1902   1924   1932
   907   1   1902   1925   1933
   908   1   1903   1925   1933
   909   1   1901   1926   1934
   910   1   1904   1926   1934
   911   1   1801   1953   1961
   912   1   1936   1953   1961
   913   1    506   1954   1962
   914   1   1938   1954   1962
   915   1   1935   1955   1963
   916   1   1802   1955   1963
   917   1   1801   1956   1964
   918   1   1936   1956   1964
   919   1   1935   1957   1965
   920   1   1938   1957   1965
   921   1   1935   1958   1966
   922   1   1936   1958   1966
   923   1   1936   1959   1967
   924   1   1937   1959   1967
   925   1   1935   1960   1968
   926   1   1938   1960   1968
   927   1   1903   1985   1992
   928   1   1970   1985   1992
   929   1   1969   1986   1993
   930   1   1904   1986   1993
   931   1   1903   1987   1994
   932   1   1970   1987   1994
   933   1   1969   1988   1995
   934   1   1972   1988   1995
   935   1   1969   1989   1996
   936   1   1970   1989   1996
   937   1   1970   1990   1997
   938   1   1971   1990   1997
   939   1   1969   1991   1998
   940   1   1972   1991   1998
   941   1    540   2001   2002
   942   1   1485   2001   2002
   943   1    603   2003   2004
   944   1   1547   2003   2004
   945   1    635   2005   2006
   946   1   1578   2005   2006
   947   1    539   2007   2008
   948   1    862   2007   2008
   949   1    602   2009   2010
   950   1   1972   2009   2010
   951   1    634   2011   2012
   952   1    926   2011   2012
   953   1    861   2013   2014
   954   1   1486   2013   2014
   955   1    893   2015   2016
   956   1   1517   2015   2016
   957   1   1971   2017   2018
   958   1   1548   2017   2018
   959   1    925   2019   2020
   960   1   1579   2019   2020
