LAMMPS data file for qtz100b-surf-3

   1497 atoms
   97 bonds
   97 angles
      0 dihedrals
      0 impropers

   4 atom types
   1 bond types
   1 angle types

    -0.123938766    24.426061234 xlo xhi
    -0.312402109    26.697597891 ylo yhi
   -73.573638152   103.297861848 zlo zhi

Masses

   1  15.999400 # ohy
   2  15.999400 # oby
   3  28.085500 # sty
   4   1.007940 # hoy

Pair Coeffs # lj/cut/coul/long

   1   0.1554000000   3.1655413253 # ohy
   2   0.1554000000   3.1655413253 # oby
   3   0.0000018405   3.3020269922 # sty
   4   0.0000000000   0.0000000000 # hoy

Bond Coeffs # harmonic

   1   554.1348     1.0000 # ohy-hoy

Angle Coeffs # harmonic

   1    30.0000   109.4700 # sty-ohy-hoy

Atoms # full

      1    1   1 -0.950000     3.355155795     6.775051449    27.728982790   0   0   0 # ohy
      2    1   2 -1.050000     2.847532682    10.376384783    25.878298994   0   0   0 # oby
      3    1   1 -0.950000     1.498605057     8.575718116    27.243255404   0   0   0 # ohy
      4    1   2 -1.050000     5.302530633    10.918391449    26.604665404   0   0   0 # oby
      5    1   2 -1.050000     3.953603007     7.317058116    25.239708994   0   0   0 # oby
      6    1   2 -1.050000     5.810153746     9.117724783    24.753981607   0   0   0 # oby
      7    1   3  2.100000     3.841780118     6.145721449    26.323206068   0   0   0 # sty
      8    1   3  2.100000     6.296778069     9.747054783    26.159758329   0   0   0 # sty
      9    1   3  2.100000    22.324153494     1.800666667     2.854485691   0   0   0 # sty
     10    1   2 -1.050000    10.931588287     0.629330000    23.476801607   0   0   0 # oby
     11    1   2 -1.050000    10.423965174     4.230663333    21.626117810   0   0   0 # oby
     12    1   2 -1.050000     9.075037548     2.429996667    22.991074220   0   0   0 # oby
     13    1   2 -1.050000    12.878963125     4.772670000    22.352484220   0   0   0 # oby
     14    1   2 -1.050000    11.530035499     1.171336667    20.987527810   0   0   0 # oby
     15    1   2 -1.050000    13.386586238     2.972003333    20.501800424   0   0   0 # oby
     16    1   3  2.100000    11.418212610     0.000000000    22.071024885   0   0   0 # sty
     17    1   3  2.100000    13.873210561     3.601333333    21.907577146   0   0   0 # sty
     18    1   3  2.100000     4.927729199     7.946388116    24.115391607   0   0   0 # sty
     19    1   2 -1.050000    13.386586238     0.629330000    19.224620424   0   0   0 # oby
     20    1   2 -1.050000    12.878963125     4.230663333    17.373936627   0   0   0 # oby
     21    1   2 -1.050000    11.530035499     2.429996667    18.738893037   0   0   0 # oby
     22    1   2 -1.050000    15.333961075     4.772670000    18.100303037   0   0   0 # oby
     23    1   2 -1.050000    13.985033450     1.171336667    16.735346627   0   0   0 # oby
     24    1   2 -1.050000    15.841584189     2.972003333    16.249619241   0   0   0 # oby
     25    1   3  2.100000    13.873210561     0.000000000    17.818843702   0   0   0 # sty
     26    1   3  2.100000    16.328208511     3.601333333    17.655395963   0   0   0 # sty
     27    1   3  2.100000    12.504161691     1.800666667    19.863210424   0   0   0 # sty
     28    1   2 -1.050000    15.841584189     0.629330000    14.972439241   0   0   0 # oby
     29    1   2 -1.050000    15.333961075     4.230663333    13.121755444   0   0   0 # oby
     30    1   2 -1.050000    13.985033450     2.429996667    14.486711854   0   0   0 # oby
     31    1   2 -1.050000    17.788959026     4.772670000    13.848121854   0   0   0 # oby
     32    1   2 -1.050000    16.440031401     1.171336667    12.483165444   0   0   0 # oby
     33    1   2 -1.050000    18.296582139     2.972003333    11.997438058   0   0   0 # oby
     34    1   3  2.100000    16.328208511     0.000000000    13.566662518   0   0   0 # sty
     35    1   3  2.100000    18.783206462     3.601333333    13.403214780   0   0   0 # sty
     36    1   3  2.100000    14.959159642     1.800666667    15.611029241   0   0   0 # sty
     37    1   2 -1.050000    18.296582139     0.629330000    10.720258058   0   0   0 # oby
     38    1   2 -1.050000    17.788959026     4.230663333     8.869574261   0   0   0 # oby
     39    1   2 -1.050000    16.440031401     2.429996667    10.234530671   0   0   0 # oby
     40    1   2 -1.050000    20.243956977     4.772670000     9.595940671   0   0   0 # oby
     41    1   2 -1.050000    18.895029351     1.171336667     8.230984261   0   0   0 # oby
     42    1   2 -1.050000    20.751580090     2.972003333     7.745256874   0   0   0 # oby
     43    1   3  2.100000    18.783206462     0.000000000     9.314481335   0   0   0 # sty
     44    1   3  2.100000    21.238204413     3.601333333     9.151033597   0   0   0 # sty
     45    1   3  2.100000    17.414157593     1.800666667    11.358848058   0   0   0 # sty
     46    1   2 -1.050000    20.751580090     0.629330000     6.468076874   0   0   0 # oby
     47    1   2 -1.050000    20.243956977     4.230663333     4.617393078   0   0   0 # oby
     48    1   2 -1.050000    18.895029351     2.429996667     5.982349488   0   0   0 # oby
     49    1   2 -1.050000    22.698954928     4.772670000     5.343759488   0   0   0 # oby
     50    1   2 -1.050000    21.350027302     1.171336667     3.978803078   0   0   0 # oby
     51    1   2 -1.050000    23.206578041     2.972003333     3.493075691   0   0   0 # oby
     52    1   3  2.100000    21.238204413     0.000000000     5.062300152   0   0   0 # sty
     53    1   3  2.100000    23.693202364     3.601333333     4.898852413   0   0   0 # sty
     54    1   3  2.100000    19.869155543     1.800666667     7.106666874   0   0   0 # sty
     55    1   1 -0.950000    22.995139401     6.775051449    27.728982790   0   0   0 # ohy
     56    1   2 -1.050000    22.487516288    10.376384783    25.878298994   0   0   0 # oby
     57    1   1 -0.950000    21.138588662     8.575718116    27.243255404   0   0   0 # ohy
     58    1   2 -1.050000     0.392534731    10.918391449    26.604665404   0   0   0 # oby
     59    1   2 -1.050000    23.593586613     7.317058116    25.239708994   0   0   0 # oby
     60    1   2 -1.050000     0.900157845     9.117724783    24.753981607   0   0   0 # oby
     61    1   3  2.100000    23.481763724     6.145721449    26.323206068   0   0   0 # sty
     62    1   3  2.100000     1.386782167     9.747054783    26.159758329   0   0   0 # sty
     63    1   3  2.100000    17.414157593     1.800666667     2.854485691   0   0   0 # sty
     64    1   2 -1.050000     6.021592386     0.629330000    23.476801607   0   0   0 # oby
     65    1   2 -1.050000     5.513969272     4.230663333    21.626117810   0   0   0 # oby
     66    1   2 -1.050000     4.165041647     2.429996667    22.991074220   0   0   0 # oby
     67    1   2 -1.050000     7.968967223     4.772670000    22.352484220   0   0   0 # oby
     68    1   2 -1.050000     6.620039598     1.171336667    20.987527810   0   0   0 # oby
     69    1   2 -1.050000     8.476590337     2.972003333    20.501800424   0   0   0 # oby
     70    1   3  2.100000     6.508216708     0.000000000    22.071024885   0   0   0 # sty
     71    1   3  2.100000     8.963214659     3.601333333    21.907577146   0   0   0 # sty
     72    1   3  2.100000     0.017733298     7.946388116    24.115391607   0   0   0 # sty
     73    1   2 -1.050000     8.476590337     0.629330000    19.224620424   0   0   0 # oby
     74    1   2 -1.050000     7.968967223     4.230663333    17.373936627   0   0   0 # oby
     75    1   2 -1.050000     6.620039598     2.429996667    18.738893037   0   0   0 # oby
     76    1   2 -1.050000    10.423965174     4.772670000    18.100303037   0   0   0 # oby
     77    1   2 -1.050000     9.075037548     1.171336667    16.735346627   0   0   0 # oby
     78    1   2 -1.050000    10.931588287     2.972003333    16.249619241   0   0   0 # oby
     79    1   3  2.100000     8.963214659     0.000000000    17.818843702   0   0   0 # sty
     80    1   3  2.100000    11.418212610     3.601333333    17.655395963   0   0   0 # sty
     81    1   3  2.100000     7.594165790     1.800666667    19.863210424   0   0   0 # sty
     82    1   2 -1.050000    10.931588287     0.629330000    14.972439241   0   0   0 # oby
     83    1   2 -1.050000    10.423965174     4.230663333    13.121755444   0   0   0 # oby
     84    1   2 -1.050000     9.075037548     2.429996667    14.486711854   0   0   0 # oby
     85    1   2 -1.050000    12.878963125     4.772670000    13.848121854   0   0   0 # oby
     86    1   2 -1.050000    11.530035499     1.171336667    12.483165444   0   0   0 # oby
     87    1   2 -1.050000    13.386586238     2.972003333    11.997438058   0   0   0 # oby
     88    1   3  2.100000    11.418212610     0.000000000    13.566662518   0   0   0 # sty
     89    1   3  2.100000    13.873210561     3.601333333    13.403214780   0   0   0 # sty
     90    1   3  2.100000    10.049163741     1.800666667    15.611029241   0   0   0 # sty
     91    1   2 -1.050000    13.386586238     0.629330000    10.720258058   0   0   0 # oby
     92    1   2 -1.050000    12.878963125     4.230663333     8.869574261   0   0   0 # oby
     93    1   2 -1.050000    11.530035499     2.429996667    10.234530671   0   0   0 # oby
     94    1   2 -1.050000    15.333961075     4.772670000     9.595940671   0   0   0 # oby
     95    1   2 -1.050000    13.985033450     1.171336667     8.230984261   0   0   0 # oby
     96    1   2 -1.050000    15.841584189     2.972003333     7.745256874   0   0   0 # oby
     97    1   3  2.100000    13.873210561     0.000000000     9.314481335   0   0   0 # sty
     98    1   3  2.100000    16.328208511     3.601333333     9.151033597   0   0   0 # sty
     99    1   3  2.100000    12.504161691     1.800666667    11.358848058   0   0   0 # sty
    100    1   2 -1.050000    15.841584189     0.629330000     6.468076874   0   0   0 # oby
    101    1   2 -1.050000    15.333961075     4.230663333     4.617393078   0   0   0 # oby
    102    1   2 -1.050000    13.985033450     2.429996667     5.982349488   0   0   0 # oby
    103    1   2 -1.050000    17.788959026     4.772670000     5.343759488   0   0   0 # oby
    104    1   2 -1.050000    16.440031401     1.171336667     3.978803078   0   0   0 # oby
    105    1   2 -1.050000    18.296582139     2.972003333     3.493075691   0   0   0 # oby
    106    1   3  2.100000    16.328208511     0.000000000     5.062300152   0   0   0 # sty
    107    1   3  2.100000    18.783206462     3.601333333     4.898852413   0   0   0 # sty
    108    1   3  2.100000    14.959159642     1.800666667     7.106666874   0   0   0 # sty
    109    1   1 -0.950000    18.085143500     6.775051449    27.728982790   0   0   0 # ohy
    110    1   2 -1.050000    17.577520387    10.376384783    25.878298994   0   0   0 # oby
    111    1   1 -0.950000    16.228592761     8.575718116    27.243255404   0   0   0 # ohy
    112    1   2 -1.050000    20.032518337    10.918391449    26.604665404   0   0   0 # oby
    113    1   2 -1.050000    18.683590712     7.317058116    25.239708994   0   0   0 # oby
    114    1   2 -1.050000    20.540141451     9.117724783    24.753981607   0   0   0 # oby
    115    1   3  2.100000    18.571767822     6.145721449    26.323206068   0   0   0 # sty
    116    1   3  2.100000    21.026765773     9.747054783    26.159758329   0   0   0 # sty
    117    1   3  2.100000    12.504161691     1.800666667     2.854485691   0   0   0 # sty
    118    1   2 -1.050000     1.111596484     0.629330000    23.476801607   0   0   0 # oby
    119    1   2 -1.050000     0.603973371     4.230663333    21.626117810   0   0   0 # oby
    120    1   2 -1.050000    23.805025253     2.429996667    22.991074220   0   0   0 # oby
    121    1   2 -1.050000     3.058971322     4.772670000    22.352484220   0   0   0 # oby
    122    1   2 -1.050000     1.710043696     1.171336667    20.987527810   0   0   0 # oby
    123    1   2 -1.050000     3.566594435     2.972003333    20.501800424   0   0   0 # oby
    124    1   3  2.100000     1.598220807     0.000000000    22.071024885   0   0   0 # sty
    125    1   3  2.100000     4.053218758     3.601333333    21.907577146   0   0   0 # sty
    126    1   3  2.100000    19.657716904     7.946388116    24.115391607   0   0   0 # sty
    127    1   2 -1.050000     3.566594435     0.629330000    19.224620424   0   0   0 # oby
    128    1   2 -1.050000     3.058971322     4.230663333    17.373936627   0   0   0 # oby
    129    1   2 -1.050000     1.710043696     2.429996667    18.738893037   0   0   0 # oby
    130    1   2 -1.050000     5.513969272     4.772670000    18.100303037   0   0   0 # oby
    131    1   2 -1.050000     4.165041647     1.171336667    16.735346627   0   0   0 # oby
    132    1   2 -1.050000     6.021592386     2.972003333    16.249619241   0   0   0 # oby
    133    1   3  2.100000     4.053218758     0.000000000    17.818843702   0   0   0 # sty
    134    1   3  2.100000     6.508216708     3.601333333    17.655395963   0   0   0 # sty
    135    1   3  2.100000     2.684169888     1.800666667    19.863210424   0   0   0 # sty
    136    1   2 -1.050000     6.021592386     0.629330000    14.972439241   0   0   0 # oby
    137    1   2 -1.050000     5.513969272     4.230663333    13.121755444   0   0   0 # oby
    138    1   2 -1.050000     4.165041647     2.429996667    14.486711854   0   0   0 # oby
    139    1   2 -1.050000     7.968967223     4.772670000    13.848121854   0   0   0 # oby
    140    1   2 -1.050000     6.620039598     1.171336667    12.483165444   0   0   0 # oby
    141    1   2 -1.050000     8.476590337     2.972003333    11.997438058   0   0   0 # oby
    142    1   3  2.100000     6.508216708     0.000000000    13.566662518   0   0   0 # sty
    143    1   3  2.100000     8.963214659     3.601333333    13.403214780   0   0   0 # sty
    144    1   3  2.100000     5.139167839     1.800666667    15.611029241   0   0   0 # sty
    145    1   2 -1.050000     8.476590337     0.629330000    10.720258058   0   0   0 # oby
    146    1   2 -1.050000     7.968967223     4.230663333     8.869574261   0   0   0 # oby
    147    1   2 -1.050000     6.620039598     2.429996667    10.234530671   0   0   0 # oby
    148    1   2 -1.050000    10.423965174     4.772670000     9.595940671   0   0   0 # oby
    149    1   2 -1.050000     9.075037548     1.171336667     8.230984261   0   0   0 # oby
    150    1   2 -1.050000    10.931588287     2.972003333     7.745256874   0   0   0 # oby
    151    1   3  2.100000     8.963214659     0.000000000     9.314481335   0   0   0 # sty
    152    1   3  2.100000    11.418212610     3.601333333     9.151033597   0   0   0 # sty
    153    1   3  2.100000     7.594165790     1.800666667    11.358848058   0   0   0 # sty
    154    1   2 -1.050000    10.931588287     0.629330000     6.468076874   0   0   0 # oby
    155    1   2 -1.050000    10.423965174     4.230663333     4.617393078   0   0   0 # oby
    156    1   2 -1.050000     9.075037548     2.429996667     5.982349488   0   0   0 # oby
    157    1   2 -1.050000    12.878963125     4.772670000     5.343759488   0   0   0 # oby
    158    1   2 -1.050000    11.530035499     1.171336667     3.978803078   0   0   0 # oby
    159    1   2 -1.050000    13.386586238     2.972003333     3.493075691   0   0   0 # oby
    160    1   3  2.100000    11.418212610     0.000000000     5.062300152   0   0   0 # sty
    161    1   3  2.100000    13.873210561     3.601333333     4.898852413   0   0   0 # sty
    162    1   3  2.100000    10.049163741     1.800666667     7.106666874   0   0   0 # sty
    163    1   1 -0.950000    13.175147598     6.775051449    27.728982790   0   0   0 # ohy
    164    1   2 -1.050000    12.667524485    10.376384783    25.878298994   0   0   0 # oby
    165    1   1 -0.950000    11.318596860     8.575718116    27.243255404   0   0   0 # ohy
    166    1   2 -1.050000    15.122522436    10.918391449    26.604665404   0   0   0 # oby
    167    1   2 -1.050000    13.773594810     7.317058116    25.239708994   0   0   0 # oby
    168    1   2 -1.050000    15.630145549     9.117724783    24.753981607   0   0   0 # oby
    169    1   3  2.100000    13.661771921     6.145721449    26.323206068   0   0   0 # sty
    170    1   3  2.100000    16.116769872     9.747054783    26.159758329   0   0   0 # sty
    171    1   3  2.100000     7.594165790     1.800666667     2.854485691   0   0   0 # sty
    172    1   2 -1.050000    20.751580090     0.629330000    23.476801607   0   0   0 # oby
    173    1   2 -1.050000    20.243956977     4.230663333    21.626117810   0   0   0 # oby
    174    1   2 -1.050000    18.895029351     2.429996667    22.991074220   0   0   0 # oby
    175    1   2 -1.050000    22.698954928     4.772670000    22.352484220   0   0   0 # oby
    176    1   2 -1.050000    21.350027302     1.171336667    20.987527810   0   0   0 # oby
    177    1   2 -1.050000    23.206578041     2.972003333    20.501800424   0   0   0 # oby
    178    1   3  2.100000    21.238204413     0.000000000    22.071024885   0   0   0 # sty
    179    1   3  2.100000    23.693202364     3.601333333    21.907577146   0   0   0 # sty
    180    1   3  2.100000    14.747721002     7.946388116    24.115391607   0   0   0 # sty
    181    1   2 -1.050000    23.206578041     0.629330000    19.224620424   0   0   0 # oby
    182    1   2 -1.050000    22.698954928     4.230663333    17.373936627   0   0   0 # oby
    183    1   2 -1.050000    21.350027302     2.429996667    18.738893037   0   0   0 # oby
    184    1   2 -1.050000     0.603973371     4.772670000    18.100303037   0   0   0 # oby
    185    1   2 -1.050000    23.805025253     1.171336667    16.735346627   0   0   0 # oby
    186    1   2 -1.050000     1.111596484     2.972003333    16.249619241   0   0   0 # oby
    187    1   3  2.100000    23.693202364     0.000000000    17.818843702   0   0   0 # sty
    188    1   3  2.100000     1.598220807     3.601333333    17.655395963   0   0   0 # sty
    189    1   3  2.100000    22.324153494     1.800666667    19.863210424   0   0   0 # sty
    190    1   2 -1.050000     1.111596484     0.629330000    14.972439241   0   0   0 # oby
    191    1   2 -1.050000     0.603973371     4.230663333    13.121755444   0   0   0 # oby
    192    1   2 -1.050000    23.805025253     2.429996667    14.486711854   0   0   0 # oby
    193    1   2 -1.050000     3.058971322     4.772670000    13.848121854   0   0   0 # oby
    194    1   2 -1.050000     1.710043696     1.171336667    12.483165444   0   0   0 # oby
    195    1   2 -1.050000     3.566594435     2.972003333    11.997438058   0   0   0 # oby
    196    1   3  2.100000     1.598220807     0.000000000    13.566662518   0   0   0 # sty
    197    1   3  2.100000     4.053218758     3.601333333    13.403214780   0   0   0 # sty
    198    1   3  2.100000     0.229171938     1.800666667    15.611029241   0   0   0 # sty
    199    1   2 -1.050000     3.566594435     0.629330000    10.720258058   0   0   0 # oby
    200    1   2 -1.050000     3.058971322     4.230663333     8.869574261   0   0   0 # oby
    201    1   2 -1.050000     1.710043696     2.429996667    10.234530671   0   0   0 # oby
    202    1   2 -1.050000     5.513969272     4.772670000     9.595940671   0   0   0 # oby
    203    1   2 -1.050000     4.165041647     1.171336667     8.230984261   0   0   0 # oby
    204    1   2 -1.050000     6.021592386     2.972003333     7.745256874   0   0   0 # oby
    205    1   3  2.100000     4.053218758     0.000000000     9.314481335   0   0   0 # sty
    206    1   3  2.100000     6.508216708     3.601333333     9.151033597   0   0   0 # sty
    207    1   3  2.100000     2.684169888     1.800666667    11.358848058   0   0   0 # sty
    208    1   2 -1.050000     6.021592386     0.629330000     6.468076874   0   0   0 # oby
    209    1   2 -1.050000     5.513969272     4.230663333     4.617393078   0   0   0 # oby
    210    1   2 -1.050000     4.165041647     2.429996667     5.982349488   0   0   0 # oby
    211    1   2 -1.050000     7.968967223     4.772670000     5.343759488   0   0   0 # oby
    212    1   2 -1.050000     6.620039598     1.171336667     3.978803078   0   0   0 # oby
    213    1   2 -1.050000     8.476590337     2.972003333     3.493075691   0   0   0 # oby
    214    1   3  2.100000     6.508216708     0.000000000     5.062300152   0   0   0 # sty
    215    1   3  2.100000     8.963214659     3.601333333     4.898852413   0   0   0 # sty
    216    1   3  2.100000     5.139167839     1.800666667     7.106666874   0   0   0 # sty
    217    1   2 -1.050000     7.757528584    10.376384783    25.878298994   0   0   0 # oby
    218    1   1 -0.950000     6.408600958     8.575718116    27.243255404   0   0   0 # ohy
    219    1   2 -1.050000    10.212526534    10.918391449    26.604665404   0   0   0 # oby
    220    1   2 -1.165000     8.863598909     7.317058116    25.239708994   0   0   0 # oby
    221    1   2 -1.050000    10.720149648     9.117724783    24.753981607   0   0   0 # oby
    222    1   3  2.100000    11.206773970     9.747054783    26.159758329   0   0   0 # sty
    223    1   3  2.100000     2.684169888     1.800666667     2.854485691   0   0   0 # sty
    224    1   2 -1.050000    15.841584189     0.629330000    23.476801607   0   0   0 # oby
    225    1   2 -1.050000    15.333961075     4.230663333    21.626117810   0   0   0 # oby
    226    1   2 -1.050000    13.985033450     2.429996667    22.991074220   0   0   0 # oby
    227    1   2 -1.050000    17.788959026     4.772670000    22.352484220   0   0   0 # oby
    228    1   2 -1.050000    16.440031401     1.171336667    20.987527810   0   0   0 # oby
    229    1   2 -1.050000    18.296582139     2.972003333    20.501800424   0   0   0 # oby
    230    1   3  2.100000    16.328208511     0.000000000    22.071024885   0   0   0 # sty
    231    1   3  2.100000    18.783206462     3.601333333    21.907577146   0   0   0 # sty
    232    1   3  2.100000     9.837725101     7.946388116    24.115391607   0   0   0 # sty
    233    1   2 -1.050000    18.296582139     0.629330000    19.224620424   0   0   0 # oby
    234    1   2 -1.050000    17.788959026     4.230663333    17.373936627   0   0   0 # oby
    235    1   2 -1.050000    16.440031401     2.429996667    18.738893037   0   0   0 # oby
    236    1   2 -1.050000    20.243956977     4.772670000    18.100303037   0   0   0 # oby
    237    1   2 -1.050000    18.895029351     1.171336667    16.735346627   0   0   0 # oby
    238    1   2 -1.050000    20.751580090     2.972003333    16.249619241   0   0   0 # oby
    239    1   3  2.100000    18.783206462     0.000000000    17.818843702   0   0   0 # sty
    240    1   3  2.100000    21.238204413     3.601333333    17.655395963   0   0   0 # sty
    241    1   3  2.100000    17.414157593     1.800666667    19.863210424   0   0   0 # sty
    242    1   2 -1.050000    20.751580090     0.629330000    14.972439241   0   0   0 # oby
    243    1   2 -1.050000    20.243956977     4.230663333    13.121755444   0   0   0 # oby
    244    1   2 -1.050000    18.895029351     2.429996667    14.486711854   0   0   0 # oby
    245    1   2 -1.050000    22.698954928     4.772670000    13.848121854   0   0   0 # oby
    246    1   2 -1.050000    21.350027302     1.171336667    12.483165444   0   0   0 # oby
    247    1   2 -1.050000    23.206578041     2.972003333    11.997438058   0   0   0 # oby
    248    1   3  2.100000    21.238204413     0.000000000    13.566662518   0   0   0 # sty
    249    1   3  2.100000    23.693202364     3.601333333    13.403214780   0   0   0 # sty
    250    1   3  2.100000    19.869155543     1.800666667    15.611029241   0   0   0 # sty
    251    1   2 -1.050000    23.206578041     0.629330000    10.720258058   0   0   0 # oby
    252    1   2 -1.050000    22.698954928     4.230663333     8.869574261   0   0   0 # oby
    253    1   2 -1.050000    21.350027302     2.429996667    10.234530671   0   0   0 # oby
    254    1   2 -1.050000     0.603973371     4.772670000     9.595940671   0   0   0 # oby
    255    1   2 -1.050000    23.805025253     1.171336667     8.230984261   0   0   0 # oby
    256    1   2 -1.050000     1.111596484     2.972003333     7.745256874   0   0   0 # oby
    257    1   3  2.100000    23.693202364     0.000000000     9.314481335   0   0   0 # sty
    258    1   3  2.100000     1.598220807     3.601333333     9.151033597   0   0   0 # sty
    259    1   3  2.100000    22.324153494     1.800666667    11.358848058   0   0   0 # sty
    260    1   2 -1.050000     1.111596484     0.629330000     6.468076874   0   0   0 # oby
    261    1   2 -1.050000     0.603973371     4.230663333     4.617393078   0   0   0 # oby
    262    1   2 -1.050000    23.805025253     2.429996667     5.982349488   0   0   0 # oby
    263    1   2 -1.050000     3.058971322     4.772670000     5.343759488   0   0   0 # oby
    264    1   2 -1.050000     1.710043696     1.171336667     3.978803078   0   0   0 # oby
    265    1   2 -1.050000     3.566594435     2.972003333     3.493075691   0   0   0 # oby
    266    1   3  2.100000     1.598220807     0.000000000     5.062300152   0   0   0 # sty
    267    1   3  2.100000     4.053218758     3.601333333     4.898852413   0   0   0 # sty
    268    1   3  2.100000     0.229171938     1.800666667     7.106666874   0   0   0 # sty
    269    1   1 -0.950000     3.355155795    12.177051449    27.728982790   0   0   0 # ohy
    270    1   2 -1.050000     2.847532682    15.778384783    25.878298994   0   0   0 # oby
    271    1   1 -0.950000     1.498605057    13.977718116    27.243255404   0   0   0 # ohy
    272    1   2 -1.050000     5.302530633    16.320391449    26.604665404   0   0   0 # oby
    273    1   2 -1.050000     3.953603007    12.719058116    25.239708994   0   0   0 # oby
    274    1   2 -1.050000     5.810153746    14.519724783    24.753981607   0   0   0 # oby
    275    1   3  2.100000     3.841780118    11.547721449    26.323206068   0   0   0 # sty
    276    1   3  2.100000     6.296778069    15.149054783    26.159758329   0   0   0 # sty
    277    1   3  2.100000    22.324153494     7.202666667     2.854485691   0   0   0 # sty
    278    1   2 -1.050000    10.931588287     6.031330000    23.476801607   0   0   0 # oby
    279    1   2 -1.050000    10.423965174     9.632663333    21.626117810   0   0   0 # oby
    280    1   2 -1.050000     9.075037548     7.831996667    22.991074220   0   0   0 # oby
    281    1   2 -1.050000    12.878963125    10.174670000    22.352484220   0   0   0 # oby
    282    1   2 -1.050000    11.530035499     6.573336667    20.987527810   0   0   0 # oby
    283    1   2 -1.050000    13.386586238     8.374003333    20.501800424   0   0   0 # oby
    284    1   3  2.100000    11.418212610     5.402000000    22.071024885   0   0   0 # sty
    285    1   3  2.100000    13.873210561     9.003333333    21.907577146   0   0   0 # sty
    286    1   3  2.100000     4.927729199    13.348388116    24.115391607   0   0   0 # sty
    287    1   2 -1.050000    13.386586238     6.031330000    19.224620424   0   0   0 # oby
    288    1   2 -1.050000    12.878963125     9.632663333    17.373936627   0   0   0 # oby
    289    1   2 -1.050000    11.530035499     7.831996667    18.738893037   0   0   0 # oby
    290    1   2 -1.050000    15.333961075    10.174670000    18.100303037   0   0   0 # oby
    291    1   2 -1.050000    13.985033450     6.573336667    16.735346627   0   0   0 # oby
    292    1   2 -1.050000    15.841584189     8.374003333    16.249619241   0   0   0 # oby
    293    1   3  2.100000    13.873210561     5.402000000    17.818843702   0   0   0 # sty
    294    1   3  2.100000    16.328208511     9.003333333    17.655395963   0   0   0 # sty
    295    1   3  2.100000    12.504161691     7.202666667    19.863210424   0   0   0 # sty
    296    1   2 -1.050000    15.841584189     6.031330000    14.972439241   0   0   0 # oby
    297    1   2 -1.050000    15.333961075     9.632663333    13.121755444   0   0   0 # oby
    298    1   2 -1.050000    13.985033450     7.831996667    14.486711854   0   0   0 # oby
    299    1   2 -1.050000    17.788959026    10.174670000    13.848121854   0   0   0 # oby
    300    1   2 -1.050000    16.440031401     6.573336667    12.483165444   0   0   0 # oby
    301    1   2 -1.050000    18.296582139     8.374003333    11.997438058   0   0   0 # oby
    302    1   3  2.100000    16.328208511     5.402000000    13.566662518   0   0   0 # sty
    303    1   3  2.100000    18.783206462     9.003333333    13.403214780   0   0   0 # sty
    304    1   3  2.100000    14.959159642     7.202666667    15.611029241   0   0   0 # sty
    305    1   2 -1.050000    18.296582139     6.031330000    10.720258058   0   0   0 # oby
    306    1   2 -1.050000    17.788959026     9.632663333     8.869574261   0   0   0 # oby
    307    1   2 -1.050000    16.440031401     7.831996667    10.234530671   0   0   0 # oby
    308    1   2 -1.050000    20.243956977    10.174670000     9.595940671   0   0   0 # oby
    309    1   2 -1.050000    18.895029351     6.573336667     8.230984261   0   0   0 # oby
    310    1   2 -1.050000    20.751580090     8.374003333     7.745256874   0   0   0 # oby
    311    1   3  2.100000    18.783206462     5.402000000     9.314481335   0   0   0 # sty
    312    1   3  2.100000    21.238204413     9.003333333     9.151033597   0   0   0 # sty
    313    1   3  2.100000    17.414157593     7.202666667    11.358848058   0   0   0 # sty
    314    1   2 -1.050000    20.751580090     6.031330000     6.468076874   0   0   0 # oby
    315    1   2 -1.050000    20.243956977     9.632663333     4.617393078   0   0   0 # oby
    316    1   2 -1.050000    18.895029351     7.831996667     5.982349488   0   0   0 # oby
    317    1   2 -1.050000    22.698954928    10.174670000     5.343759488   0   0   0 # oby
    318    1   2 -1.050000    21.350027302     6.573336667     3.978803078   0   0   0 # oby
    319    1   2 -1.050000    23.206578041     8.374003333     3.493075691   0   0   0 # oby
    320    1   3  2.100000    21.238204413     5.402000000     5.062300152   0   0   0 # sty
    321    1   3  2.100000    23.693202364     9.003333333     4.898852413   0   0   0 # sty
    322    1   3  2.100000    19.869155543     7.202666667     7.106666874   0   0   0 # sty
    323    1   1 -0.950000    22.995139401    12.177051449    27.728982790   0   0   0 # ohy
    324    1   2 -1.165000    22.487516288    15.778384783    25.878298994   0   0   0 # oby
    325    1   2 -1.050000     0.392534731    16.320391449    26.604665404   0   0   0 # oby
    326    1   2 -1.050000    23.593586613    12.719058116    25.239708994   0   0   0 # oby
    327    1   2 -1.050000     0.900157845    14.519724783    24.753981607   0   0   0 # oby
    328    1   3  2.100000    23.481763724    11.547721449    26.323206068   0   0   0 # sty
    329    1   3  2.100000     1.386782167    15.149054783    26.159758329   0   0   0 # sty
    330    1   3  2.100000    17.414157593     7.202666667     2.854485691   0   0   0 # sty
    331    1   2 -1.050000     6.021592386     6.031330000    23.476801607   0   0   0 # oby
    332    1   2 -1.050000     5.513969272     9.632663333    21.626117810   0   0   0 # oby
    333    1   2 -1.050000     4.165041647     7.831996667    22.991074220   0   0   0 # oby
    334    1   2 -1.050000     7.968967223    10.174670000    22.352484220   0   0   0 # oby
    335    1   2 -1.050000     6.620039598     6.573336667    20.987527810   0   0   0 # oby
    336    1   2 -1.050000     8.476590337     8.374003333    20.501800424   0   0   0 # oby
    337    1   3  2.100000     6.508216708     5.402000000    22.071024885   0   0   0 # sty
    338    1   3  2.100000     8.963214659     9.003333333    21.907577146   0   0   0 # sty
    339    1   3  2.100000     0.017733298    13.348388116    24.115391607   0   0   0 # sty
    340    1   2 -1.050000     8.476590337     6.031330000    19.224620424   0   0   0 # oby
    341    1   2 -1.050000     7.968967223     9.632663333    17.373936627   0   0   0 # oby
    342    1   2 -1.050000     6.620039598     7.831996667    18.738893037   0   0   0 # oby
    343    1   2 -1.050000    10.423965174    10.174670000    18.100303037   0   0   0 # oby
    344    1   2 -1.050000     9.075037548     6.573336667    16.735346627   0   0   0 # oby
    345    1   2 -1.050000    10.931588287     8.374003333    16.249619241   0   0   0 # oby
    346    1   3  2.100000     8.963214659     5.402000000    17.818843702   0   0   0 # sty
    347    1   3  2.100000    11.418212610     9.003333333    17.655395963   0   0   0 # sty
    348    1   3  2.100000     7.594165790     7.202666667    19.863210424   0   0   0 # sty
    349    1   2 -1.050000    10.931588287     6.031330000    14.972439241   0   0   0 # oby
    350    1   2 -1.050000    10.423965174     9.632663333    13.121755444   0   0   0 # oby
    351    1   2 -1.050000     9.075037548     7.831996667    14.486711854   0   0   0 # oby
    352    1   2 -1.050000    12.878963125    10.174670000    13.848121854   0   0   0 # oby
    353    1   2 -1.050000    11.530035499     6.573336667    12.483165444   0   0   0 # oby
    354    1   2 -1.050000    13.386586238     8.374003333    11.997438058   0   0   0 # oby
    355    1   3  2.100000    11.418212610     5.402000000    13.566662518   0   0   0 # sty
    356    1   3  2.100000    13.873210561     9.003333333    13.403214780   0   0   0 # sty
    357    1   3  2.100000    10.049163741     7.202666667    15.611029241   0   0   0 # sty
    358    1   2 -1.050000    13.386586238     6.031330000    10.720258058   0   0   0 # oby
    359    1   2 -1.050000    12.878963125     9.632663333     8.869574261   0   0   0 # oby
    360    1   2 -1.050000    11.530035499     7.831996667    10.234530671   0   0   0 # oby
    361    1   2 -1.050000    15.333961075    10.174670000     9.595940671   0   0   0 # oby
    362    1   2 -1.050000    13.985033450     6.573336667     8.230984261   0   0   0 # oby
    363    1   2 -1.050000    15.841584189     8.374003333     7.745256874   0   0   0 # oby
    364    1   3  2.100000    13.873210561     5.402000000     9.314481335   0   0   0 # sty
    365    1   3  2.100000    16.328208511     9.003333333     9.151033597   0   0   0 # sty
    366    1   3  2.100000    12.504161691     7.202666667    11.358848058   0   0   0 # sty
    367    1   2 -1.050000    15.841584189     6.031330000     6.468076874   0   0   0 # oby
    368    1   2 -1.050000    15.333961075     9.632663333     4.617393078   0   0   0 # oby
    369    1   2 -1.050000    13.985033450     7.831996667     5.982349488   0   0   0 # oby
    370    1   2 -1.050000    17.788959026    10.174670000     5.343759488   0   0   0 # oby
    371    1   2 -1.050000    16.440031401     6.573336667     3.978803078   0   0   0 # oby
    372    1   2 -1.050000    18.296582139     8.374003333     3.493075691   0   0   0 # oby
    373    1   3  2.100000    16.328208511     5.402000000     5.062300152   0   0   0 # sty
    374    1   3  2.100000    18.783206462     9.003333333     4.898852413   0   0   0 # sty
    375    1   3  2.100000    14.959159642     7.202666667     7.106666874   0   0   0 # sty
    376    1   1 -0.950000    18.085143500    12.177051449    27.728982790   0   0   0 # ohy
    377    1   2 -1.050000    17.577520387    15.778384783    25.878298994   0   0   0 # oby
    378    1   1 -0.950000    16.228592761    13.977718116    27.243255404   0   0   0 # ohy
    379    1   2 -1.165000    20.032518337    16.320391449    26.604665404   0   0   0 # oby
    380    1   2 -1.050000    18.683590712    12.719058116    25.239708994   0   0   0 # oby
    381    1   2 -1.165000    20.540141451    14.519724783    24.753981607   0   0   0 # oby
    382    1   3  2.100000    18.571767822    11.547721449    26.323206068   0   0   0 # sty
    383    1   3  2.100000    12.504161691     7.202666667     2.854485691   0   0   0 # sty
    384    1   2 -1.050000     1.111596484     6.031330000    23.476801607   0   0   0 # oby
    385    1   2 -1.050000     0.603973371     9.632663333    21.626117810   0   0   0 # oby
    386    1   2 -1.050000    23.805025253     7.831996667    22.991074220   0   0   0 # oby
    387    1   2 -1.050000     3.058971322    10.174670000    22.352484220   0   0   0 # oby
    388    1   2 -1.050000     1.710043696     6.573336667    20.987527810   0   0   0 # oby
    389    1   2 -1.050000     3.566594435     8.374003333    20.501800424   0   0   0 # oby
    390    1   3  2.100000     1.598220807     5.402000000    22.071024885   0   0   0 # sty
    391    1   3  2.100000     4.053218758     9.003333333    21.907577146   0   0   0 # sty
    392    1   3  2.100000    19.657716904    13.348388116    24.115391607   0   0   0 # sty
    393    1   2 -1.050000     3.566594435     6.031330000    19.224620424   0   0   0 # oby
    394    1   2 -1.050000     3.058971322     9.632663333    17.373936627   0   0   0 # oby
    395    1   2 -1.050000     1.710043696     7.831996667    18.738893037   0   0   0 # oby
    396    1   2 -1.050000     5.513969272    10.174670000    18.100303037   0   0   0 # oby
    397    1   2 -1.050000     4.165041647     6.573336667    16.735346627   0   0   0 # oby
    398    1   2 -1.050000     6.021592386     8.374003333    16.249619241   0   0   0 # oby
    399    1   3  2.100000     4.053218758     5.402000000    17.818843702   0   0   0 # sty
    400    1   3  2.100000     6.508216708     9.003333333    17.655395963   0   0   0 # sty
    401    1   3  2.100000     2.684169888     7.202666667    19.863210424   0   0   0 # sty
    402    1   2 -1.050000     6.021592386     6.031330000    14.972439241   0   0   0 # oby
    403    1   2 -1.050000     5.513969272     9.632663333    13.121755444   0   0   0 # oby
    404    1   2 -1.050000     4.165041647     7.831996667    14.486711854   0   0   0 # oby
    405    1   2 -1.050000     7.968967223    10.174670000    13.848121854   0   0   0 # oby
    406    1   2 -1.050000     6.620039598     6.573336667    12.483165444   0   0   0 # oby
    407    1   2 -1.050000     8.476590337     8.374003333    11.997438058   0   0   0 # oby
    408    1   3  2.100000     6.508216708     5.402000000    13.566662518   0   0   0 # sty
    409    1   3  2.100000     8.963214659     9.003333333    13.403214780   0   0   0 # sty
    410    1   3  2.100000     5.139167839     7.202666667    15.611029241   0   0   0 # sty
    411    1   2 -1.050000     8.476590337     6.031330000    10.720258058   0   0   0 # oby
    412    1   2 -1.050000     7.968967223     9.632663333     8.869574261   0   0   0 # oby
    413    1   2 -1.050000     6.620039598     7.831996667    10.234530671   0   0   0 # oby
    414    1   2 -1.050000    10.423965174    10.174670000     9.595940671   0   0   0 # oby
    415    1   2 -1.050000     9.075037548     6.573336667     8.230984261   0   0   0 # oby
    416    1   2 -1.050000    10.931588287     8.374003333     7.745256874   0   0   0 # oby
    417    1   3  2.100000     8.963214659     5.402000000     9.314481335   0   0   0 # sty
    418    1   3  2.100000    11.418212610     9.003333333     9.151033597   0   0   0 # sty
    419    1   3  2.100000     7.594165790     7.202666667    11.358848058   0   0   0 # sty
    420    1   2 -1.050000    10.931588287     6.031330000     6.468076874   0   0   0 # oby
    421    1   2 -1.050000    10.423965174     9.632663333     4.617393078   0   0   0 # oby
    422    1   2 -1.050000     9.075037548     7.831996667     5.982349488   0   0   0 # oby
    423    1   2 -1.050000    12.878963125    10.174670000     5.343759488   0   0   0 # oby
    424    1   2 -1.050000    11.530035499     6.573336667     3.978803078   0   0   0 # oby
    425    1   2 -1.050000    13.386586238     8.374003333     3.493075691   0   0   0 # oby
    426    1   3  2.100000    11.418212610     5.402000000     5.062300152   0   0   0 # sty
    427    1   3  2.100000    13.873210561     9.003333333     4.898852413   0   0   0 # sty
    428    1   3  2.100000    10.049163741     7.202666667     7.106666874   0   0   0 # sty
    429    1   1 -0.950000    13.175147598    12.177051449    27.728982790   0   0   0 # ohy
    430    1   2 -1.050000    12.667524485    15.778384783    25.878298994   0   0   0 # oby
    431    1   1 -0.950000    11.318596860    13.977718116    27.243255404   0   0   0 # ohy
    432    1   2 -1.050000    15.122522436    16.320391449    26.604665404   0   0   0 # oby
    433    1   2 -1.050000    13.773594810    12.719058116    25.239708994   0   0   0 # oby
    434    1   2 -1.050000    15.630145549    14.519724783    24.753981607   0   0   0 # oby
    435    1   3  2.100000    13.661771921    11.547721449    26.323206068   0   0   0 # sty
    436    1   3  2.100000    16.116769872    15.149054783    26.159758329   0   0   0 # sty
    437    1   3  2.100000     7.594165790     7.202666667     2.854485691   0   0   0 # sty
    438    1   2 -1.050000    20.751580090     6.031330000    23.476801607   0   0   0 # oby
    439    1   2 -1.050000    20.243956977     9.632663333    21.626117810   0   0   0 # oby
    440    1   2 -1.050000    18.895029351     7.831996667    22.991074220   0   0   0 # oby
    441    1   2 -1.050000    22.698954928    10.174670000    22.352484220   0   0   0 # oby
    442    1   2 -1.050000    21.350027302     6.573336667    20.987527810   0   0   0 # oby
    443    1   2 -1.050000    23.206578041     8.374003333    20.501800424   0   0   0 # oby
    444    1   3  2.100000    21.238204413     5.402000000    22.071024885   0   0   0 # sty
    445    1   3  2.100000    23.693202364     9.003333333    21.907577146   0   0   0 # sty
    446    1   3  2.100000    14.747721002    13.348388116    24.115391607   0   0   0 # sty
    447    1   2 -1.050000    23.206578041     6.031330000    19.224620424   0   0   0 # oby
    448    1   2 -1.050000    22.698954928     9.632663333    17.373936627   0   0   0 # oby
    449    1   2 -1.050000    21.350027302     7.831996667    18.738893037   0   0   0 # oby
    450    1   2 -1.050000     0.603973371    10.174670000    18.100303037   0   0   0 # oby
    451    1   2 -1.050000    23.805025253     6.573336667    16.735346627   0   0   0 # oby
    452    1   2 -1.050000     1.111596484     8.374003333    16.249619241   0   0   0 # oby
    453    1   3  2.100000    23.693202364     5.402000000    17.818843702   0   0   0 # sty
    454    1   3  2.100000     1.598220807     9.003333333    17.655395963   0   0   0 # sty
    455    1   3  2.100000    22.324153494     7.202666667    19.863210424   0   0   0 # sty
    456    1   2 -1.050000     1.111596484     6.031330000    14.972439241   0   0   0 # oby
    457    1   2 -1.050000     0.603973371     9.632663333    13.121755444   0   0   0 # oby
    458    1   2 -1.050000    23.805025253     7.831996667    14.486711854   0   0   0 # oby
    459    1   2 -1.050000     3.058971322    10.174670000    13.848121854   0   0   0 # oby
    460    1   2 -1.050000     1.710043696     6.573336667    12.483165444   0   0   0 # oby
    461    1   2 -1.050000     3.566594435     8.374003333    11.997438058   0   0   0 # oby
    462    1   3  2.100000     1.598220807     5.402000000    13.566662518   0   0   0 # sty
    463    1   3  2.100000     4.053218758     9.003333333    13.403214780   0   0   0 # sty
    464    1   3  2.100000     0.229171938     7.202666667    15.611029241   0   0   0 # sty
    465    1   2 -1.050000     3.566594435     6.031330000    10.720258058   0   0   0 # oby
    466    1   2 -1.050000     3.058971322     9.632663333     8.869574261   0   0   0 # oby
    467    1   2 -1.050000     1.710043696     7.831996667    10.234530671   0   0   0 # oby
    468    1   2 -1.050000     5.513969272    10.174670000     9.595940671   0   0   0 # oby
    469    1   2 -1.050000     4.165041647     6.573336667     8.230984261   0   0   0 # oby
    470    1   2 -1.050000     6.021592386     8.374003333     7.745256874   0   0   0 # oby
    471    1   3  2.100000     4.053218758     5.402000000     9.314481335   0   0   0 # sty
    472    1   3  2.100000     6.508216708     9.003333333     9.151033597   0   0   0 # sty
    473    1   3  2.100000     2.684169888     7.202666667    11.358848058   0   0   0 # sty
    474    1   2 -1.050000     6.021592386     6.031330000     6.468076874   0   0   0 # oby
    475    1   2 -1.050000     5.513969272     9.632663333     4.617393078   0   0   0 # oby
    476    1   2 -1.050000     4.165041647     7.831996667     5.982349488   0   0   0 # oby
    477    1   2 -1.050000     7.968967223    10.174670000     5.343759488   0   0   0 # oby
    478    1   2 -1.050000     6.620039598     6.573336667     3.978803078   0   0   0 # oby
    479    1   2 -1.050000     8.476590337     8.374003333     3.493075691   0   0   0 # oby
    480    1   3  2.100000     6.508216708     5.402000000     5.062300152   0   0   0 # sty
    481    1   3  2.100000     8.963214659     9.003333333     4.898852413   0   0   0 # sty
    482    1   3  2.100000     5.139167839     7.202666667     7.106666874   0   0   0 # sty
    483    1   1 -0.950000     8.265151697    12.177051449    27.728982790   0   0   0 # ohy
    484    1   2 -1.050000     7.757528584    15.778384783    25.878298994   0   0   0 # oby
    485    1   1 -0.950000     6.408600958    13.977718116    27.243255404   0   0   0 # ohy
    486    1   2 -1.050000    10.212526534    16.320391449    26.604665404   0   0   0 # oby
    487    1   2 -1.050000     8.863598909    12.719058116    25.239708994   0   0   0 # oby
    488    1   2 -1.050000    10.720149648    14.519724783    24.753981607   0   0   0 # oby
    489    1   3  2.100000     8.751776020    11.547721449    26.323206068   0   0   0 # sty
    490    1   3  2.100000    11.206773970    15.149054783    26.159758329   0   0   0 # sty
    491    1   3  2.100000     2.684169888     7.202666667     2.854485691   0   0   0 # sty
    492    1   2 -1.050000    15.841584189     6.031330000    23.476801607   0   0   0 # oby
    493    1   2 -1.050000    15.333961075     9.632663333    21.626117810   0   0   0 # oby
    494    1   2 -1.050000    13.985033450     7.831996667    22.991074220   0   0   0 # oby
    495    1   2 -1.050000    17.788959026    10.174670000    22.352484220   0   0   0 # oby
    496    1   2 -1.050000    16.440031401     6.573336667    20.987527810   0   0   0 # oby
    497    1   2 -1.050000    18.296582139     8.374003333    20.501800424   0   0   0 # oby
    498    1   3  2.100000    16.328208511     5.402000000    22.071024885   0   0   0 # sty
    499    1   3  2.100000    18.783206462     9.003333333    21.907577146   0   0   0 # sty
    500    1   3  2.100000     9.837725101    13.348388116    24.115391607   0   0   0 # sty
    501    1   2 -1.050000    18.296582139     6.031330000    19.224620424   0   0   0 # oby
    502    1   2 -1.050000    17.788959026     9.632663333    17.373936627   0   0   0 # oby
    503    1   2 -1.050000    16.440031401     7.831996667    18.738893037   0   0   0 # oby
    504    1   2 -1.050000    20.243956977    10.174670000    18.100303037   0   0   0 # oby
    505    1   2 -1.050000    18.895029351     6.573336667    16.735346627   0   0   0 # oby
    506    1   2 -1.050000    20.751580090     8.374003333    16.249619241   0   0   0 # oby
    507    1   3  2.100000    18.783206462     5.402000000    17.818843702   0   0   0 # sty
    508    1   3  2.100000    21.238204413     9.003333333    17.655395963   0   0   0 # sty
    509    1   3  2.100000    17.414157593     7.202666667    19.863210424   0   0   0 # sty
    510    1   2 -1.050000    20.751580090     6.031330000    14.972439241   0   0   0 # oby
    511    1   2 -1.050000    20.243956977     9.632663333    13.121755444   0   0   0 # oby
    512    1   2 -1.050000    18.895029351     7.831996667    14.486711854   0   0   0 # oby
    513    1   2 -1.050000    22.698954928    10.174670000    13.848121854   0   0   0 # oby
    514    1   2 -1.050000    21.350027302     6.573336667    12.483165444   0   0   0 # oby
    515    1   2 -1.050000    23.206578041     8.374003333    11.997438058   0   0   0 # oby
    516    1   3  2.100000    21.238204413     5.402000000    13.566662518   0   0   0 # sty
    517    1   3  2.100000    23.693202364     9.003333333    13.403214780   0   0   0 # sty
    518    1   3  2.100000    19.869155543     7.202666667    15.611029241   0   0   0 # sty
    519    1   2 -1.050000    23.206578041     6.031330000    10.720258058   0   0   0 # oby
    520    1   2 -1.050000    22.698954928     9.632663333     8.869574261   0   0   0 # oby
    521    1   2 -1.050000    21.350027302     7.831996667    10.234530671   0   0   0 # oby
    522    1   2 -1.050000     0.603973371    10.174670000     9.595940671   0   0   0 # oby
    523    1   2 -1.050000    23.805025253     6.573336667     8.230984261   0   0   0 # oby
    524    1   2 -1.050000     1.111596484     8.374003333     7.745256874   0   0   0 # oby
    525    1   3  2.100000    23.693202364     5.402000000     9.314481335   0   0   0 # sty
    526    1   3  2.100000     1.598220807     9.003333333     9.151033597   0   0   0 # sty
    527    1   3  2.100000    22.324153494     7.202666667    11.358848058   0   0   0 # sty
    528    1   2 -1.050000     1.111596484     6.031330000     6.468076874   0   0   0 # oby
    529    1   2 -1.050000     0.603973371     9.632663333     4.617393078   0   0   0 # oby
    530    1   2 -1.050000    23.805025253     7.831996667     5.982349488   0   0   0 # oby
    531    1   2 -1.050000     3.058971322    10.174670000     5.343759488   0   0   0 # oby
    532    1   2 -1.050000     1.710043696     6.573336667     3.978803078   0   0   0 # oby
    533    1   2 -1.050000     3.566594435     8.374003333     3.493075691   0   0   0 # oby
    534    1   3  2.100000     1.598220807     5.402000000     5.062300152   0   0   0 # sty
    535    1   3  2.100000     4.053218758     9.003333333     4.898852413   0   0   0 # sty
    536    1   3  2.100000     0.229171938     7.202666667     7.106666874   0   0   0 # sty
    537    1   1 -0.950000     3.355155795    17.579051449    27.728982790   0   0   0 # ohy
    538    1   2 -1.050000     2.847532682    21.180384783    25.878298994   0   0   0 # oby
    539    1   1 -0.950000     1.498605057    19.379718116    27.243255404   0   0   0 # ohy
    540    1   2 -1.050000     3.953603007    18.121058116    25.239708994   0   0   0 # oby
    541    1   3  2.100000     3.841780118    16.949721449    26.323206068   0   0   0 # sty
    542    1   3  2.100000    22.324153494    12.604666667     2.854485691   0   0   0 # sty
    543    1   2 -1.050000    10.931588287    11.433330000    23.476801607   0   0   0 # oby
    544    1   2 -1.050000    10.423965174    15.034663333    21.626117810   0   0   0 # oby
    545    1   2 -1.050000     9.075037548    13.233996667    22.991074220   0   0   0 # oby
    546    1   2 -1.050000    12.878963125    15.576670000    22.352484220   0   0   0 # oby
    547    1   2 -1.050000    11.530035499    11.975336667    20.987527810   0   0   0 # oby
    548    1   2 -1.050000    13.386586238    13.776003333    20.501800424   0   0   0 # oby
    549    1   3  2.100000    11.418212610    10.804000000    22.071024885   0   0   0 # sty
    550    1   3  2.100000    13.873210561    14.405333333    21.907577146   0   0   0 # sty
    551    1   3  2.100000     4.927729199    18.750388116    24.115391607   0   0   0 # sty
    552    1   2 -1.050000    13.386586238    11.433330000    19.224620424   0   0   0 # oby
    553    1   2 -1.050000    12.878963125    15.034663333    17.373936627   0   0   0 # oby
    554    1   2 -1.050000    11.530035499    13.233996667    18.738893037   0   0   0 # oby
    555    1   2 -1.050000    15.333961075    15.576670000    18.100303037   0   0   0 # oby
    556    1   2 -1.050000    13.985033450    11.975336667    16.735346627   0   0   0 # oby
    557    1   2 -1.050000    15.841584189    13.776003333    16.249619241   0   0   0 # oby
    558    1   3  2.100000    13.873210561    10.804000000    17.818843702   0   0   0 # sty
    559    1   3  2.100000    16.328208511    14.405333333    17.655395963   0   0   0 # sty
    560    1   3  2.100000    12.504161691    12.604666667    19.863210424   0   0   0 # sty
    561    1   2 -1.050000    15.841584189    11.433330000    14.972439241   0   0   0 # oby
    562    1   2 -1.050000    15.333961075    15.034663333    13.121755444   0   0   0 # oby
    563    1   2 -1.050000    13.985033450    13.233996667    14.486711854   0   0   0 # oby
    564    1   2 -1.050000    17.788959026    15.576670000    13.848121854   0   0   0 # oby
    565    1   2 -1.050000    16.440031401    11.975336667    12.483165444   0   0   0 # oby
    566    1   2 -1.050000    18.296582139    13.776003333    11.997438058   0   0   0 # oby
    567    1   3  2.100000    16.328208511    10.804000000    13.566662518   0   0   0 # sty
    568    1   3  2.100000    18.783206462    14.405333333    13.403214780   0   0   0 # sty
    569    1   3  2.100000    14.959159642    12.604666667    15.611029241   0   0   0 # sty
    570    1   2 -1.050000    18.296582139    11.433330000    10.720258058   0   0   0 # oby
    571    1   2 -1.050000    17.788959026    15.034663333     8.869574261   0   0   0 # oby
    572    1   2 -1.050000    16.440031401    13.233996667    10.234530671   0   0   0 # oby
    573    1   2 -1.050000    20.243956977    15.576670000     9.595940671   0   0   0 # oby
    574    1   2 -1.050000    18.895029351    11.975336667     8.230984261   0   0   0 # oby
    575    1   2 -1.050000    20.751580090    13.776003333     7.745256874   0   0   0 # oby
    576    1   3  2.100000    18.783206462    10.804000000     9.314481335   0   0   0 # sty
    577    1   3  2.100000    21.238204413    14.405333333     9.151033597   0   0   0 # sty
    578    1   3  2.100000    17.414157593    12.604666667    11.358848058   0   0   0 # sty
    579    1   2 -1.050000    20.751580090    11.433330000     6.468076874   0   0   0 # oby
    580    1   2 -1.050000    20.243956977    15.034663333     4.617393078   0   0   0 # oby
    581    1   2 -1.050000    18.895029351    13.233996667     5.982349488   0   0   0 # oby
    582    1   2 -1.050000    22.698954928    15.576670000     5.343759488   0   0   0 # oby
    583    1   2 -1.050000    21.350027302    11.975336667     3.978803078   0   0   0 # oby
    584    1   2 -1.050000    23.206578041    13.776003333     3.493075691   0   0   0 # oby
    585    1   3  2.100000    21.238204413    10.804000000     5.062300152   0   0   0 # sty
    586    1   3  2.100000    23.693202364    14.405333333     4.898852413   0   0   0 # sty
    587    1   3  2.100000    19.869155543    12.604666667     7.106666874   0   0   0 # sty
    588    1   1 -0.950000    22.995139401    17.579051449    27.728982790   0   0   0 # ohy
    589    1   2 -1.050000    22.487516288    21.180384783    25.878298994   0   0   0 # oby
    590    1   1 -0.950000    21.138588662    19.379718116    27.243255404   0   0   0 # ohy
    591    1   2 -1.050000     0.392534731    21.722391449    26.604665404   0   0   0 # oby
    592    1   2 -1.050000    23.593586613    18.121058116    25.239708994   0   0   0 # oby
    593    1   2 -1.050000     0.900157845    19.921724783    24.753981607   0   0   0 # oby
    594    1   3  2.100000    23.481763724    16.949721449    26.323206068   0   0   0 # sty
    595    1   3  2.100000     1.386782167    20.551054783    26.159758329   0   0   0 # sty
    596    1   3  2.100000    17.414157593    12.604666667     2.854485691   0   0   0 # sty
    597    1   2 -1.050000     6.021592386    11.433330000    23.476801607   0   0   0 # oby
    598    1   2 -1.050000     5.513969272    15.034663333    21.626117810   0   0   0 # oby
    599    1   2 -1.050000     4.165041647    13.233996667    22.991074220   0   0   0 # oby
    600    1   2 -1.050000     7.968967223    15.576670000    22.352484220   0   0   0 # oby
    601    1   2 -1.050000     6.620039598    11.975336667    20.987527810   0   0   0 # oby
    602    1   2 -1.050000     8.476590337    13.776003333    20.501800424   0   0   0 # oby
    603    1   3  2.100000     6.508216708    10.804000000    22.071024885   0   0   0 # sty
    604    1   3  2.100000     8.963214659    14.405333333    21.907577146   0   0   0 # sty
    605    1   3  2.100000     0.017733298    18.750388116    24.115391607   0   0   0 # sty
    606    1   2 -1.050000     8.476590337    11.433330000    19.224620424   0   0   0 # oby
    607    1   2 -1.050000     7.968967223    15.034663333    17.373936627   0   0   0 # oby
    608    1   2 -1.050000     6.620039598    13.233996667    18.738893037   0   0   0 # oby
    609    1   2 -1.050000    10.423965174    15.576670000    18.100303037   0   0   0 # oby
    610    1   2 -1.050000     9.075037548    11.975336667    16.735346627   0   0   0 # oby
    611    1   2 -1.050000    10.931588287    13.776003333    16.249619241   0   0   0 # oby
    612    1   3  2.100000     8.963214659    10.804000000    17.818843702   0   0   0 # sty
    613    1   3  2.100000    11.418212610    14.405333333    17.655395963   0   0   0 # sty
    614    1   3  2.100000     7.594165790    12.604666667    19.863210424   0   0   0 # sty
    615    1   2 -1.050000    10.931588287    11.433330000    14.972439241   0   0   0 # oby
    616    1   2 -1.050000    10.423965174    15.034663333    13.121755444   0   0   0 # oby
    617    1   2 -1.050000     9.075037548    13.233996667    14.486711854   0   0   0 # oby
    618    1   2 -1.050000    12.878963125    15.576670000    13.848121854   0   0   0 # oby
    619    1   2 -1.050000    11.530035499    11.975336667    12.483165444   0   0   0 # oby
    620    1   2 -1.050000    13.386586238    13.776003333    11.997438058   0   0   0 # oby
    621    1   3  2.100000    11.418212610    10.804000000    13.566662518   0   0   0 # sty
    622    1   3  2.100000    13.873210561    14.405333333    13.403214780   0   0   0 # sty
    623    1   3  2.100000    10.049163741    12.604666667    15.611029241   0   0   0 # sty
    624    1   2 -1.050000    13.386586238    11.433330000    10.720258058   0   0   0 # oby
    625    1   2 -1.050000    12.878963125    15.034663333     8.869574261   0   0   0 # oby
    626    1   2 -1.050000    11.530035499    13.233996667    10.234530671   0   0   0 # oby
    627    1   2 -1.050000    15.333961075    15.576670000     9.595940671   0   0   0 # oby
    628    1   2 -1.050000    13.985033450    11.975336667     8.230984261   0   0   0 # oby
    629    1   2 -1.050000    15.841584189    13.776003333     7.745256874   0   0   0 # oby
    630    1   3  2.100000    13.873210561    10.804000000     9.314481335   0   0   0 # sty
    631    1   3  2.100000    16.328208511    14.405333333     9.151033597   0   0   0 # sty
    632    1   3  2.100000    12.504161691    12.604666667    11.358848058   0   0   0 # sty
    633    1   2 -1.050000    15.841584189    11.433330000     6.468076874   0   0   0 # oby
    634    1   2 -1.050000    15.333961075    15.034663333     4.617393078   0   0   0 # oby
    635    1   2 -1.050000    13.985033450    13.233996667     5.982349488   0   0   0 # oby
    636    1   2 -1.050000    17.788959026    15.576670000     5.343759488   0   0   0 # oby
    637    1   2 -1.050000    16.440031401    11.975336667     3.978803078   0   0   0 # oby
    638    1   2 -1.050000    18.296582139    13.776003333     3.493075691   0   0   0 # oby
    639    1   3  2.100000    16.328208511    10.804000000     5.062300152   0   0   0 # sty
    640    1   3  2.100000    18.783206462    14.405333333     4.898852413   0   0   0 # sty
    641    1   3  2.100000    14.959159642    12.604666667     7.106666874   0   0   0 # sty
    642    1   1 -0.950000    18.085143500    17.579051449    27.728982790   0   0   0 # ohy
    643    1   2 -1.050000    17.577520387    21.180384783    25.878298994   0   0   0 # oby
    644    1   1 -0.950000    16.228592761    19.379718116    27.243255404   0   0   0 # ohy
    645    1   2 -1.050000    20.032518337    21.722391449    26.604665404   0   0   0 # oby
    646    1   2 -1.050000    18.683590712    18.121058116    25.239708994   0   0   0 # oby
    647    1   2 -1.050000    20.540141451    19.921724783    24.753981607   0   0   0 # oby
    648    1   3  2.100000    18.571767822    16.949721449    26.323206068   0   0   0 # sty
    649    1   3  2.100000    21.026765773    20.551054783    26.159758329   0   0   0 # sty
    650    1   3  2.100000    12.504161691    12.604666667     2.854485691   0   0   0 # sty
    651    1   2 -1.050000     1.111596484    11.433330000    23.476801607   0   0   0 # oby
    652    1   2 -1.050000     0.603973371    15.034663333    21.626117810   0   0   0 # oby
    653    1   2 -1.050000    23.805025253    13.233996667    22.991074220   0   0   0 # oby
    654    1   2 -1.050000     3.058971322    15.576670000    22.352484220   0   0   0 # oby
    655    1   2 -1.050000     1.710043696    11.975336667    20.987527810   0   0   0 # oby
    656    1   2 -1.050000     3.566594435    13.776003333    20.501800424   0   0   0 # oby
    657    1   3  2.100000     1.598220807    10.804000000    22.071024885   0   0   0 # sty
    658    1   3  2.100000     4.053218758    14.405333333    21.907577146   0   0   0 # sty
    659    1   3  2.100000    19.657716904    18.750388116    24.115391607   0   0   0 # sty
    660    1   2 -1.050000     3.566594435    11.433330000    19.224620424   0   0   0 # oby
    661    1   2 -1.050000     3.058971322    15.034663333    17.373936627   0   0   0 # oby
    662    1   2 -1.050000     1.710043696    13.233996667    18.738893037   0   0   0 # oby
    663    1   2 -1.050000     5.513969272    15.576670000    18.100303037   0   0   0 # oby
    664    1   2 -1.050000     4.165041647    11.975336667    16.735346627   0   0   0 # oby
    665    1   2 -1.050000     6.021592386    13.776003333    16.249619241   0   0   0 # oby
    666    1   3  2.100000     4.053218758    10.804000000    17.818843702   0   0   0 # sty
    667    1   3  2.100000     6.508216708    14.405333333    17.655395963   0   0   0 # sty
    668    1   3  2.100000     2.684169888    12.604666667    19.863210424   0   0   0 # sty
    669    1   2 -1.050000     6.021592386    11.433330000    14.972439241   0   0   0 # oby
    670    1   2 -1.050000     5.513969272    15.034663333    13.121755444   0   0   0 # oby
    671    1   2 -1.050000     4.165041647    13.233996667    14.486711854   0   0   0 # oby
    672    1   2 -1.050000     7.968967223    15.576670000    13.848121854   0   0   0 # oby
    673    1   2 -1.050000     6.620039598    11.975336667    12.483165444   0   0   0 # oby
    674    1   2 -1.050000     8.476590337    13.776003333    11.997438058   0   0   0 # oby
    675    1   3  2.100000     6.508216708    10.804000000    13.566662518   0   0   0 # sty
    676    1   3  2.100000     8.963214659    14.405333333    13.403214780   0   0   0 # sty
    677    1   3  2.100000     5.139167839    12.604666667    15.611029241   0   0   0 # sty
    678    1   2 -1.050000     8.476590337    11.433330000    10.720258058   0   0   0 # oby
    679    1   2 -1.050000     7.968967223    15.034663333     8.869574261   0   0   0 # oby
    680    1   2 -1.050000     6.620039598    13.233996667    10.234530671   0   0   0 # oby
    681    1   2 -1.050000    10.423965174    15.576670000     9.595940671   0   0   0 # oby
    682    1   2 -1.050000     9.075037548    11.975336667     8.230984261   0   0   0 # oby
    683    1   2 -1.050000    10.931588287    13.776003333     7.745256874   0   0   0 # oby
    684    1   3  2.100000     8.963214659    10.804000000     9.314481335   0   0   0 # sty
    685    1   3  2.100000    11.418212610    14.405333333     9.151033597   0   0   0 # sty
    686    1   3  2.100000     7.594165790    12.604666667    11.358848058   0   0   0 # sty
    687    1   2 -1.050000    10.931588287    11.433330000     6.468076874   0   0   0 # oby
    688    1   2 -1.050000    10.423965174    15.034663333     4.617393078   0   0   0 # oby
    689    1   2 -1.050000     9.075037548    13.233996667     5.982349488   0   0   0 # oby
    690    1   2 -1.050000    12.878963125    15.576670000     5.343759488   0   0   0 # oby
    691    1   2 -1.050000    11.530035499    11.975336667     3.978803078   0   0   0 # oby
    692    1   2 -1.050000    13.386586238    13.776003333     3.493075691   0   0   0 # oby
    693    1   3  2.100000    11.418212610    10.804000000     5.062300152   0   0   0 # sty
    694    1   3  2.100000    13.873210561    14.405333333     4.898852413   0   0   0 # sty
    695    1   3  2.100000    10.049163741    12.604666667     7.106666874   0   0   0 # sty
    696    1   1 -0.950000    13.175147598    17.579051449    27.728982790   0   0   0 # ohy
    697    1   2 -1.050000    12.667524485    21.180384783    25.878298994   0   0   0 # oby
    698    1   1 -0.950000    11.318596860    19.379718116    27.243255404   0   0   0 # ohy
    699    1   2 -1.050000    15.122522436    21.722391449    26.604665404   0   0   0 # oby
    700    1   2 -1.050000    13.773594810    18.121058116    25.239708994   0   0   0 # oby
    701    1   2 -1.050000    15.630145549    19.921724783    24.753981607   0   0   0 # oby
    702    1   3  2.100000    13.661771921    16.949721449    26.323206068   0   0   0 # sty
    703    1   3  2.100000    16.116769872    20.551054783    26.159758329   0   0   0 # sty
    704    1   3  2.100000     7.594165790    12.604666667     2.854485691   0   0   0 # sty
    705    1   2 -1.050000    20.751580090    11.433330000    23.476801607   0   0   0 # oby
    706    1   2 -1.050000    20.243956977    15.034663333    21.626117810   0   0   0 # oby
    707    1   2 -1.050000    18.895029351    13.233996667    22.991074220   0   0   0 # oby
    708    1   2 -1.050000    22.698954928    15.576670000    22.352484220   0   0   0 # oby
    709    1   2 -1.050000    21.350027302    11.975336667    20.987527810   0   0   0 # oby
    710    1   2 -1.050000    23.206578041    13.776003333    20.501800424   0   0   0 # oby
    711    1   3  2.100000    21.238204413    10.804000000    22.071024885   0   0   0 # sty
    712    1   3  2.100000    23.693202364    14.405333333    21.907577146   0   0   0 # sty
    713    1   3  2.100000    14.747721002    18.750388116    24.115391607   0   0   0 # sty
    714    1   2 -1.050000    23.206578041    11.433330000    19.224620424   0   0   0 # oby
    715    1   2 -1.050000    22.698954928    15.034663333    17.373936627   0   0   0 # oby
    716    1   2 -1.050000    21.350027302    13.233996667    18.738893037   0   0   0 # oby
    717    1   2 -1.050000     0.603973371    15.576670000    18.100303037   0   0   0 # oby
    718    1   2 -1.050000    23.805025253    11.975336667    16.735346627   0   0   0 # oby
    719    1   2 -1.050000     1.111596484    13.776003333    16.249619241   0   0   0 # oby
    720    1   3  2.100000    23.693202364    10.804000000    17.818843702   0   0   0 # sty
    721    1   3  2.100000     1.598220807    14.405333333    17.655395963   0   0   0 # sty
    722    1   3  2.100000    22.324153494    12.604666667    19.863210424   0   0   0 # sty
    723    1   2 -1.050000     1.111596484    11.433330000    14.972439241   0   0   0 # oby
    724    1   2 -1.050000     0.603973371    15.034663333    13.121755444   0   0   0 # oby
    725    1   2 -1.050000    23.805025253    13.233996667    14.486711854   0   0   0 # oby
    726    1   2 -1.050000     3.058971322    15.576670000    13.848121854   0   0   0 # oby
    727    1   2 -1.050000     1.710043696    11.975336667    12.483165444   0   0   0 # oby
    728    1   2 -1.050000     3.566594435    13.776003333    11.997438058   0   0   0 # oby
    729    1   3  2.100000     1.598220807    10.804000000    13.566662518   0   0   0 # sty
    730    1   3  2.100000     4.053218758    14.405333333    13.403214780   0   0   0 # sty
    731    1   3  2.100000     0.229171938    12.604666667    15.611029241   0   0   0 # sty
    732    1   2 -1.050000     3.566594435    11.433330000    10.720258058   0   0   0 # oby
    733    1   2 -1.050000     3.058971322    15.034663333     8.869574261   0   0   0 # oby
    734    1   2 -1.050000     1.710043696    13.233996667    10.234530671   0   0   0 # oby
    735    1   2 -1.050000     5.513969272    15.576670000     9.595940671   0   0   0 # oby
    736    1   2 -1.050000     4.165041647    11.975336667     8.230984261   0   0   0 # oby
    737    1   2 -1.050000     6.021592386    13.776003333     7.745256874   0   0   0 # oby
    738    1   3  2.100000     4.053218758    10.804000000     9.314481335   0   0   0 # sty
    739    1   3  2.100000     6.508216708    14.405333333     9.151033597   0   0   0 # sty
    740    1   3  2.100000     2.684169888    12.604666667    11.358848058   0   0   0 # sty
    741    1   2 -1.050000     6.021592386    11.433330000     6.468076874   0   0   0 # oby
    742    1   2 -1.050000     5.513969272    15.034663333     4.617393078   0   0   0 # oby
    743    1   2 -1.050000     4.165041647    13.233996667     5.982349488   0   0   0 # oby
    744    1   2 -1.050000     7.968967223    15.576670000     5.343759488   0   0   0 # oby
    745    1   2 -1.050000     6.620039598    11.975336667     3.978803078   0   0   0 # oby
    746    1   2 -1.050000     8.476590337    13.776003333     3.493075691   0   0   0 # oby
    747    1   3  2.100000     6.508216708    10.804000000     5.062300152   0   0   0 # sty
    748    1   3  2.100000     8.963214659    14.405333333     4.898852413   0   0   0 # sty
    749    1   3  2.100000     5.139167839    12.604666667     7.106666874   0   0   0 # sty
    750    1   1 -0.950000     8.265151697    17.579051449    27.728982790   0   0   0 # ohy
    751    1   2 -1.050000    10.212526534    21.722391449    26.604665404   0   0   0 # oby
    752    1   2 -1.050000     8.863598909    18.121058116    25.239708994   0   0   0 # oby
    753    1   2 -1.050000    10.720149648    19.921724783    24.753981607   0   0   0 # oby
    754    1   3  2.100000     8.751776020    16.949721449    26.323206068   0   0   0 # sty
    755    1   3  2.100000    11.206773970    20.551054783    26.159758329   0   0   0 # sty
    756    1   3  2.100000     2.684169888    12.604666667     2.854485691   0   0   0 # sty
    757    1   2 -1.050000    15.841584189    11.433330000    23.476801607   0   0   0 # oby
    758    1   2 -1.050000    15.333961075    15.034663333    21.626117810   0   0   0 # oby
    759    1   2 -1.050000    13.985033450    13.233996667    22.991074220   0   0   0 # oby
    760    1   2 -1.050000    17.788959026    15.576670000    22.352484220   0   0   0 # oby
    761    1   2 -1.050000    16.440031401    11.975336667    20.987527810   0   0   0 # oby
    762    1   2 -1.050000    18.296582139    13.776003333    20.501800424   0   0   0 # oby
    763    1   3  2.100000    16.328208511    10.804000000    22.071024885   0   0   0 # sty
    764    1   3  2.100000    18.783206462    14.405333333    21.907577146   0   0   0 # sty
    765    1   3  2.100000     9.837725101    18.750388116    24.115391607   0   0   0 # sty
    766    1   2 -1.050000    18.296582139    11.433330000    19.224620424   0   0   0 # oby
    767    1   2 -1.050000    17.788959026    15.034663333    17.373936627   0   0   0 # oby
    768    1   2 -1.050000    16.440031401    13.233996667    18.738893037   0   0   0 # oby
    769    1   2 -1.050000    20.243956977    15.576670000    18.100303037   0   0   0 # oby
    770    1   2 -1.050000    18.895029351    11.975336667    16.735346627   0   0   0 # oby
    771    1   2 -1.050000    20.751580090    13.776003333    16.249619241   0   0   0 # oby
    772    1   3  2.100000    18.783206462    10.804000000    17.818843702   0   0   0 # sty
    773    1   3  2.100000    21.238204413    14.405333333    17.655395963   0   0   0 # sty
    774    1   3  2.100000    17.414157593    12.604666667    19.863210424   0   0   0 # sty
    775    1   2 -1.050000    20.751580090    11.433330000    14.972439241   0   0   0 # oby
    776    1   2 -1.050000    20.243956977    15.034663333    13.121755444   0   0   0 # oby
    777    1   2 -1.050000    18.895029351    13.233996667    14.486711854   0   0   0 # oby
    778    1   2 -1.050000    22.698954928    15.576670000    13.848121854   0   0   0 # oby
    779    1   2 -1.050000    21.350027302    11.975336667    12.483165444   0   0   0 # oby
    780    1   2 -1.050000    23.206578041    13.776003333    11.997438058   0   0   0 # oby
    781    1   3  2.100000    21.238204413    10.804000000    13.566662518   0   0   0 # sty
    782    1   3  2.100000    23.693202364    14.405333333    13.403214780   0   0   0 # sty
    783    1   3  2.100000    19.869155543    12.604666667    15.611029241   0   0   0 # sty
    784    1   2 -1.050000    23.206578041    11.433330000    10.720258058   0   0   0 # oby
    785    1   2 -1.050000    22.698954928    15.034663333     8.869574261   0   0   0 # oby
    786    1   2 -1.050000    21.350027302    13.233996667    10.234530671   0   0   0 # oby
    787    1   2 -1.050000     0.603973371    15.576670000     9.595940671   0   0   0 # oby
    788    1   2 -1.050000    23.805025253    11.975336667     8.230984261   0   0   0 # oby
    789    1   2 -1.050000     1.111596484    13.776003333     7.745256874   0   0   0 # oby
    790    1   3  2.100000    23.693202364    10.804000000     9.314481335   0   0   0 # sty
    791    1   3  2.100000     1.598220807    14.405333333     9.151033597   0   0   0 # sty
    792    1   3  2.100000    22.324153494    12.604666667    11.358848058   0   0   0 # sty
    793    1   2 -1.050000     1.111596484    11.433330000     6.468076874   0   0   0 # oby
    794    1   2 -1.050000     0.603973371    15.034663333     4.617393078   0   0   0 # oby
    795    1   2 -1.050000    23.805025253    13.233996667     5.982349488   0   0   0 # oby
    796    1   2 -1.050000     3.058971322    15.576670000     5.343759488   0   0   0 # oby
    797    1   2 -1.050000     1.710043696    11.975336667     3.978803078   0   0   0 # oby
    798    1   2 -1.050000     3.566594435    13.776003333     3.493075691   0   0   0 # oby
    799    1   3  2.100000     1.598220807    10.804000000     5.062300152   0   0   0 # sty
    800    1   3  2.100000     4.053218758    14.405333333     4.898852413   0   0   0 # sty
    801    1   3  2.100000     0.229171938    12.604666667     7.106666874   0   0   0 # sty
    802    1   1 -0.950000     3.355155795    22.981051449    27.728982790   0   0   0 # ohy
    803    1   2 -1.050000     2.847532682    26.582384783    25.878298994   0   0   0 # oby
    804    1   1 -0.950000     1.498605057    24.781718116    27.243255404   0   0   0 # ohy
    805    1   2 -1.050000     5.302530633     0.114391449    26.604665404   0   0   0 # oby
    806    1   2 -1.050000     3.953603007    23.523058116    25.239708994   0   0   0 # oby
    807    1   2 -1.050000     5.810153746    25.323724783    24.753981607   0   0   0 # oby
    808    1   3  2.100000     3.841780118    22.351721449    26.323206068   0   0   0 # sty
    809    1   3  2.100000     6.296778069    25.953054783    26.159758329   0   0   0 # sty
    810    1   3  2.100000    22.324153494    18.006666667     2.854485691   0   0   0 # sty
    811    1   2 -1.050000    10.931588287    16.835330000    23.476801607   0   0   0 # oby
    812    1   2 -1.050000    10.423965174    20.436663333    21.626117810   0   0   0 # oby
    813    1   2 -1.050000     9.075037548    18.635996667    22.991074220   0   0   0 # oby
    814    1   2 -1.050000    12.878963125    20.978670000    22.352484220   0   0   0 # oby
    815    1   2 -1.050000    11.530035499    17.377336667    20.987527810   0   0   0 # oby
    816    1   2 -1.050000    13.386586238    19.178003333    20.501800424   0   0   0 # oby
    817    1   3  2.100000    11.418212610    16.206000000    22.071024885   0   0   0 # sty
    818    1   3  2.100000    13.873210561    19.807333333    21.907577146   0   0   0 # sty
    819    1   3  2.100000     4.927729199    24.152388116    24.115391607   0   0   0 # sty
    820    1   2 -1.050000    13.386586238    16.835330000    19.224620424   0   0   0 # oby
    821    1   2 -1.050000    12.878963125    20.436663333    17.373936627   0   0   0 # oby
    822    1   2 -1.050000    11.530035499    18.635996667    18.738893037   0   0   0 # oby
    823    1   2 -1.050000    15.333961075    20.978670000    18.100303037   0   0   0 # oby
    824    1   2 -1.050000    13.985033450    17.377336667    16.735346627   0   0   0 # oby
    825    1   2 -1.050000    15.841584189    19.178003333    16.249619241   0   0   0 # oby
    826    1   3  2.100000    13.873210561    16.206000000    17.818843702   0   0   0 # sty
    827    1   3  2.100000    16.328208511    19.807333333    17.655395963   0   0   0 # sty
    828    1   3  2.100000    12.504161691    18.006666667    19.863210424   0   0   0 # sty
    829    1   2 -1.050000    15.841584189    16.835330000    14.972439241   0   0   0 # oby
    830    1   2 -1.050000    15.333961075    20.436663333    13.121755444   0   0   0 # oby
    831    1   2 -1.050000    13.985033450    18.635996667    14.486711854   0   0   0 # oby
    832    1   2 -1.050000    17.788959026    20.978670000    13.848121854   0   0   0 # oby
    833    1   2 -1.050000    16.440031401    17.377336667    12.483165444   0   0   0 # oby
    834    1   2 -1.050000    18.296582139    19.178003333    11.997438058   0   0   0 # oby
    835    1   3  2.100000    16.328208511    16.206000000    13.566662518   0   0   0 # sty
    836    1   3  2.100000    18.783206462    19.807333333    13.403214780   0   0   0 # sty
    837    1   3  2.100000    14.959159642    18.006666667    15.611029241   0   0   0 # sty
    838    1   2 -1.050000    18.296582139    16.835330000    10.720258058   0   0   0 # oby
    839    1   2 -1.050000    17.788959026    20.436663333     8.869574261   0   0   0 # oby
    840    1   2 -1.050000    16.440031401    18.635996667    10.234530671   0   0   0 # oby
    841    1   2 -1.050000    20.243956977    20.978670000     9.595940671   0   0   0 # oby
    842    1   2 -1.050000    18.895029351    17.377336667     8.230984261   0   0   0 # oby
    843    1   2 -1.050000    20.751580090    19.178003333     7.745256874   0   0   0 # oby
    844    1   3  2.100000    18.783206462    16.206000000     9.314481335   0   0   0 # sty
    845    1   3  2.100000    21.238204413    19.807333333     9.151033597   0   0   0 # sty
    846    1   3  2.100000    17.414157593    18.006666667    11.358848058   0   0   0 # sty
    847    1   2 -1.050000    20.751580090    16.835330000     6.468076874   0   0   0 # oby
    848    1   2 -1.050000    20.243956977    20.436663333     4.617393078   0   0   0 # oby
    849    1   2 -1.050000    18.895029351    18.635996667     5.982349488   0   0   0 # oby
    850    1   2 -1.050000    22.698954928    20.978670000     5.343759488   0   0   0 # oby
    851    1   2 -1.050000    21.350027302    17.377336667     3.978803078   0   0   0 # oby
    852    1   2 -1.050000    23.206578041    19.178003333     3.493075691   0   0   0 # oby
    853    1   3  2.100000    21.238204413    16.206000000     5.062300152   0   0   0 # sty
    854    1   3  2.100000    23.693202364    19.807333333     4.898852413   0   0   0 # sty
    855    1   3  2.100000    19.869155543    18.006666667     7.106666874   0   0   0 # sty
    856    1   1 -0.950000    22.995139401    22.981051449    27.728982790   0   0   0 # ohy
    857    1   2 -1.050000    22.487516288    26.582384783    25.878298994   0   0   0 # oby
    858    1   1 -0.950000    21.138588662    24.781718116    27.243255404   0   0   0 # ohy
    859    1   2 -1.050000     0.392534731     0.114391449    26.604665404   0   0   0 # oby
    860    1   2 -1.050000    23.593586613    23.523058116    25.239708994   0   0   0 # oby
    861    1   2 -1.050000     0.900157845    25.323724783    24.753981607   0   0   0 # oby
    862    1   3  2.100000    23.481763724    22.351721449    26.323206068   0   0   0 # sty
    863    1   3  2.100000     1.386782167    25.953054783    26.159758329   0   0   0 # sty
    864    1   3  2.100000    17.414157593    18.006666667     2.854485691   0   0   0 # sty
    865    1   2 -1.050000     6.021592386    16.835330000    23.476801607   0   0   0 # oby
    866    1   2 -1.050000     5.513969272    20.436663333    21.626117810   0   0   0 # oby
    867    1   2 -1.050000     4.165041647    18.635996667    22.991074220   0   0   0 # oby
    868    1   2 -1.050000     7.968967223    20.978670000    22.352484220   0   0   0 # oby
    869    1   2 -1.050000     6.620039598    17.377336667    20.987527810   0   0   0 # oby
    870    1   2 -1.050000     8.476590337    19.178003333    20.501800424   0   0   0 # oby
    871    1   3  2.100000     6.508216708    16.206000000    22.071024885   0   0   0 # sty
    872    1   3  2.100000     8.963214659    19.807333333    21.907577146   0   0   0 # sty
    873    1   3  2.100000     0.017733298    24.152388116    24.115391607   0   0   0 # sty
    874    1   2 -1.050000     8.476590337    16.835330000    19.224620424   0   0   0 # oby
    875    1   2 -1.050000     7.968967223    20.436663333    17.373936627   0   0   0 # oby
    876    1   2 -1.050000     6.620039598    18.635996667    18.738893037   0   0   0 # oby
    877    1   2 -1.050000    10.423965174    20.978670000    18.100303037   0   0   0 # oby
    878    1   2 -1.050000     9.075037548    17.377336667    16.735346627   0   0   0 # oby
    879    1   2 -1.050000    10.931588287    19.178003333    16.249619241   0   0   0 # oby
    880    1   3  2.100000     8.963214659    16.206000000    17.818843702   0   0   0 # sty
    881    1   3  2.100000    11.418212610    19.807333333    17.655395963   0   0   0 # sty
    882    1   3  2.100000     7.594165790    18.006666667    19.863210424   0   0   0 # sty
    883    1   2 -1.050000    10.931588287    16.835330000    14.972439241   0   0   0 # oby
    884    1   2 -1.050000    10.423965174    20.436663333    13.121755444   0   0   0 # oby
    885    1   2 -1.050000     9.075037548    18.635996667    14.486711854   0   0   0 # oby
    886    1   2 -1.050000    12.878963125    20.978670000    13.848121854   0   0   0 # oby
    887    1   2 -1.050000    11.530035499    17.377336667    12.483165444   0   0   0 # oby
    888    1   2 -1.050000    13.386586238    19.178003333    11.997438058   0   0   0 # oby
    889    1   3  2.100000    11.418212610    16.206000000    13.566662518   0   0   0 # sty
    890    1   3  2.100000    13.873210561    19.807333333    13.403214780   0   0   0 # sty
    891    1   3  2.100000    10.049163741    18.006666667    15.611029241   0   0   0 # sty
    892    1   2 -1.050000    13.386586238    16.835330000    10.720258058   0   0   0 # oby
    893    1   2 -1.050000    12.878963125    20.436663333     8.869574261   0   0   0 # oby
    894    1   2 -1.050000    11.530035499    18.635996667    10.234530671   0   0   0 # oby
    895    1   2 -1.050000    15.333961075    20.978670000     9.595940671   0   0   0 # oby
    896    1   2 -1.050000    13.985033450    17.377336667     8.230984261   0   0   0 # oby
    897    1   2 -1.050000    15.841584189    19.178003333     7.745256874   0   0   0 # oby
    898    1   3  2.100000    13.873210561    16.206000000     9.314481335   0   0   0 # sty
    899    1   3  2.100000    16.328208511    19.807333333     9.151033597   0   0   0 # sty
    900    1   3  2.100000    12.504161691    18.006666667    11.358848058   0   0   0 # sty
    901    1   2 -1.050000    15.841584189    16.835330000     6.468076874   0   0   0 # oby
    902    1   2 -1.050000    15.333961075    20.436663333     4.617393078   0   0   0 # oby
    903    1   2 -1.050000    13.985033450    18.635996667     5.982349488   0   0   0 # oby
    904    1   2 -1.050000    17.788959026    20.978670000     5.343759488   0   0   0 # oby
    905    1   2 -1.050000    16.440031401    17.377336667     3.978803078   0   0   0 # oby
    906    1   2 -1.050000    18.296582139    19.178003333     3.493075691   0   0   0 # oby
    907    1   3  2.100000    16.328208511    16.206000000     5.062300152   0   0   0 # sty
    908    1   3  2.100000    18.783206462    19.807333333     4.898852413   0   0   0 # sty
    909    1   3  2.100000    14.959159642    18.006666667     7.106666874   0   0   0 # sty
    910    1   1 -0.950000    18.085143500    22.981051449    27.728982790   0   0   0 # ohy
    911    1   2 -1.050000    17.577520387    26.582384783    25.878298994   0   0   0 # oby
    912    1   1 -0.950000    16.228592761    24.781718116    27.243255404   0   0   0 # ohy
    913    1   2 -1.050000    20.032518337     0.114391449    26.604665404   0   0   0 # oby
    914    1   2 -1.050000    18.683590712    23.523058116    25.239708994   0   0   0 # oby
    915    1   2 -1.050000    20.540141451    25.323724783    24.753981607   0   0   0 # oby
    916    1   3  2.100000    18.571767822    22.351721449    26.323206068   0   0   0 # sty
    917    1   3  2.100000    21.026765773    25.953054783    26.159758329   0   0   0 # sty
    918    1   3  2.100000    12.504161691    18.006666667     2.854485691   0   0   0 # sty
    919    1   2 -1.050000     1.111596484    16.835330000    23.476801607   0   0   0 # oby
    920    1   2 -1.050000     0.603973371    20.436663333    21.626117810   0   0   0 # oby
    921    1   2 -1.050000    23.805025253    18.635996667    22.991074220   0   0   0 # oby
    922    1   2 -1.050000     3.058971322    20.978670000    22.352484220   0   0   0 # oby
    923    1   2 -1.050000     1.710043696    17.377336667    20.987527810   0   0   0 # oby
    924    1   2 -1.050000     3.566594435    19.178003333    20.501800424   0   0   0 # oby
    925    1   3  2.100000     1.598220807    16.206000000    22.071024885   0   0   0 # sty
    926    1   3  2.100000     4.053218758    19.807333333    21.907577146   0   0   0 # sty
    927    1   3  2.100000    19.657716904    24.152388116    24.115391607   0   0   0 # sty
    928    1   2 -1.050000     3.566594435    16.835330000    19.224620424   0   0   0 # oby
    929    1   2 -1.050000     3.058971322    20.436663333    17.373936627   0   0   0 # oby
    930    1   2 -1.050000     1.710043696    18.635996667    18.738893037   0   0   0 # oby
    931    1   2 -1.050000     5.513969272    20.978670000    18.100303037   0   0   0 # oby
    932    1   2 -1.050000     4.165041647    17.377336667    16.735346627   0   0   0 # oby
    933    1   2 -1.050000     6.021592386    19.178003333    16.249619241   0   0   0 # oby
    934    1   3  2.100000     4.053218758    16.206000000    17.818843702   0   0   0 # sty
    935    1   3  2.100000     6.508216708    19.807333333    17.655395963   0   0   0 # sty
    936    1   3  2.100000     2.684169888    18.006666667    19.863210424   0   0   0 # sty
    937    1   2 -1.050000     6.021592386    16.835330000    14.972439241   0   0   0 # oby
    938    1   2 -1.050000     5.513969272    20.436663333    13.121755444   0   0   0 # oby
    939    1   2 -1.050000     4.165041647    18.635996667    14.486711854   0   0   0 # oby
    940    1   2 -1.050000     7.968967223    20.978670000    13.848121854   0   0   0 # oby
    941    1   2 -1.050000     6.620039598    17.377336667    12.483165444   0   0   0 # oby
    942    1   2 -1.050000     8.476590337    19.178003333    11.997438058   0   0   0 # oby
    943    1   3  2.100000     6.508216708    16.206000000    13.566662518   0   0   0 # sty
    944    1   3  2.100000     8.963214659    19.807333333    13.403214780   0   0   0 # sty
    945    1   3  2.100000     5.139167839    18.006666667    15.611029241   0   0   0 # sty
    946    1   2 -1.050000     8.476590337    16.835330000    10.720258058   0   0   0 # oby
    947    1   2 -1.050000     7.968967223    20.436663333     8.869574261   0   0   0 # oby
    948    1   2 -1.050000     6.620039598    18.635996667    10.234530671   0   0   0 # oby
    949    1   2 -1.050000    10.423965174    20.978670000     9.595940671   0   0   0 # oby
    950    1   2 -1.050000     9.075037548    17.377336667     8.230984261   0   0   0 # oby
    951    1   2 -1.050000    10.931588287    19.178003333     7.745256874   0   0   0 # oby
    952    1   3  2.100000     8.963214659    16.206000000     9.314481335   0   0   0 # sty
    953    1   3  2.100000    11.418212610    19.807333333     9.151033597   0   0   0 # sty
    954    1   3  2.100000     7.594165790    18.006666667    11.358848058   0   0   0 # sty
    955    1   2 -1.050000    10.931588287    16.835330000     6.468076874   0   0   0 # oby
    956    1   2 -1.050000    10.423965174    20.436663333     4.617393078   0   0   0 # oby
    957    1   2 -1.050000     9.075037548    18.635996667     5.982349488   0   0   0 # oby
    958    1   2 -1.050000    12.878963125    20.978670000     5.343759488   0   0   0 # oby
    959    1   2 -1.050000    11.530035499    17.377336667     3.978803078   0   0   0 # oby
    960    1   2 -1.050000    13.386586238    19.178003333     3.493075691   0   0   0 # oby
    961    1   3  2.100000    11.418212610    16.206000000     5.062300152   0   0   0 # sty
    962    1   3  2.100000    13.873210561    19.807333333     4.898852413   0   0   0 # sty
    963    1   3  2.100000    10.049163741    18.006666667     7.106666874   0   0   0 # sty
    964    1   1 -0.950000    13.175147598    22.981051449    27.728982790   0   0   0 # ohy
    965    1   2 -1.050000    12.667524485    26.582384783    25.878298994   0   0   0 # oby
    966    1   1 -0.950000    11.318596860    24.781718116    27.243255404   0   0   0 # ohy
    967    1   2 -1.050000    15.122522436     0.114391449    26.604665404   0   0   0 # oby
    968    1   2 -1.050000    13.773594810    23.523058116    25.239708994   0   0   0 # oby
    969    1   2 -1.050000    15.630145549    25.323724783    24.753981607   0   0   0 # oby
    970    1   3  2.100000    13.661771921    22.351721449    26.323206068   0   0   0 # sty
    971    1   3  2.100000    16.116769872    25.953054783    26.159758329   0   0   0 # sty
    972    1   3  2.100000     7.594165790    18.006666667     2.854485691   0   0   0 # sty
    973    1   2 -1.050000    20.751580090    16.835330000    23.476801607   0   0   0 # oby
    974    1   2 -1.050000    20.243956977    20.436663333    21.626117810   0   0   0 # oby
    975    1   2 -1.050000    18.895029351    18.635996667    22.991074220   0   0   0 # oby
    976    1   2 -1.050000    22.698954928    20.978670000    22.352484220   0   0   0 # oby
    977    1   2 -1.050000    21.350027302    17.377336667    20.987527810   0   0   0 # oby
    978    1   2 -1.050000    23.206578041    19.178003333    20.501800424   0   0   0 # oby
    979    1   3  2.100000    21.238204413    16.206000000    22.071024885   0   0   0 # sty
    980    1   3  2.100000    23.693202364    19.807333333    21.907577146   0   0   0 # sty
    981    1   3  2.100000    14.747721002    24.152388116    24.115391607   0   0   0 # sty
    982    1   2 -1.050000    23.206578041    16.835330000    19.224620424   0   0   0 # oby
    983    1   2 -1.050000    22.698954928    20.436663333    17.373936627   0   0   0 # oby
    984    1   2 -1.050000    21.350027302    18.635996667    18.738893037   0   0   0 # oby
    985    1   2 -1.050000     0.603973371    20.978670000    18.100303037   0   0   0 # oby
    986    1   2 -1.050000    23.805025253    17.377336667    16.735346627   0   0   0 # oby
    987    1   2 -1.050000     1.111596484    19.178003333    16.249619241   0   0   0 # oby
    988    1   3  2.100000    23.693202364    16.206000000    17.818843702   0   0   0 # sty
    989    1   3  2.100000     1.598220807    19.807333333    17.655395963   0   0   0 # sty
    990    1   3  2.100000    22.324153494    18.006666667    19.863210424   0   0   0 # sty
    991    1   2 -1.050000     1.111596484    16.835330000    14.972439241   0   0   0 # oby
    992    1   2 -1.050000     0.603973371    20.436663333    13.121755444   0   0   0 # oby
    993    1   2 -1.050000    23.805025253    18.635996667    14.486711854   0   0   0 # oby
    994    1   2 -1.050000     3.058971322    20.978670000    13.848121854   0   0   0 # oby
    995    1   2 -1.050000     1.710043696    17.377336667    12.483165444   0   0   0 # oby
    996    1   2 -1.050000     3.566594435    19.178003333    11.997438058   0   0   0 # oby
    997    1   3  2.100000     1.598220807    16.206000000    13.566662518   0   0   0 # sty
    998    1   3  2.100000     4.053218758    19.807333333    13.403214780   0   0   0 # sty
    999    1   3  2.100000     0.229171938    18.006666667    15.611029241   0   0   0 # sty
   1000    1   2 -1.050000     3.566594435    16.835330000    10.720258058   0   0   0 # oby
   1001    1   2 -1.050000     3.058971322    20.436663333     8.869574261   0   0   0 # oby
   1002    1   2 -1.050000     1.710043696    18.635996667    10.234530671   0   0   0 # oby
   1003    1   2 -1.050000     5.513969272    20.978670000     9.595940671   0   0   0 # oby
   1004    1   2 -1.050000     4.165041647    17.377336667     8.230984261   0   0   0 # oby
   1005    1   2 -1.050000     6.021592386    19.178003333     7.745256874   0   0   0 # oby
   1006    1   3  2.100000     4.053218758    16.206000000     9.314481335   0   0   0 # sty
   1007    1   3  2.100000     6.508216708    19.807333333     9.151033597   0   0   0 # sty
   1008    1   3  2.100000     2.684169888    18.006666667    11.358848058   0   0   0 # sty
   1009    1   2 -1.050000     6.021592386    16.835330000     6.468076874   0   0   0 # oby
   1010    1   2 -1.050000     5.513969272    20.436663333     4.617393078   0   0   0 # oby
   1011    1   2 -1.050000     4.165041647    18.635996667     5.982349488   0   0   0 # oby
   1012    1   2 -1.050000     7.968967223    20.978670000     5.343759488   0   0   0 # oby
   1013    1   2 -1.050000     6.620039598    17.377336667     3.978803078   0   0   0 # oby
   1014    1   2 -1.050000     8.476590337    19.178003333     3.493075691   0   0   0 # oby
   1015    1   3  2.100000     6.508216708    16.206000000     5.062300152   0   0   0 # sty
   1016    1   3  2.100000     8.963214659    19.807333333     4.898852413   0   0   0 # sty
   1017    1   3  2.100000     5.139167839    18.006666667     7.106666874   0   0   0 # sty
   1018    1   1 -0.950000     8.265151697    22.981051449    27.728982790   0   0   0 # ohy
   1019    1   2 -1.050000     7.757528584    26.582384783    25.878298994   0   0   0 # oby
   1020    1   1 -0.950000     6.408600958    24.781718116    27.243255404   0   0   0 # ohy
   1021    1   2 -1.050000    10.212526534     0.114391449    26.604665404   0   0   0 # oby
   1022    1   2 -1.050000     8.863598909    23.523058116    25.239708994   0   0   0 # oby
   1023    1   2 -1.050000    10.720149648    25.323724783    24.753981607   0   0   0 # oby
   1024    1   3  2.100000     8.751776020    22.351721449    26.323206068   0   0   0 # sty
   1025    1   3  2.100000    11.206773970    25.953054783    26.159758329   0   0   0 # sty
   1026    1   3  2.100000     2.684169888    18.006666667     2.854485691   0   0   0 # sty
   1027    1   2 -1.050000    15.841584189    16.835330000    23.476801607   0   0   0 # oby
   1028    1   2 -1.050000    15.333961075    20.436663333    21.626117810   0   0   0 # oby
   1029    1   2 -1.050000    13.985033450    18.635996667    22.991074220   0   0   0 # oby
   1030    1   2 -1.050000    17.788959026    20.978670000    22.352484220   0   0   0 # oby
   1031    1   2 -1.050000    16.440031401    17.377336667    20.987527810   0   0   0 # oby
   1032    1   2 -1.050000    18.296582139    19.178003333    20.501800424   0   0   0 # oby
   1033    1   3  2.100000    16.328208511    16.206000000    22.071024885   0   0   0 # sty
   1034    1   3  2.100000    18.783206462    19.807333333    21.907577146   0   0   0 # sty
   1035    1   3  2.100000     9.837725101    24.152388116    24.115391607   0   0   0 # sty
   1036    1   2 -1.050000    18.296582139    16.835330000    19.224620424   0   0   0 # oby
   1037    1   2 -1.050000    17.788959026    20.436663333    17.373936627   0   0   0 # oby
   1038    1   2 -1.050000    16.440031401    18.635996667    18.738893037   0   0   0 # oby
   1039    1   2 -1.050000    20.243956977    20.978670000    18.100303037   0   0   0 # oby
   1040    1   2 -1.050000    18.895029351    17.377336667    16.735346627   0   0   0 # oby
   1041    1   2 -1.050000    20.751580090    19.178003333    16.249619241   0   0   0 # oby
   1042    1   3  2.100000    18.783206462    16.206000000    17.818843702   0   0   0 # sty
   1043    1   3  2.100000    21.238204413    19.807333333    17.655395963   0   0   0 # sty
   1044    1   3  2.100000    17.414157593    18.006666667    19.863210424   0   0   0 # sty
   1045    1   2 -1.050000    20.751580090    16.835330000    14.972439241   0   0   0 # oby
   1046    1   2 -1.050000    20.243956977    20.436663333    13.121755444   0   0   0 # oby
   1047    1   2 -1.050000    18.895029351    18.635996667    14.486711854   0   0   0 # oby
   1048    1   2 -1.050000    22.698954928    20.978670000    13.848121854   0   0   0 # oby
   1049    1   2 -1.050000    21.350027302    17.377336667    12.483165444   0   0   0 # oby
   1050    1   2 -1.050000    23.206578041    19.178003333    11.997438058   0   0   0 # oby
   1051    1   3  2.100000    21.238204413    16.206000000    13.566662518   0   0   0 # sty
   1052    1   3  2.100000    23.693202364    19.807333333    13.403214780   0   0   0 # sty
   1053    1   3  2.100000    19.869155543    18.006666667    15.611029241   0   0   0 # sty
   1054    1   2 -1.050000    23.206578041    16.835330000    10.720258058   0   0   0 # oby
   1055    1   2 -1.050000    22.698954928    20.436663333     8.869574261   0   0   0 # oby
   1056    1   2 -1.050000    21.350027302    18.635996667    10.234530671   0   0   0 # oby
   1057    1   2 -1.050000     0.603973371    20.978670000     9.595940671   0   0   0 # oby
   1058    1   2 -1.050000    23.805025253    17.377336667     8.230984261   0   0   0 # oby
   1059    1   2 -1.050000     1.111596484    19.178003333     7.745256874   0   0   0 # oby
   1060    1   3  2.100000    23.693202364    16.206000000     9.314481335   0   0   0 # sty
   1061    1   3  2.100000     1.598220807    19.807333333     9.151033597   0   0   0 # sty
   1062    1   3  2.100000    22.324153494    18.006666667    11.358848058   0   0   0 # sty
   1063    1   2 -1.050000     1.111596484    16.835330000     6.468076874   0   0   0 # oby
   1064    1   2 -1.050000     0.603973371    20.436663333     4.617393078   0   0   0 # oby
   1065    1   2 -1.050000    23.805025253    18.635996667     5.982349488   0   0   0 # oby
   1066    1   2 -1.050000     3.058971322    20.978670000     5.343759488   0   0   0 # oby
   1067    1   2 -1.050000     1.710043696    17.377336667     3.978803078   0   0   0 # oby
   1068    1   2 -1.050000     3.566594435    19.178003333     3.493075691   0   0   0 # oby
   1069    1   3  2.100000     1.598220807    16.206000000     5.062300152   0   0   0 # sty
   1070    1   3  2.100000     4.053218758    19.807333333     4.898852413   0   0   0 # sty
   1071    1   3  2.100000     0.229171938    18.006666667     7.106666874   0   0   0 # sty
   1072    1   1 -0.950000     3.355155795     1.373051449    27.728982790   0   0   0 # ohy
   1073    1   2 -1.050000     2.847532682     4.974384783    25.878298994   0   0   0 # oby
   1074    1   1 -0.950000     1.498605057     3.173718116    27.243255404   0   0   0 # ohy
   1075    1   2 -1.050000     5.302530633     5.516391449    26.604665404   0   0   0 # oby
   1076    1   2 -1.050000     3.953603007     1.915058116    25.239708994   0   0   0 # oby
   1077    1   2 -1.050000     5.810153746     3.715724783    24.753981607   0   0   0 # oby
   1078    1   3  2.100000     3.841780118     0.743721449    26.323206068   0   0   0 # sty
   1079    1   3  2.100000     6.296778069     4.345054783    26.159758329   0   0   0 # sty
   1080    1   3  2.100000    22.324153494    23.408666667     2.854485691   0   0   0 # sty
   1081    1   2 -1.050000    10.931588287    22.237330000    23.476801607   0   0   0 # oby
   1082    1   2 -1.050000    10.423965174    25.838663333    21.626117810   0   0   0 # oby
   1083    1   2 -1.050000     9.075037548    24.037996667    22.991074220   0   0   0 # oby
   1084    1   2 -1.050000    12.878963125    26.380670000    22.352484220   0   0   0 # oby
   1085    1   2 -1.050000    11.530035499    22.779336667    20.987527810   0   0   0 # oby
   1086    1   2 -1.050000    13.386586238    24.580003333    20.501800424   0   0   0 # oby
   1087    1   3  2.100000    11.418212610    21.608000000    22.071024885   0   0   0 # sty
   1088    1   3  2.100000    13.873210561    25.209333333    21.907577146   0   0   0 # sty
   1089    1   3  2.100000     4.927729199     2.544388116    24.115391607   0   0   0 # sty
   1090    1   2 -1.050000    13.386586238    22.237330000    19.224620424   0   0   0 # oby
   1091    1   2 -1.050000    12.878963125    25.838663333    17.373936627   0   0   0 # oby
   1092    1   2 -1.050000    11.530035499    24.037996667    18.738893037   0   0   0 # oby
   1093    1   2 -1.050000    15.333961075    26.380670000    18.100303037   0   0   0 # oby
   1094    1   2 -1.050000    13.985033450    22.779336667    16.735346627   0   0   0 # oby
   1095    1   2 -1.050000    15.841584189    24.580003333    16.249619241   0   0   0 # oby
   1096    1   3  2.100000    13.873210561    21.608000000    17.818843702   0   0   0 # sty
   1097    1   3  2.100000    16.328208511    25.209333333    17.655395963   0   0   0 # sty
   1098    1   3  2.100000    12.504161691    23.408666667    19.863210424   0   0   0 # sty
   1099    1   2 -1.050000    15.841584189    22.237330000    14.972439241   0   0   0 # oby
   1100    1   2 -1.050000    15.333961075    25.838663333    13.121755444   0   0   0 # oby
   1101    1   2 -1.050000    13.985033450    24.037996667    14.486711854   0   0   0 # oby
   1102    1   2 -1.050000    17.788959026    26.380670000    13.848121854   0   0   0 # oby
   1103    1   2 -1.050000    16.440031401    22.779336667    12.483165444   0   0   0 # oby
   1104    1   2 -1.050000    18.296582139    24.580003333    11.997438058   0   0   0 # oby
   1105    1   3  2.100000    16.328208511    21.608000000    13.566662518   0   0   0 # sty
   1106    1   3  2.100000    18.783206462    25.209333333    13.403214780   0   0   0 # sty
   1107    1   3  2.100000    14.959159642    23.408666667    15.611029241   0   0   0 # sty
   1108    1   2 -1.050000    18.296582139    22.237330000    10.720258058   0   0   0 # oby
   1109    1   2 -1.050000    17.788959026    25.838663333     8.869574261   0   0   0 # oby
   1110    1   2 -1.050000    16.440031401    24.037996667    10.234530671   0   0   0 # oby
   1111    1   2 -1.050000    20.243956977    26.380670000     9.595940671   0   0   0 # oby
   1112    1   2 -1.050000    18.895029351    22.779336667     8.230984261   0   0   0 # oby
   1113    1   2 -1.050000    20.751580090    24.580003333     7.745256874   0   0   0 # oby
   1114    1   3  2.100000    18.783206462    21.608000000     9.314481335   0   0   0 # sty
   1115    1   3  2.100000    21.238204413    25.209333333     9.151033597   0   0   0 # sty
   1116    1   3  2.100000    17.414157593    23.408666667    11.358848058   0   0   0 # sty
   1117    1   2 -1.050000    20.751580090    22.237330000     6.468076874   0   0   0 # oby
   1118    1   2 -1.050000    20.243956977    25.838663333     4.617393078   0   0   0 # oby
   1119    1   2 -1.050000    18.895029351    24.037996667     5.982349488   0   0   0 # oby
   1120    1   2 -1.050000    22.698954928    26.380670000     5.343759488   0   0   0 # oby
   1121    1   2 -1.050000    21.350027302    22.779336667     3.978803078   0   0   0 # oby
   1122    1   2 -1.050000    23.206578041    24.580003333     3.493075691   0   0   0 # oby
   1123    1   3  2.100000    21.238204413    21.608000000     5.062300152   0   0   0 # sty
   1124    1   3  2.100000    23.693202364    25.209333333     4.898852413   0   0   0 # sty
   1125    1   3  2.100000    19.869155543    23.408666667     7.106666874   0   0   0 # sty
   1126    1   1 -0.950000    22.995139401     1.373051449    27.728982790   0   0   0 # ohy
   1127    1   2 -1.050000    22.487516288     4.974384783    25.878298994   0   0   0 # oby
   1128    1   1 -0.950000    21.138588662     3.173718116    27.243255404   0   0   0 # ohy
   1129    1   2 -1.050000     0.392534731     5.516391449    26.604665404   0   0   0 # oby
   1130    1   2 -1.050000    23.593586613     1.915058116    25.239708994   0   0   0 # oby
   1131    1   2 -1.050000     0.900157845     3.715724783    24.753981607   0   0   0 # oby
   1132    1   3  2.100000    23.481763724     0.743721449    26.323206068   0   0   0 # sty
   1133    1   3  2.100000     1.386782167     4.345054783    26.159758329   0   0   0 # sty
   1134    1   3  2.100000    17.414157593    23.408666667     2.854485691   0   0   0 # sty
   1135    1   2 -1.050000     6.021592386    22.237330000    23.476801607   0   0   0 # oby
   1136    1   2 -1.050000     5.513969272    25.838663333    21.626117810   0   0   0 # oby
   1137    1   2 -1.050000     4.165041647    24.037996667    22.991074220   0   0   0 # oby
   1138    1   2 -1.050000     7.968967223    26.380670000    22.352484220   0   0   0 # oby
   1139    1   2 -1.050000     6.620039598    22.779336667    20.987527810   0   0   0 # oby
   1140    1   2 -1.050000     8.476590337    24.580003333    20.501800424   0   0   0 # oby
   1141    1   3  2.100000     6.508216708    21.608000000    22.071024885   0   0   0 # sty
   1142    1   3  2.100000     8.963214659    25.209333333    21.907577146   0   0   0 # sty
   1143    1   3  2.100000     0.017733298     2.544388116    24.115391607   0   0   0 # sty
   1144    1   2 -1.050000     8.476590337    22.237330000    19.224620424   0   0   0 # oby
   1145    1   2 -1.050000     7.968967223    25.838663333    17.373936627   0   0   0 # oby
   1146    1   2 -1.050000     6.620039598    24.037996667    18.738893037   0   0   0 # oby
   1147    1   2 -1.050000    10.423965174    26.380670000    18.100303037   0   0   0 # oby
   1148    1   2 -1.050000     9.075037548    22.779336667    16.735346627   0   0   0 # oby
   1149    1   2 -1.050000    10.931588287    24.580003333    16.249619241   0   0   0 # oby
   1150    1   3  2.100000     8.963214659    21.608000000    17.818843702   0   0   0 # sty
   1151    1   3  2.100000    11.418212610    25.209333333    17.655395963   0   0   0 # sty
   1152    1   3  2.100000     7.594165790    23.408666667    19.863210424   0   0   0 # sty
   1153    1   2 -1.050000    10.931588287    22.237330000    14.972439241   0   0   0 # oby
   1154    1   2 -1.050000    10.423965174    25.838663333    13.121755444   0   0   0 # oby
   1155    1   2 -1.050000     9.075037548    24.037996667    14.486711854   0   0   0 # oby
   1156    1   2 -1.050000    12.878963125    26.380670000    13.848121854   0   0   0 # oby
   1157    1   2 -1.050000    11.530035499    22.779336667    12.483165444   0   0   0 # oby
   1158    1   2 -1.050000    13.386586238    24.580003333    11.997438058   0   0   0 # oby
   1159    1   3  2.100000    11.418212610    21.608000000    13.566662518   0   0   0 # sty
   1160    1   3  2.100000    13.873210561    25.209333333    13.403214780   0   0   0 # sty
   1161    1   3  2.100000    10.049163741    23.408666667    15.611029241   0   0   0 # sty
   1162    1   2 -1.050000    13.386586238    22.237330000    10.720258058   0   0   0 # oby
   1163    1   2 -1.050000    12.878963125    25.838663333     8.869574261   0   0   0 # oby
   1164    1   2 -1.050000    11.530035499    24.037996667    10.234530671   0   0   0 # oby
   1165    1   2 -1.050000    15.333961075    26.380670000     9.595940671   0   0   0 # oby
   1166    1   2 -1.050000    13.985033450    22.779336667     8.230984261   0   0   0 # oby
   1167    1   2 -1.050000    15.841584189    24.580003333     7.745256874   0   0   0 # oby
   1168    1   3  2.100000    13.873210561    21.608000000     9.314481335   0   0   0 # sty
   1169    1   3  2.100000    16.328208511    25.209333333     9.151033597   0   0   0 # sty
   1170    1   3  2.100000    12.504161691    23.408666667    11.358848058   0   0   0 # sty
   1171    1   2 -1.050000    15.841584189    22.237330000     6.468076874   0   0   0 # oby
   1172    1   2 -1.050000    15.333961075    25.838663333     4.617393078   0   0   0 # oby
   1173    1   2 -1.050000    13.985033450    24.037996667     5.982349488   0   0   0 # oby
   1174    1   2 -1.050000    17.788959026    26.380670000     5.343759488   0   0   0 # oby
   1175    1   2 -1.050000    16.440031401    22.779336667     3.978803078   0   0   0 # oby
   1176    1   2 -1.050000    18.296582139    24.580003333     3.493075691   0   0   0 # oby
   1177    1   3  2.100000    16.328208511    21.608000000     5.062300152   0   0   0 # sty
   1178    1   3  2.100000    18.783206462    25.209333333     4.898852413   0   0   0 # sty
   1179    1   3  2.100000    14.959159642    23.408666667     7.106666874   0   0   0 # sty
   1180    1   1 -0.950000    18.085143500     1.373051449    27.728982790   0   0   0 # ohy
   1181    1   2 -1.050000    17.577520387     4.974384783    25.878298994   0   0   0 # oby
   1182    1   1 -0.950000    16.228592761     3.173718116    27.243255404   0   0   0 # ohy
   1183    1   2 -1.050000    20.032518337     5.516391449    26.604665404   0   0   0 # oby
   1184    1   2 -1.050000    18.683590712     1.915058116    25.239708994   0   0   0 # oby
   1185    1   2 -1.050000    20.540141451     3.715724783    24.753981607   0   0   0 # oby
   1186    1   3  2.100000    18.571767822     0.743721449    26.323206068   0   0   0 # sty
   1187    1   3  2.100000    21.026765773     4.345054783    26.159758329   0   0   0 # sty
   1188    1   3  2.100000    12.504161691    23.408666667     2.854485691   0   0   0 # sty
   1189    1   2 -1.050000     1.111596484    22.237330000    23.476801607   0   0   0 # oby
   1190    1   2 -1.050000     0.603973371    25.838663333    21.626117810   0   0   0 # oby
   1191    1   2 -1.050000    23.805025253    24.037996667    22.991074220   0   0   0 # oby
   1192    1   2 -1.050000     3.058971322    26.380670000    22.352484220   0   0   0 # oby
   1193    1   2 -1.050000     1.710043696    22.779336667    20.987527810   0   0   0 # oby
   1194    1   2 -1.050000     3.566594435    24.580003333    20.501800424   0   0   0 # oby
   1195    1   3  2.100000     1.598220807    21.608000000    22.071024885   0   0   0 # sty
   1196    1   3  2.100000     4.053218758    25.209333333    21.907577146   0   0   0 # sty
   1197    1   3  2.100000    19.657716904     2.544388116    24.115391607   0   0   0 # sty
   1198    1   2 -1.050000     3.566594435    22.237330000    19.224620424   0   0   0 # oby
   1199    1   2 -1.050000     3.058971322    25.838663333    17.373936627   0   0   0 # oby
   1200    1   2 -1.050000     1.710043696    24.037996667    18.738893037   0   0   0 # oby
   1201    1   2 -1.050000     5.513969272    26.380670000    18.100303037   0   0   0 # oby
   1202    1   2 -1.050000     4.165041647    22.779336667    16.735346627   0   0   0 # oby
   1203    1   2 -1.050000     6.021592386    24.580003333    16.249619241   0   0   0 # oby
   1204    1   3  2.100000     4.053218758    21.608000000    17.818843702   0   0   0 # sty
   1205    1   3  2.100000     6.508216708    25.209333333    17.655395963   0   0   0 # sty
   1206    1   3  2.100000     2.684169888    23.408666667    19.863210424   0   0   0 # sty
   1207    1   2 -1.050000     6.021592386    22.237330000    14.972439241   0   0   0 # oby
   1208    1   2 -1.050000     5.513969272    25.838663333    13.121755444   0   0   0 # oby
   1209    1   2 -1.050000     4.165041647    24.037996667    14.486711854   0   0   0 # oby
   1210    1   2 -1.050000     7.968967223    26.380670000    13.848121854   0   0   0 # oby
   1211    1   2 -1.050000     6.620039598    22.779336667    12.483165444   0   0   0 # oby
   1212    1   2 -1.050000     8.476590337    24.580003333    11.997438058   0   0   0 # oby
   1213    1   3  2.100000     6.508216708    21.608000000    13.566662518   0   0   0 # sty
   1214    1   3  2.100000     8.963214659    25.209333333    13.403214780   0   0   0 # sty
   1215    1   3  2.100000     5.139167839    23.408666667    15.611029241   0   0   0 # sty
   1216    1   2 -1.050000     8.476590337    22.237330000    10.720258058   0   0   0 # oby
   1217    1   2 -1.050000     7.968967223    25.838663333     8.869574261   0   0   0 # oby
   1218    1   2 -1.050000     6.620039598    24.037996667    10.234530671   0   0   0 # oby
   1219    1   2 -1.050000    10.423965174    26.380670000     9.595940671   0   0   0 # oby
   1220    1   2 -1.050000     9.075037548    22.779336667     8.230984261   0   0   0 # oby
   1221    1   2 -1.050000    10.931588287    24.580003333     7.745256874   0   0   0 # oby
   1222    1   3  2.100000     8.963214659    21.608000000     9.314481335   0   0   0 # sty
   1223    1   3  2.100000    11.418212610    25.209333333     9.151033597   0   0   0 # sty
   1224    1   3  2.100000     7.594165790    23.408666667    11.358848058   0   0   0 # sty
   1225    1   2 -1.050000    10.931588287    22.237330000     6.468076874   0   0   0 # oby
   1226    1   2 -1.050000    10.423965174    25.838663333     4.617393078   0   0   0 # oby
   1227    1   2 -1.050000     9.075037548    24.037996667     5.982349488   0   0   0 # oby
   1228    1   2 -1.050000    12.878963125    26.380670000     5.343759488   0   0   0 # oby
   1229    1   2 -1.050000    11.530035499    22.779336667     3.978803078   0   0   0 # oby
   1230    1   2 -1.050000    13.386586238    24.580003333     3.493075691   0   0   0 # oby
   1231    1   3  2.100000    11.418212610    21.608000000     5.062300152   0   0   0 # sty
   1232    1   3  2.100000    13.873210561    25.209333333     4.898852413   0   0   0 # sty
   1233    1   3  2.100000    10.049163741    23.408666667     7.106666874   0   0   0 # sty
   1234    1   1 -0.950000    13.175147598     1.373051449    27.728982790   0   0   0 # ohy
   1235    1   2 -1.050000    12.667524485     4.974384783    25.878298994   0   0   0 # oby
   1236    1   1 -0.950000    11.318596860     3.173718116    27.243255404   0   0   0 # ohy
   1237    1   2 -1.050000    15.122522436     5.516391449    26.604665404   0   0   0 # oby
   1238    1   2 -1.050000    13.773594810     1.915058116    25.239708994   0   0   0 # oby
   1239    1   2 -1.050000    15.630145549     3.715724783    24.753981607   0   0   0 # oby
   1240    1   3  2.100000    13.661771921     0.743721449    26.323206068   0   0   0 # sty
   1241    1   3  2.100000    16.116769872     4.345054783    26.159758329   0   0   0 # sty
   1242    1   3  2.100000     7.594165790    23.408666667     2.854485691   0   0   0 # sty
   1243    1   2 -1.050000    20.751580090    22.237330000    23.476801607   0   0   0 # oby
   1244    1   2 -1.050000    20.243956977    25.838663333    21.626117810   0   0   0 # oby
   1245    1   2 -1.050000    18.895029351    24.037996667    22.991074220   0   0   0 # oby
   1246    1   2 -1.050000    22.698954928    26.380670000    22.352484220   0   0   0 # oby
   1247    1   2 -1.050000    21.350027302    22.779336667    20.987527810   0   0   0 # oby
   1248    1   2 -1.050000    23.206578041    24.580003333    20.501800424   0   0   0 # oby
   1249    1   3  2.100000    21.238204413    21.608000000    22.071024885   0   0   0 # sty
   1250    1   3  2.100000    23.693202364    25.209333333    21.907577146   0   0   0 # sty
   1251    1   3  2.100000    14.747721002     2.544388116    24.115391607   0   0   0 # sty
   1252    1   2 -1.050000    23.206578041    22.237330000    19.224620424   0   0   0 # oby
   1253    1   2 -1.050000    22.698954928    25.838663333    17.373936627   0   0   0 # oby
   1254    1   2 -1.050000    21.350027302    24.037996667    18.738893037   0   0   0 # oby
   1255    1   2 -1.050000     0.603973371    26.380670000    18.100303037   0   0   0 # oby
   1256    1   2 -1.050000    23.805025253    22.779336667    16.735346627   0   0   0 # oby
   1257    1   2 -1.050000     1.111596484    24.580003333    16.249619241   0   0   0 # oby
   1258    1   3  2.100000    23.693202364    21.608000000    17.818843702   0   0   0 # sty
   1259    1   3  2.100000     1.598220807    25.209333333    17.655395963   0   0   0 # sty
   1260    1   3  2.100000    22.324153494    23.408666667    19.863210424   0   0   0 # sty
   1261    1   2 -1.050000     1.111596484    22.237330000    14.972439241   0   0   0 # oby
   1262    1   2 -1.050000     0.603973371    25.838663333    13.121755444   0   0   0 # oby
   1263    1   2 -1.050000    23.805025253    24.037996667    14.486711854   0   0   0 # oby
   1264    1   2 -1.050000     3.058971322    26.380670000    13.848121854   0   0   0 # oby
   1265    1   2 -1.050000     1.710043696    22.779336667    12.483165444   0   0   0 # oby
   1266    1   2 -1.050000     3.566594435    24.580003333    11.997438058   0   0   0 # oby
   1267    1   3  2.100000     1.598220807    21.608000000    13.566662518   0   0   0 # sty
   1268    1   3  2.100000     4.053218758    25.209333333    13.403214780   0   0   0 # sty
   1269    1   3  2.100000     0.229171938    23.408666667    15.611029241   0   0   0 # sty
   1270    1   2 -1.050000     3.566594435    22.237330000    10.720258058   0   0   0 # oby
   1271    1   2 -1.050000     3.058971322    25.838663333     8.869574261   0   0   0 # oby
   1272    1   2 -1.050000     1.710043696    24.037996667    10.234530671   0   0   0 # oby
   1273    1   2 -1.050000     5.513969272    26.380670000     9.595940671   0   0   0 # oby
   1274    1   2 -1.050000     4.165041647    22.779336667     8.230984261   0   0   0 # oby
   1275    1   2 -1.050000     6.021592386    24.580003333     7.745256874   0   0   0 # oby
   1276    1   3  2.100000     4.053218758    21.608000000     9.314481335   0   0   0 # sty
   1277    1   3  2.100000     6.508216708    25.209333333     9.151033597   0   0   0 # sty
   1278    1   3  2.100000     2.684169888    23.408666667    11.358848058   0   0   0 # sty
   1279    1   2 -1.050000     6.021592386    22.237330000     6.468076874   0   0   0 # oby
   1280    1   2 -1.050000     5.513969272    25.838663333     4.617393078   0   0   0 # oby
   1281    1   2 -1.050000     4.165041647    24.037996667     5.982349488   0   0   0 # oby
   1282    1   2 -1.050000     7.968967223    26.380670000     5.343759488   0   0   0 # oby
   1283    1   2 -1.050000     6.620039598    22.779336667     3.978803078   0   0   0 # oby
   1284    1   2 -1.050000     8.476590337    24.580003333     3.493075691   0   0   0 # oby
   1285    1   3  2.100000     6.508216708    21.608000000     5.062300152   0   0   0 # sty
   1286    1   3  2.100000     8.963214659    25.209333333     4.898852413   0   0   0 # sty
   1287    1   3  2.100000     5.139167839    23.408666667     7.106666874   0   0   0 # sty
   1288    1   1 -0.950000     8.265151697     1.373051449    27.728982790   0   0   0 # ohy
   1289    1   2 -1.165000     7.757528584     4.974384783    25.878298994   0   0   0 # oby
   1290    1   1 -0.950000     6.408600958     3.173718116    27.243255404   0   0   0 # ohy
   1291    1   2 -1.165000    10.212526534     5.516391449    26.604665404   0   0   0 # oby
   1292    1   2 -1.050000     8.863598909     1.915058116    25.239708994   0   0   0 # oby
   1293    1   2 -1.050000    10.720149648     3.715724783    24.753981607   0   0   0 # oby
   1294    1   3  2.100000     8.751776020     0.743721449    26.323206068   0   0   0 # sty
   1295    1   3  2.100000    11.206773970     4.345054783    26.159758329   0   0   0 # sty
   1296    1   3  2.100000     2.684169888    23.408666667     2.854485691   0   0   0 # sty
   1297    1   2 -1.050000    15.841584189    22.237330000    23.476801607   0   0   0 # oby
   1298    1   2 -1.050000    15.333961075    25.838663333    21.626117810   0   0   0 # oby
   1299    1   2 -1.050000    13.985033450    24.037996667    22.991074220   0   0   0 # oby
   1300    1   2 -1.050000    17.788959026    26.380670000    22.352484220   0   0   0 # oby
   1301    1   2 -1.050000    16.440031401    22.779336667    20.987527810   0   0   0 # oby
   1302    1   2 -1.050000    18.296582139    24.580003333    20.501800424   0   0   0 # oby
   1303    1   3  2.100000    16.328208511    21.608000000    22.071024885   0   0   0 # sty
   1304    1   3  2.100000    18.783206462    25.209333333    21.907577146   0   0   0 # sty
   1305    1   3  2.100000     9.837725101     2.544388116    24.115391607   0   0   0 # sty
   1306    1   2 -1.050000    18.296582139    22.237330000    19.224620424   0   0   0 # oby
   1307    1   2 -1.050000    17.788959026    25.838663333    17.373936627   0   0   0 # oby
   1308    1   2 -1.050000    16.440031401    24.037996667    18.738893037   0   0   0 # oby
   1309    1   2 -1.050000    20.243956977    26.380670000    18.100303037   0   0   0 # oby
   1310    1   2 -1.050000    18.895029351    22.779336667    16.735346627   0   0   0 # oby
   1311    1   2 -1.050000    20.751580090    24.580003333    16.249619241   0   0   0 # oby
   1312    1   3  2.100000    18.783206462    21.608000000    17.818843702   0   0   0 # sty
   1313    1   3  2.100000    21.238204413    25.209333333    17.655395963   0   0   0 # sty
   1314    1   3  2.100000    17.414157593    23.408666667    19.863210424   0   0   0 # sty
   1315    1   2 -1.050000    20.751580090    22.237330000    14.972439241   0   0   0 # oby
   1316    1   2 -1.050000    20.243956977    25.838663333    13.121755444   0   0   0 # oby
   1317    1   2 -1.050000    18.895029351    24.037996667    14.486711854   0   0   0 # oby
   1318    1   2 -1.050000    22.698954928    26.380670000    13.848121854   0   0   0 # oby
   1319    1   2 -1.050000    21.350027302    22.779336667    12.483165444   0   0   0 # oby
   1320    1   2 -1.050000    23.206578041    24.580003333    11.997438058   0   0   0 # oby
   1321    1   3  2.100000    21.238204413    21.608000000    13.566662518   0   0   0 # sty
   1322    1   3  2.100000    23.693202364    25.209333333    13.403214780   0   0   0 # sty
   1323    1   3  2.100000    19.869155543    23.408666667    15.611029241   0   0   0 # sty
   1324    1   2 -1.050000    23.206578041    22.237330000    10.720258058   0   0   0 # oby
   1325    1   2 -1.050000    22.698954928    25.838663333     8.869574261   0   0   0 # oby
   1326    1   2 -1.050000    21.350027302    24.037996667    10.234530671   0   0   0 # oby
   1327    1   2 -1.050000     0.603973371    26.380670000     9.595940671   0   0   0 # oby
   1328    1   2 -1.050000    23.805025253    22.779336667     8.230984261   0   0   0 # oby
   1329    1   2 -1.050000     1.111596484    24.580003333     7.745256874   0   0   0 # oby
   1330    1   3  2.100000    23.693202364    21.608000000     9.314481335   0   0   0 # sty
   1331    1   3  2.100000     1.598220807    25.209333333     9.151033597   0   0   0 # sty
   1332    1   3  2.100000    22.324153494    23.408666667    11.358848058   0   0   0 # sty
   1333    1   2 -1.050000     1.111596484    22.237330000     6.468076874   0   0   0 # oby
   1334    1   2 -1.050000     0.603973371    25.838663333     4.617393078   0   0   0 # oby
   1335    1   2 -1.050000    23.805025253    24.037996667     5.982349488   0   0   0 # oby
   1336    1   2 -1.050000     3.058971322    26.380670000     5.343759488   0   0   0 # oby
   1337    1   2 -1.050000     1.710043696    22.779336667     3.978803078   0   0   0 # oby
   1338    1   2 -1.050000     3.566594435    24.580003333     3.493075691   0   0   0 # oby
   1339    1   3  2.100000     1.598220807    21.608000000     5.062300152   0   0   0 # sty
   1340    1   3  2.100000     4.053218758    25.209333333     4.898852413   0   0   0 # sty
   1341    1   3  2.100000     0.229171938    23.408666667     7.106666874   0   0   0 # sty
   1342    1   4  0.425000     2.598397758     7.564498353    27.538743782   0   0   0 # hoy
   1343    1   4  0.425000     0.957126829     8.872112211    28.165780141   0   0   0 # hoy
   1344    1   4  0.425000    22.238381364     7.564498353    27.538743782   0   0   0 # hoy
   1345    1   4  0.425000    20.597110435     8.872112211    28.165780141   0   0   0 # hoy
   1346    1   4  0.425000    17.328385463     7.564498353    27.538743782   0   0   0 # hoy
   1347    1   4  0.425000    15.687114533     8.872112211    28.165780141   0   0   0 # hoy
   1348    1   4  0.425000    12.418389561     7.564498353    27.538743782   0   0   0 # hoy
   1349    1   4  0.425000    10.777118632     8.872112211    28.165780141   0   0   0 # hoy
   1350    1   4  0.425000     5.867122730     8.872112211    28.165780141   0   0   0 # hoy
   1351    1   4  0.425000     2.598397758    12.966498353    27.538743782   0   0   0 # hoy
   1352    1   4  0.425000     0.957126829    14.274112211    28.165780141   0   0   0 # hoy
   1353    1   4  0.425000    22.238381364    12.966498353    27.538743782   0   0   0 # hoy
   1354    1   4  0.425000    17.328385463    12.966498353    27.538743782   0   0   0 # hoy
   1355    1   4  0.425000    15.687114533    14.274112211    28.165780141   0   0   0 # hoy
   1356    1   4  0.425000    12.418389561    12.966498353    27.538743782   0   0   0 # hoy
   1357    1   4  0.425000    10.777118632    14.274112211    28.165780141   0   0   0 # hoy
   1358    1   4  0.425000     7.508393660    12.966498353    27.538743782   0   0   0 # hoy
   1359    1   4  0.425000     5.867122730    14.274112211    28.165780141   0   0   0 # hoy
   1360    1   4  0.425000     2.598397758    18.368498353    27.538743782   0   0   0 # hoy
   1361    1   4  0.425000     0.957126829    19.676112211    28.165780141   0   0   0 # hoy
   1362    1   4  0.425000    22.238381364    18.368498353    27.538743782   0   0   0 # hoy
   1363    1   4  0.425000    20.597110435    19.676112211    28.165780141   0   0   0 # hoy
   1364    1   4  0.425000    17.328385463    18.368498353    27.538743782   0   0   0 # hoy
   1365    1   4  0.425000    15.687114533    19.676112211    28.165780141   0   0   0 # hoy
   1366    1   4  0.425000    12.418389561    18.368498353    27.538743782   0   0   0 # hoy
   1367    1   4  0.425000    10.777118632    19.676112211    28.165780141   0   0   0 # hoy
   1368    1   4  0.425000     2.598397758    23.770498353    27.538743782   0   0   0 # hoy
   1369    1   4  0.425000     0.957126829    25.078112211    28.165780141   0   0   0 # hoy
   1370    1   4  0.425000    22.238381364    23.770498353    27.538743782   0   0   0 # hoy
   1371    1   4  0.425000    20.597110435    25.078112211    28.165780141   0   0   0 # hoy
   1372    1   4  0.425000    17.328385463    23.770498353    27.538743782   0   0   0 # hoy
   1373    1   4  0.425000    15.687114533    25.078112211    28.165780141   0   0   0 # hoy
   1374    1   4  0.425000    12.418389561    23.770498353    27.538743782   0   0   0 # hoy
   1375    1   4  0.425000    10.777118632    25.078112211    28.165780141   0   0   0 # hoy
   1376    1   4  0.425000     7.508393660    23.770498353    27.538743782   0   0   0 # hoy
   1377    1   4  0.425000     5.867122730    25.078112211    28.165780141   0   0   0 # hoy
   1378    1   4  0.425000     2.598397758     2.162498353    27.538743782   0   0   0 # hoy
   1379    1   4  0.425000     0.957126829     3.470112211    28.165780141   0   0   0 # hoy
   1380    1   4  0.425000    22.238381364     2.162498353    27.538743782   0   0   0 # hoy
   1381    1   4  0.425000    20.597110435     3.470112211    28.165780141   0   0   0 # hoy
   1382    1   4  0.425000    17.328385463     2.162498353    27.538743782   0   0   0 # hoy
   1383    1   4  0.425000    15.687114533     3.470112211    28.165780141   0   0   0 # hoy
   1384    1   4  0.425000    12.418389561     2.162498353    27.538743782   0   0   0 # hoy
   1385    1   4  0.425000    10.777118632     3.470112211    28.165780141   0   0   0 # hoy
   1386    1   4  0.425000     7.508393660     2.162498353    27.538743782   0   0   0 # hoy
   1387    1   4  0.425000     5.867122730     3.470112211    28.165780141   0   0   0 # hoy
   1388    1   1 -0.950000    21.475210402     2.369672611     1.702475392   0   0   0 # ohy
   1389    1   1 -0.950000    23.255748649     0.702248870     2.309317204   0   0   0 # ohy
   1390    1   1 -0.950000    16.565214501     2.369672611     1.702475392   0   0   0 # ohy
   1391    1   1 -0.950000    18.345752748     0.702248870     2.309317204   0   0   0 # ohy
   1392    1   1 -0.950000    11.655218599     2.369672611     1.702475392   0   0   0 # ohy
   1393    1   1 -0.950000    13.435756847     0.702248870     2.309317204   0   0   0 # ohy
   1394    1   1 -0.950000     6.745222698     2.369672611     1.702475392   0   0   0 # ohy
   1395    1   1 -0.950000     8.525760945     0.702248870     2.309317204   0   0   0 # ohy
   1396    1   1 -0.950000     1.835226796     2.369672611     1.702475392   0   0   0 # ohy
   1397    1   1 -0.950000     3.615765044     0.702248870     2.309317204   0   0   0 # ohy
   1398    1   1 -0.950000    21.475210402     7.771672611     1.702475392   0   0   0 # ohy
   1399    1   1 -0.950000    23.255748649     6.104248870     2.309317204   0   0   0 # ohy
   1400    1   1 -0.950000    16.565214501     7.771672611     1.702475392   0   0   0 # ohy
   1401    1   1 -0.950000    18.345752748     6.104248870     2.309317204   0   0   0 # ohy
   1402    1   1 -0.950000    11.655218599     7.771672611     1.702475392   0   0   0 # ohy
   1403    1   1 -0.950000    13.435756847     6.104248870     2.309317204   0   0   0 # ohy
   1404    1   1 -0.950000     6.745222698     7.771672611     1.702475392   0   0   0 # ohy
   1405    1   1 -0.950000     8.525760945     6.104248870     2.309317204   0   0   0 # ohy
   1406    1   1 -0.950000     1.835226796     7.771672611     1.702475392   0   0   0 # ohy
   1407    1   1 -0.950000     3.615765044     6.104248870     2.309317204   0   0   0 # ohy
   1408    1   1 -0.950000    21.475210402    13.173672611     1.702475392   0   0   0 # ohy
   1409    1   1 -0.950000    23.255748649    11.506248870     2.309317204   0   0   0 # ohy
   1410    1   1 -0.950000    16.565214501    13.173672611     1.702475392   0   0   0 # ohy
   1411    1   1 -0.950000    18.345752748    11.506248870     2.309317204   0   0   0 # ohy
   1412    1   1 -0.950000    11.655218599    13.173672611     1.702475392   0   0   0 # ohy
   1413    1   1 -0.950000    13.435756847    11.506248870     2.309317204   0   0   0 # ohy
   1414    1   1 -0.950000     6.745222698    13.173672611     1.702475392   0   0   0 # ohy
   1415    1   1 -0.950000     8.525760945    11.506248870     2.309317204   0   0   0 # ohy
   1416    1   1 -0.950000     1.835226796    13.173672611     1.702475392   0   0   0 # ohy
   1417    1   1 -0.950000     3.615765044    11.506248870     2.309317204   0   0   0 # ohy
   1418    1   1 -0.950000    21.475210402    18.575672611     1.702475392   0   0   0 # ohy
   1419    1   1 -0.950000    23.255748649    16.908248870     2.309317204   0   0   0 # ohy
   1420    1   1 -0.950000    16.565214501    18.575672611     1.702475392   0   0   0 # ohy
   1421    1   1 -0.950000    18.345752748    16.908248870     2.309317204   0   0   0 # ohy
   1422    1   1 -0.950000    11.655218599    18.575672611     1.702475392   0   0   0 # ohy
   1423    1   1 -0.950000    13.435756847    16.908248870     2.309317204   0   0   0 # ohy
   1424    1   1 -0.950000     6.745222698    18.575672611     1.702475392   0   0   0 # ohy
   1425    1   1 -0.950000     8.525760945    16.908248870     2.309317204   0   0   0 # ohy
   1426    1   1 -0.950000     1.835226796    18.575672611     1.702475392   0   0   0 # ohy
   1427    1   1 -0.950000     3.615765044    16.908248870     2.309317204   0   0   0 # ohy
   1428    1   1 -0.950000    21.475210402    23.977672611     1.702475392   0   0   0 # ohy
   1429    1   1 -0.950000    23.255748649    22.310248870     2.309317204   0   0   0 # ohy
   1430    1   1 -0.950000    16.565214501    23.977672611     1.702475392   0   0   0 # ohy
   1431    1   1 -0.950000    18.345752748    22.310248870     2.309317204   0   0   0 # ohy
   1432    1   1 -0.950000    11.655218599    23.977672611     1.702475392   0   0   0 # ohy
   1433    1   1 -0.950000    13.435756847    22.310248870     2.309317204   0   0   0 # ohy
   1434    1   1 -0.950000     6.745222698    23.977672611     1.702475392   0   0   0 # ohy
   1435    1   1 -0.950000     8.525760945    22.310248870     2.309317204   0   0   0 # ohy
   1436    1   1 -0.950000     1.835226796    23.977672611     1.702475392   0   0   0 # ohy
   1437    1   1 -0.950000     3.615765044    22.310248870     2.309317204   0   0   0 # ohy
   1438    1   4  0.425000    20.713049969     3.064575484     2.112745415   0   0   0 # hoy
   1439    1   4  0.425000    23.216837209     0.701079586     1.200000048   0   0   0 # hoy
   1440    1   4  0.425000    15.803054067     3.064575484     2.112745415   0   0   0 # hoy
   1441    1   4  0.425000    18.306841307     0.701079586     1.200000048   0   0   0 # hoy
   1442    1   4  0.425000    10.893058166     3.064575484     2.112745415   0   0   0 # hoy
   1443    1   4  0.425000    13.396845406     0.701079586     1.200000048   0   0   0 # hoy
   1444    1   4  0.425000     5.983062264     3.064575484     2.112745415   0   0   0 # hoy
   1445    1   4  0.425000     8.486849504     0.701079586     1.200000048   0   0   0 # hoy
   1446    1   4  0.425000     1.073066363     3.064575484     2.112745415   0   0   0 # hoy
   1447    1   4  0.425000     3.576853603     0.701079586     1.200000048   0   0   0 # hoy
   1448    1   4  0.425000    20.713049969     8.466575484     2.112745415   0   0   0 # hoy
   1449    1   4  0.425000    23.216837209     6.103079586     1.200000048   0   0   0 # hoy
   1450    1   4  0.425000    15.803054067     8.466575484     2.112745415   0   0   0 # hoy
   1451    1   4  0.425000    18.306841307     6.103079586     1.200000048   0   0   0 # hoy
   1452    1   4  0.425000    10.893058166     8.466575484     2.112745415   0   0   0 # hoy
   1453    1   4  0.425000    13.396845406     6.103079586     1.200000048   0   0   0 # hoy
   1454    1   4  0.425000     5.983062264     8.466575484     2.112745415   0   0   0 # hoy
   1455    1   4  0.425000     8.486849504     6.103079586     1.200000048   0   0   0 # hoy
   1456    1   4  0.425000     1.073066363     8.466575484     2.112745415   0   0   0 # hoy
   1457    1   4  0.425000     3.576853603     6.103079586     1.200000048   0   0   0 # hoy
   1458    1   4  0.425000    20.713049969    13.868575484     2.112745415   0   0   0 # hoy
   1459    1   4  0.425000    23.216837209    11.505079586     1.200000048   0   0   0 # hoy
   1460    1   4  0.425000    15.803054067    13.868575484     2.112745415   0   0   0 # hoy
   1461    1   4  0.425000    18.306841307    11.505079586     1.200000048   0   0   0 # hoy
   1462    1   4  0.425000    10.893058166    13.868575484     2.112745415   0   0   0 # hoy
   1463    1   4  0.425000    13.396845406    11.505079586     1.200000048   0   0   0 # hoy
   1464    1   4  0.425000     5.983062264    13.868575484     2.112745415   0   0   0 # hoy
   1465    1   4  0.425000     8.486849504    11.505079586     1.200000048   0   0   0 # hoy
   1466    1   4  0.425000     1.073066363    13.868575484     2.112745415   0   0   0 # hoy
   1467    1   4  0.425000     3.576853603    11.505079586     1.200000048   0   0   0 # hoy
   1468    1   4  0.425000    20.713049969    19.270575484     2.112745415   0   0   0 # hoy
   1469    1   4  0.425000    23.216837209    16.907079586     1.200000048   0   0   0 # hoy
   1470    1   4  0.425000    15.803054067    19.270575484     2.112745415   0   0   0 # hoy
   1471    1   4  0.425000    18.306841307    16.907079586     1.200000048   0   0   0 # hoy
   1472    1   4  0.425000    10.893058166    19.270575484     2.112745415   0   0   0 # hoy
   1473    1   4  0.425000    13.396845406    16.907079586     1.200000048   0   0   0 # hoy
   1474    1   4  0.425000     5.983062264    19.270575484     2.112745415   0   0   0 # hoy
   1475    1   4  0.425000     8.486849504    16.907079586     1.200000048   0   0   0 # hoy
   1476    1   4  0.425000     1.073066363    19.270575484     2.112745415   0   0   0 # hoy
   1477    1   4  0.425000     3.576853603    16.907079586     1.200000048   0   0   0 # hoy
   1478    1   4  0.425000    20.713049969    24.672575484     2.112745415   0   0   0 # hoy
   1479    1   4  0.425000    23.216837209    22.309079586     1.200000048   0   0   0 # hoy
   1480    1   4  0.425000    15.803054067    24.672575484     2.112745415   0   0   0 # hoy
   1481    1   4  0.425000    18.306841307    22.309079586     1.200000048   0   0   0 # hoy
   1482    1   4  0.425000    10.893058166    24.672575484     2.112745415   0   0   0 # hoy
   1483    1   4  0.425000    13.396845406    22.309079586     1.200000048   0   0   0 # hoy
   1484    1   4  0.425000     5.983062264    24.672575484     2.112745415   0   0   0 # hoy
   1485    1   4  0.425000     8.486849504    22.309079586     1.200000048   0   0   0 # hoy
   1486    1   4  0.425000     1.073066363    24.672575484     2.112745415   0   0   0 # hoy
   1487    1   4  0.425000     3.576853603    22.309079586     1.200000048   0   0   0 # hoy
   1488    1   4  0.425000     9.145052745    17.960260123    28.288048182   0   0   0 # hoy
   1489    1   1 -1.065000     8.265151697     6.775051449    27.728982790   0   0   0 # ohy
   1490    1   3  1.985000     8.751776020     6.145721449    26.323206068   0   0   0 # sty
   1491    1   2 -1.165000     5.302530633    21.722391449    26.604665404   0   0   0 # oby
   1492    1   2 -1.165000     5.810153746    19.921724783    24.753981607   0   0   0 # oby
   1493    1   3  1.985000     6.296778069    20.551054783    26.159758329   0   0   0 # sty
   1494    1   2 -1.165000     7.757528584    21.180384783    25.878298994   0   0   0 # oby
   1495    1   1 -1.065000     6.408600958    19.379718116    27.243255404   0   0   0 # ohy
   1496    1   1 -1.065000    21.138588662    13.977718116    27.243255404   0   0   0 # ohy
   1497    1   3  1.985000    21.026765773    15.149054783    26.159758329   0   0   0 # sty

Bonds

     1   1      1   1342
     2   1      3   1343
     3   1     55   1344
     4   1     57   1345
     5   1    109   1346
     6   1    111   1347
     7   1    163   1348
     8   1    165   1349
     9   1    218   1350
    10   1    269   1351
    11   1    271   1352
    12   1    323   1353
    13   1    376   1354
    14   1    378   1355
    15   1    429   1356
    16   1    431   1357
    17   1    483   1358
    18   1    485   1359
    19   1    537   1360
    20   1    539   1361
    21   1    588   1362
    22   1    590   1363
    23   1    642   1364
    24   1    644   1365
    25   1    696   1366
    26   1    698   1367
    27   1    750   1488
    28   1    802   1368
    29   1    804   1369
    30   1    856   1370
    31   1    858   1371
    32   1    910   1372
    33   1    912   1373
    34   1    964   1374
    35   1    966   1375
    36   1   1018   1376
    37   1   1020   1377
    38   1   1072   1378
    39   1   1074   1379
    40   1   1126   1380
    41   1   1128   1381
    42   1   1180   1382
    43   1   1182   1383
    44   1   1234   1384
    45   1   1236   1385
    46   1   1288   1386
    47   1   1290   1387
    48   1   1388   1438
    49   1   1389   1439
    50   1   1390   1440
    51   1   1391   1441
    52   1   1392   1442
    53   1   1393   1443
    54   1   1394   1444
    55   1   1395   1445
    56   1   1396   1446
    57   1   1397   1447
    58   1   1398   1448
    59   1   1399   1449
    60   1   1400   1450
    61   1   1401   1451
    62   1   1402   1452
    63   1   1403   1453
    64   1   1404   1454
    65   1   1405   1455
    66   1   1406   1456
    67   1   1407   1457
    68   1   1408   1458
    69   1   1409   1459
    70   1   1410   1460
    71   1   1411   1461
    72   1   1412   1462
    73   1   1413   1463
    74   1   1414   1464
    75   1   1415   1465
    76   1   1416   1466
    77   1   1417   1467
    78   1   1418   1468
    79   1   1419   1469
    80   1   1420   1470
    81   1   1421   1471
    82   1   1422   1472
    83   1   1423   1473
    84   1   1424   1474
    85   1   1425   1475
    86   1   1426   1476
    87   1   1427   1477
    88   1   1428   1478
    89   1   1429   1479
    90   1   1430   1480
    91   1   1431   1481
    92   1   1432   1482
    93   1   1433   1483
    94   1   1434   1484
    95   1   1435   1485
    96   1   1436   1486
    97   1   1437   1487

Angles

     1   1      7      1   1342
     2   1     62      3   1343
     3   1     61     55   1344
     4   1    116     57   1345
     5   1    115    109   1346
     6   1    170    111   1347
     7   1    169    163   1348
     8   1    222    165   1349
     9   1      8    218   1350
    10   1    275    269   1351
    11   1    329    271   1352
    12   1    328    323   1353
    13   1    382    376   1354
    14   1    436    378   1355
    15   1    435    429   1356
    16   1    490    431   1357
    17   1    489    483   1358
    18   1    276    485   1359
    19   1    541    537   1360
    20   1    595    539   1361
    21   1    594    588   1362
    22   1    649    590   1363
    23   1    648    642   1364
    24   1    703    644   1365
    25   1    702    696   1366
    26   1    755    698   1367
    27   1    754    750   1488
    28   1    808    802   1368
    29   1    863    804   1369
    30   1    862    856   1370
    31   1    917    858   1371
    32   1    916    910   1372
    33   1    971    912   1373
    34   1    970    964   1374
    35   1   1025    966   1375
    36   1   1024   1018   1376
    37   1    809   1020   1377
    38   1   1078   1072   1378
    39   1   1133   1074   1379
    40   1   1132   1126   1380
    41   1   1187   1128   1381
    42   1   1186   1180   1382
    43   1   1241   1182   1383
    44   1   1240   1234   1384
    45   1   1295   1236   1385
    46   1   1294   1288   1386
    47   1   1079   1290   1387
    48   1      9   1388   1438
    49   1      9   1389   1439
    50   1     63   1390   1440
    51   1     63   1391   1441
    52   1    117   1392   1442
    53   1    117   1393   1443
    54   1    171   1394   1444
    55   1    171   1395   1445
    56   1    223   1396   1446
    57   1    223   1397   1447
    58   1    277   1398   1448
    59   1    277   1399   1449
    60   1    330   1400   1450
    61   1    330   1401   1451
    62   1    383   1402   1452
    63   1    383   1403   1453
    64   1    437   1404   1454
    65   1    437   1405   1455
    66   1    491   1406   1456
    67   1    491   1407   1457
    68   1    542   1408   1458
    69   1    542   1409   1459
    70   1    596   1410   1460
    71   1    596   1411   1461
    72   1    650   1412   1462
    73   1    650   1413   1463
    74   1    704   1414   1464
    75   1    704   1415   1465
    76   1    756   1416   1466
    77   1    756   1417   1467
    78   1    810   1418   1468
    79   1    810   1419   1469
    80   1    864   1420   1470
    81   1    864   1421   1471
    82   1    918   1422   1472
    83   1    918   1423   1473
    84   1    972   1424   1474
    85   1    972   1425   1475
    86   1   1026   1426   1476
    87   1   1026   1427   1477
    88   1   1080   1428   1478
    89   1   1080   1429   1479
    90   1   1134   1430   1480
    91   1   1134   1431   1481
    92   1   1188   1432   1482
    93   1   1188   1433   1483
    94   1   1242   1434   1484
    95   1   1242   1435   1485
    96   1   1296   1436   1486
    97   1   1296   1437   1487
