LAMMPS data file for qtz100a-surf-6

   1494 atoms
   94 bonds
   94 angles
      0 dihedrals
      0 impropers

   4 atom types
   1 bond types
   1 angle types

     0.159755253    24.709755253 xlo xhi
    -0.367280353    26.642719647 ylo yhi
   -77.050726882   105.904073118 zlo zhi

Masses

   1  15.999400 # ohy
   2  15.999400 # oby
   3  28.085500 # sty
   4   1.007940 # hoy

Pair Coeffs # lj/cut/coul/long

   1   0.1554000000   3.1655413253 # ohy
   2   0.1554000000   3.1655413253 # oby
   3   0.0000018405   3.3020269922 # sty
   4   0.0000000000   0.0000000000 # hoy

Bond Coeffs # harmonic

   1   554.1348     1.0000 # ohy-hoy

Angle Coeffs # harmonic

   1    30.0000   109.4700 # sty-ohy-hoy

Atoms # full

      1      1   1 -0.950000    16.396927704     0.629330000     1.636797398   0   0   0 # ohy
      2      1   2 -1.050000    16.904550818     4.230663333     3.487481195   0   0   0 # oby
      3      1   1 -0.950000    18.253478443     2.429996667     2.122524785   0   0   0 # ohy
      4      1   2 -1.050000    14.449552867     4.772670000     2.761114785   0   0   0 # oby
      5      1   2 -1.050000    15.798480493     1.171336667     4.126071195   0   0   0 # oby
      6      1   2 -1.050000    13.941929754     2.972003333     4.611798581   0   0   0 # oby
      7      1   3  2.100000    15.910303382    -0.000000000     3.042574120   0   0   0 # sty
      8      1   3  2.100000    13.455305431     3.601333333     3.206021859   0   0   0 # sty
      9      1   3  1.985000     2.549364547     1.800666667    26.511294497   0   0   0 # sty
     10      1   2 -1.050000    13.941929754     0.629330000     5.888978581   0   0   0 # oby
     11      1   2 -1.050000    14.449552867     4.230663333     7.739662378   0   0   0 # oby
     12      1   2 -1.050000    15.798480493     2.429996667     6.374705968   0   0   0 # oby
     13      1   2 -1.050000    11.994554916     4.772670000     7.013295968   0   0   0 # oby
     14      1   2 -1.050000    13.343482542     1.171336667     8.378252378   0   0   0 # oby
     15      1   2 -1.050000    11.486931803     2.972003333     8.863979764   0   0   0 # oby
     16      1   3  2.100000    13.455305431    -0.000000000     7.294755303   0   0   0 # sty
     17      1   3  2.100000    11.000307480     3.601333333     7.458203042   0   0   0 # sty
     18      1   3  2.100000    14.824354300     1.800666667     5.250388581   0   0   0 # sty
     19      1   2 -1.050000    11.486931803     0.629330000    10.141159764   0   0   0 # oby
     20      1   2 -1.050000    11.994554916     4.230663333    11.991843561   0   0   0 # oby
     21      1   2 -1.050000    13.343482542     2.429996667    10.626887151   0   0   0 # oby
     22      1   2 -1.050000     9.539556966     4.772670000    11.265477151   0   0   0 # oby
     23      1   2 -1.050000    10.888484591     1.171336667    12.630433561   0   0   0 # oby
     24      1   2 -1.050000     9.031933852     2.972003333    13.116160948   0   0   0 # oby
     25      1   3  2.100000    11.000307480    -0.000000000    11.546936487   0   0   0 # sty
     26      1   3  2.100000     8.545309530     3.601333333    11.710384225   0   0   0 # sty
     27      1   3  2.100000    12.369356350     1.800666667     9.502569764   0   0   0 # sty
     28      1   2 -1.050000     9.031933852     0.629330000    14.393340948   0   0   0 # oby
     29      1   2 -1.050000     9.539556966     4.230663333    16.244024744   0   0   0 # oby
     30      1   2 -1.050000    10.888484591     2.429996667    14.879068334   0   0   0 # oby
     31      1   2 -1.050000     7.084559015     4.772670000    15.517658334   0   0   0 # oby
     32      1   2 -1.050000     8.433486640     1.171336667    16.882614744   0   0   0 # oby
     33      1   2 -1.050000     6.576935901     2.972003333    17.368342131   0   0   0 # oby
     34      1   3  2.100000     8.545309530    -0.000000000    15.799117670   0   0   0 # sty
     35      1   3  2.100000     6.090311579     3.601333333    15.962565409   0   0   0 # sty
     36      1   3  2.100000     9.914358399     1.800666667    13.754750948   0   0   0 # sty
     37      1   2 -1.050000     6.576935901     0.629330000    18.645522131   0   0   0 # oby
     38      1   2 -1.050000     7.084559015     4.230663333    20.496205927   0   0   0 # oby
     39      1   2 -1.050000     8.433486640     2.429996667    19.131249517   0   0   0 # oby
     40      1   2 -1.050000     4.629561064     4.772670000    19.769839517   0   0   0 # oby
     41      1   2 -1.050000     5.978488690     1.171336667    21.134795927   0   0   0 # oby
     42      1   2 -1.050000     4.121937951     2.972003333    21.620523314   0   0   0 # oby
     43      1   3  2.100000     6.090311579    -0.000000000    20.051298853   0   0   0 # sty
     44      1   3  2.100000     3.635313628     3.601333333    20.214746592   0   0   0 # sty
     45      1   3  2.100000     7.459360448     1.800666667    18.006932131   0   0   0 # sty
     46      1   2 -1.050000     4.121937951     0.629330000    22.897703314   0   0   0 # oby
     47      1   2 -1.050000     4.629561064     4.230663333    24.748387110   0   0   0 # oby
     48      1   2 -1.050000     5.978488690     2.429996667    23.383430700   0   0   0 # oby
     49      1   2 -1.050000     2.174563113     4.772670000    24.022020700   0   0   0 # oby
     50      1   2 -1.165000     3.523490739     1.171336667    25.386977110   0   0   0 # oby
     51      1   2 -1.165000     1.666940000     2.972003333    25.872704497   0   0   0 # oby
     52      1   3  2.100000     3.635313628    -0.000000000    24.303480036   0   0   0 # sty
     53      1   3  2.100000     1.180315677     3.601333333    24.466927775   0   0   0 # sty
     54      1   3  2.100000     5.004362497     1.800666667    22.259113314   0   0   0 # sty
     55      1   1 -0.950000    21.306923606     0.629330000     1.636797398   0   0   0 # ohy
     56      1   2 -1.050000    21.814546719     4.230663333     3.487481195   0   0   0 # oby
     57      1   1 -0.950000    23.163474345     2.429996667     2.122524785   0   0   0 # ohy
     58      1   2 -1.050000    19.359548768     4.772670000     2.761114785   0   0   0 # oby
     59      1   2 -1.050000    20.708476394     1.171336667     4.126071195   0   0   0 # oby
     60      1   2 -1.050000    18.851925655     2.972003333     4.611798581   0   0   0 # oby
     61      1   3  2.100000    20.820299283    -0.000000000     3.042574120   0   0   0 # sty
     62      1   3  2.100000    18.365301332     3.601333333     3.206021859   0   0   0 # sty
     63      1   3  2.100000     7.459360448     1.800666667    26.511294497   0   0   0 # sty
     64      1   2 -1.050000    18.851925655     0.629330000     5.888978581   0   0   0 # oby
     65      1   2 -1.050000    19.359548768     4.230663333     7.739662378   0   0   0 # oby
     66      1   2 -1.050000    20.708476394     2.429996667     6.374705968   0   0   0 # oby
     67      1   2 -1.050000    16.904550818     4.772670000     7.013295968   0   0   0 # oby
     68      1   2 -1.050000    18.253478443     1.171336667     8.378252378   0   0   0 # oby
     69      1   2 -1.050000    16.396927704     2.972003333     8.863979764   0   0   0 # oby
     70      1   3  2.100000    18.365301332    -0.000000000     7.294755303   0   0   0 # sty
     71      1   3  2.100000    15.910303382     3.601333333     7.458203042   0   0   0 # sty
     72      1   3  2.100000    19.734350202     1.800666667     5.250388581   0   0   0 # sty
     73      1   2 -1.050000    16.396927704     0.629330000    10.141159764   0   0   0 # oby
     74      1   2 -1.050000    16.904550818     4.230663333    11.991843561   0   0   0 # oby
     75      1   2 -1.050000    18.253478443     2.429996667    10.626887151   0   0   0 # oby
     76      1   2 -1.050000    14.449552867     4.772670000    11.265477151   0   0   0 # oby
     77      1   2 -1.050000    15.798480493     1.171336667    12.630433561   0   0   0 # oby
     78      1   2 -1.050000    13.941929754     2.972003333    13.116160948   0   0   0 # oby
     79      1   3  2.100000    15.910303382    -0.000000000    11.546936487   0   0   0 # sty
     80      1   3  2.100000    13.455305431     3.601333333    11.710384225   0   0   0 # sty
     81      1   3  2.100000    17.279352251     1.800666667     9.502569764   0   0   0 # sty
     82      1   2 -1.050000    13.941929754     0.629330000    14.393340948   0   0   0 # oby
     83      1   2 -1.050000    14.449552867     4.230663333    16.244024744   0   0   0 # oby
     84      1   2 -1.050000    15.798480493     2.429996667    14.879068334   0   0   0 # oby
     85      1   2 -1.050000    11.994554916     4.772670000    15.517658334   0   0   0 # oby
     86      1   2 -1.050000    13.343482542     1.171336667    16.882614744   0   0   0 # oby
     87      1   2 -1.050000    11.486931803     2.972003333    17.368342131   0   0   0 # oby
     88      1   3  2.100000    13.455305431    -0.000000000    15.799117670   0   0   0 # sty
     89      1   3  2.100000    11.000307480     3.601333333    15.962565409   0   0   0 # sty
     90      1   3  2.100000    14.824354300     1.800666667    13.754750948   0   0   0 # sty
     91      1   2 -1.050000    11.486931803     0.629330000    18.645522131   0   0   0 # oby
     92      1   2 -1.050000    11.994554916     4.230663333    20.496205927   0   0   0 # oby
     93      1   2 -1.050000    13.343482542     2.429996667    19.131249517   0   0   0 # oby
     94      1   2 -1.050000     9.539556966     4.772670000    19.769839517   0   0   0 # oby
     95      1   2 -1.050000    10.888484591     1.171336667    21.134795927   0   0   0 # oby
     96      1   2 -1.050000     9.031933852     2.972003333    21.620523314   0   0   0 # oby
     97      1   3  2.100000    11.000307480    -0.000000000    20.051298853   0   0   0 # sty
     98      1   3  2.100000     8.545309530     3.601333333    20.214746592   0   0   0 # sty
     99      1   3  2.100000    12.369356350     1.800666667    18.006932131   0   0   0 # sty
    100      1   2 -1.050000     9.031933852     0.629330000    22.897703314   0   0   0 # oby
    101      1   2 -1.050000     9.539556966     4.230663333    24.748387110   0   0   0 # oby
    102      1   2 -1.050000    10.888484591     2.429996667    23.383430700   0   0   0 # oby
    103      1   2 -1.050000     7.084559015     4.772670000    24.022020700   0   0   0 # oby
    104      1   2 -1.050000     8.433486640     1.171336667    25.386977110   0   0   0 # oby
    105      1   2 -1.050000     6.576935901     2.972003333    25.872704497   0   0   0 # oby
    106      1   3  2.100000     8.545309530    -0.000000000    24.303480036   0   0   0 # sty
    107      1   3  2.100000     6.090311579     3.601333333    24.466927775   0   0   0 # sty
    108      1   3  2.100000     9.914358399     1.800666667    22.259113314   0   0   0 # sty
    109      1   1 -0.950000     1.666940000     0.629330000     1.636797398   0   0   0 # ohy
    110      1   2 -1.050000     2.174563113     4.230663333     3.487481195   0   0   0 # oby
    111      1   1 -0.950000     3.523490739     2.429996667     2.122524785   0   0   0 # ohy
    112      1   2 -1.050000    24.269544670     4.772670000     2.761114785   0   0   0 # oby
    113      1   2 -1.050000     1.068492788     1.171336667     4.126071195   0   0   0 # oby
    114      1   2 -1.050000    23.761921557     2.972003333     4.611798581   0   0   0 # oby
    115      1   3  2.100000     1.180315677    -0.000000000     3.042574120   0   0   0 # sty
    116      1   3  2.100000    23.275297234     3.601333333     3.206021859   0   0   0 # sty
    117      1   3  2.100000    12.369356350     1.800666667    26.511294497   0   0   0 # sty
    118      1   2 -1.050000    23.761921557     0.629330000     5.888978581   0   0   0 # oby
    119      1   2 -1.050000    24.269544670     4.230663333     7.739662378   0   0   0 # oby
    120      1   2 -1.050000     1.068492788     2.429996667     6.374705968   0   0   0 # oby
    121      1   2 -1.050000    21.814546719     4.772670000     7.013295968   0   0   0 # oby
    122      1   2 -1.050000    23.163474345     1.171336667     8.378252378   0   0   0 # oby
    123      1   2 -1.050000    21.306923606     2.972003333     8.863979764   0   0   0 # oby
    124      1   3  2.100000    23.275297234    -0.000000000     7.294755303   0   0   0 # sty
    125      1   3  2.100000    20.820299283     3.601333333     7.458203042   0   0   0 # sty
    126      1   3  2.100000    24.644366596     1.800666667     5.250388581  -1   0   0 # sty
    127      1   2 -1.050000    21.306923606     0.629330000    10.141159764   0   0   0 # oby
    128      1   2 -1.050000    21.814546719     4.230663333    11.991843561   0   0   0 # oby
    129      1   2 -1.050000    23.163474345     2.429996667    10.626887151   0   0   0 # oby
    130      1   2 -1.050000    19.359548768     4.772670000    11.265477151   0   0   0 # oby
    131      1   2 -1.050000    20.708476394     1.171336667    12.630433561   0   0   0 # oby
    132      1   2 -1.050000    18.851925655     2.972003333    13.116160948   0   0   0 # oby
    133      1   3  2.100000    20.820299283    -0.000000000    11.546936487   0   0   0 # sty
    134      1   3  2.100000    18.365301332     3.601333333    11.710384225   0   0   0 # sty
    135      1   3  2.100000    22.189348153     1.800666667     9.502569764   0   0   0 # sty
    136      1   2 -1.050000    18.851925655     0.629330000    14.393340948   0   0   0 # oby
    137      1   2 -1.050000    19.359548768     4.230663333    16.244024744   0   0   0 # oby
    138      1   2 -1.050000    20.708476394     2.429996667    14.879068334   0   0   0 # oby
    139      1   2 -1.050000    16.904550818     4.772670000    15.517658334   0   0   0 # oby
    140      1   2 -1.050000    18.253478443     1.171336667    16.882614744   0   0   0 # oby
    141      1   2 -1.050000    16.396927704     2.972003333    17.368342131   0   0   0 # oby
    142      1   3  2.100000    18.365301332    -0.000000000    15.799117670   0   0   0 # sty
    143      1   3  2.100000    15.910303382     3.601333333    15.962565409   0   0   0 # sty
    144      1   3  2.100000    19.734350202     1.800666667    13.754750948   0   0   0 # sty
    145      1   2 -1.050000    16.396927704     0.629330000    18.645522131   0   0   0 # oby
    146      1   2 -1.050000    16.904550818     4.230663333    20.496205927   0   0   0 # oby
    147      1   2 -1.050000    18.253478443     2.429996667    19.131249517   0   0   0 # oby
    148      1   2 -1.050000    14.449552867     4.772670000    19.769839517   0   0   0 # oby
    149      1   2 -1.050000    15.798480493     1.171336667    21.134795927   0   0   0 # oby
    150      1   2 -1.050000    13.941929754     2.972003333    21.620523314   0   0   0 # oby
    151      1   3  2.100000    15.910303382    -0.000000000    20.051298853   0   0   0 # sty
    152      1   3  2.100000    13.455305431     3.601333333    20.214746592   0   0   0 # sty
    153      1   3  2.100000    17.279352251     1.800666667    18.006932131   0   0   0 # sty
    154      1   2 -1.050000    13.941929754     0.629330000    22.897703314   0   0   0 # oby
    155      1   2 -1.050000    14.449552867     4.230663333    24.748387110   0   0   0 # oby
    156      1   2 -1.050000    15.798480493     2.429996667    23.383430700   0   0   0 # oby
    157      1   2 -1.050000    11.994554916     4.772670000    24.022020700   0   0   0 # oby
    158      1   2 -1.050000    13.343482542     1.171336667    25.386977110   0   0   0 # oby
    159      1   2 -1.050000    11.486931803     2.972003333    25.872704497   0   0   0 # oby
    160      1   3  2.100000    13.455305431    -0.000000000    24.303480036   0   0   0 # sty
    161      1   3  2.100000    11.000307480     3.601333333    24.466927775   0   0   0 # sty
    162      1   3  2.100000    14.824354300     1.800666667    22.259113314   0   0   0 # sty
    163      1   1 -0.950000     6.576935901     0.629330000     1.636797398   0   0   0 # ohy
    164      1   2 -1.050000     7.084559015     4.230663333     3.487481195   0   0   0 # oby
    165      1   1 -0.950000     8.433486640     2.429996667     2.122524785   0   0   0 # ohy
    166      1   2 -1.050000     4.629561064     4.772670000     2.761114785   0   0   0 # oby
    167      1   2 -1.050000     5.978488690     1.171336667     4.126071195   0   0   0 # oby
    168      1   2 -1.050000     4.121937951     2.972003333     4.611798581   0   0   0 # oby
    169      1   3  2.100000     6.090311579    -0.000000000     3.042574120   0   0   0 # sty
    170      1   3  2.100000     3.635313628     3.601333333     3.206021859   0   0   0 # sty
    171      1   3  2.100000    17.279352251     1.800666667    26.511294497   0   0   0 # sty
    172      1   2 -1.050000     4.121937951     0.629330000     5.888978581   0   0   0 # oby
    173      1   2 -1.050000     4.629561064     4.230663333     7.739662378   0   0   0 # oby
    174      1   2 -1.050000     5.978488690     2.429996667     6.374705968   0   0   0 # oby
    175      1   2 -1.050000     2.174563113     4.772670000     7.013295968   0   0   0 # oby
    176      1   2 -1.050000     3.523490739     1.171336667     8.378252378   0   0   0 # oby
    177      1   2 -1.050000     1.666940000     2.972003333     8.863979764   0   0   0 # oby
    178      1   3  2.100000     3.635313628    -0.000000000     7.294755303   0   0   0 # sty
    179      1   3  2.100000     1.180315677     3.601333333     7.458203042   0   0   0 # sty
    180      1   3  2.100000     5.004362497     1.800666667     5.250388581   0   0   0 # sty
    181      1   2 -1.050000     1.666940000     0.629330000    10.141159764   0   0   0 # oby
    182      1   2 -1.050000     2.174563113     4.230663333    11.991843561   0   0   0 # oby
    183      1   2 -1.050000     3.523490739     2.429996667    10.626887151   0   0   0 # oby
    184      1   2 -1.050000    24.269544670     4.772670000    11.265477151   0   0   0 # oby
    185      1   2 -1.050000     1.068492788     1.171336667    12.630433561   0   0   0 # oby
    186      1   2 -1.050000    23.761921557     2.972003333    13.116160948   0   0   0 # oby
    187      1   3  2.100000     1.180315677    -0.000000000    11.546936487   0   0   0 # sty
    188      1   3  2.100000    23.275297234     3.601333333    11.710384225   0   0   0 # sty
    189      1   3  2.100000     2.549364547     1.800666667     9.502569764   0   0   0 # sty
    190      1   2 -1.050000    23.761921557     0.629330000    14.393340948   0   0   0 # oby
    191      1   2 -1.050000    24.269544670     4.230663333    16.244024744   0   0   0 # oby
    192      1   2 -1.050000     1.068492788     2.429996667    14.879068334   0   0   0 # oby
    193      1   2 -1.050000    21.814546719     4.772670000    15.517658334   0   0   0 # oby
    194      1   2 -1.050000    23.163474345     1.171336667    16.882614744   0   0   0 # oby
    195      1   2 -1.050000    21.306923606     2.972003333    17.368342131   0   0   0 # oby
    196      1   3  2.100000    23.275297234    -0.000000000    15.799117670   0   0   0 # sty
    197      1   3  2.100000    20.820299283     3.601333333    15.962565409   0   0   0 # sty
    198      1   3  2.100000    24.644366596     1.800666667    13.754750948  -1   0   0 # sty
    199      1   2 -1.050000    21.306923606     0.629330000    18.645522131   0   0   0 # oby
    200      1   2 -1.050000    21.814546719     4.230663333    20.496205927   0   0   0 # oby
    201      1   2 -1.050000    23.163474345     2.429996667    19.131249517   0   0   0 # oby
    202      1   2 -1.050000    19.359548768     4.772670000    19.769839517   0   0   0 # oby
    203      1   2 -1.050000    20.708476394     1.171336667    21.134795927   0   0   0 # oby
    204      1   2 -1.050000    18.851925655     2.972003333    21.620523314   0   0   0 # oby
    205      1   3  2.100000    20.820299283    -0.000000000    20.051298853   0   0   0 # sty
    206      1   3  2.100000    18.365301332     3.601333333    20.214746592   0   0   0 # sty
    207      1   3  2.100000    22.189348153     1.800666667    18.006932131   0   0   0 # sty
    208      1   2 -1.050000    18.851925655     0.629330000    22.897703314   0   0   0 # oby
    209      1   2 -1.050000    19.359548768     4.230663333    24.748387110   0   0   0 # oby
    210      1   2 -1.050000    20.708476394     2.429996667    23.383430700   0   0   0 # oby
    211      1   2 -1.050000    16.904550818     4.772670000    24.022020700   0   0   0 # oby
    212      1   2 -1.050000    18.253478443     1.171336667    25.386977110   0   0   0 # oby
    213      1   2 -1.050000    16.396927704     2.972003333    25.872704497   0   0   0 # oby
    214      1   3  2.100000    18.365301332    -0.000000000    24.303480036   0   0   0 # sty
    215      1   3  2.100000    15.910303382     3.601333333    24.466927775   0   0   0 # sty
    216      1   3  2.100000    19.734350202     1.800666667    22.259113314   0   0   0 # sty
    217      1   1 -0.950000    11.486931803     0.629330000     1.636797398   0   0   0 # ohy
    218      1   2 -1.050000    11.994554916     4.230663333     3.487481195   0   0   0 # oby
    219      1   1 -0.950000    13.343482542     2.429996667     2.122524785   0   0   0 # ohy
    220      1   2 -1.050000     9.539556966     4.772670000     2.761114785   0   0   0 # oby
    221      1   2 -1.050000    10.888484591     1.171336667     4.126071195   0   0   0 # oby
    222      1   2 -1.050000     9.031933852     2.972003333     4.611798581   0   0   0 # oby
    223      1   3  2.100000    11.000307480    -0.000000000     3.042574120   0   0   0 # sty
    224      1   3  2.100000     8.545309530     3.601333333     3.206021859   0   0   0 # sty
    225      1   3  2.100000    22.189348153     1.800666667    26.511294497   0   0   0 # sty
    226      1   2 -1.050000     9.031933852     0.629330000     5.888978581   0   0   0 # oby
    227      1   2 -1.050000     9.539556966     4.230663333     7.739662378   0   0   0 # oby
    228      1   2 -1.050000    10.888484591     2.429996667     6.374705968   0   0   0 # oby
    229      1   2 -1.050000     7.084559015     4.772670000     7.013295968   0   0   0 # oby
    230      1   2 -1.050000     8.433486640     1.171336667     8.378252378   0   0   0 # oby
    231      1   2 -1.050000     6.576935901     2.972003333     8.863979764   0   0   0 # oby
    232      1   3  2.100000     8.545309530    -0.000000000     7.294755303   0   0   0 # sty
    233      1   3  2.100000     6.090311579     3.601333333     7.458203042   0   0   0 # sty
    234      1   3  2.100000     9.914358399     1.800666667     5.250388581   0   0   0 # sty
    235      1   2 -1.050000     6.576935901     0.629330000    10.141159764   0   0   0 # oby
    236      1   2 -1.050000     7.084559015     4.230663333    11.991843561   0   0   0 # oby
    237      1   2 -1.050000     8.433486640     2.429996667    10.626887151   0   0   0 # oby
    238      1   2 -1.050000     4.629561064     4.772670000    11.265477151   0   0   0 # oby
    239      1   2 -1.050000     5.978488690     1.171336667    12.630433561   0   0   0 # oby
    240      1   2 -1.050000     4.121937951     2.972003333    13.116160948   0   0   0 # oby
    241      1   3  2.100000     6.090311579    -0.000000000    11.546936487   0   0   0 # sty
    242      1   3  2.100000     3.635313628     3.601333333    11.710384225   0   0   0 # sty
    243      1   3  2.100000     7.459360448     1.800666667     9.502569764   0   0   0 # sty
    244      1   2 -1.050000     4.121937951     0.629330000    14.393340948   0   0   0 # oby
    245      1   2 -1.050000     4.629561064     4.230663333    16.244024744   0   0   0 # oby
    246      1   2 -1.050000     5.978488690     2.429996667    14.879068334   0   0   0 # oby
    247      1   2 -1.050000     2.174563113     4.772670000    15.517658334   0   0   0 # oby
    248      1   2 -1.050000     3.523490739     1.171336667    16.882614744   0   0   0 # oby
    249      1   2 -1.050000     1.666940000     2.972003333    17.368342131   0   0   0 # oby
    250      1   3  2.100000     3.635313628    -0.000000000    15.799117670   0   0   0 # sty
    251      1   3  2.100000     1.180315677     3.601333333    15.962565409   0   0   0 # sty
    252      1   3  2.100000     5.004362497     1.800666667    13.754750948   0   0   0 # sty
    253      1   2 -1.050000     1.666940000     0.629330000    18.645522131   0   0   0 # oby
    254      1   2 -1.050000     2.174563113     4.230663333    20.496205927   0   0   0 # oby
    255      1   2 -1.050000     3.523490739     2.429996667    19.131249517   0   0   0 # oby
    256      1   2 -1.050000    24.269544670     4.772670000    19.769839517   0   0   0 # oby
    257      1   2 -1.050000     1.068492788     1.171336667    21.134795927   0   0   0 # oby
    258      1   2 -1.050000    23.761921557     2.972003333    21.620523314   0   0   0 # oby
    259      1   3  2.100000     1.180315677    -0.000000000    20.051298853   0   0   0 # sty
    260      1   3  2.100000    23.275297234     3.601333333    20.214746592   0   0   0 # sty
    261      1   3  2.100000     2.549364547     1.800666667    18.006932131   0   0   0 # sty
    262      1   2 -1.050000    23.761921557     0.629330000    22.897703314   0   0   0 # oby
    263      1   2 -1.050000    24.269544670     4.230663333    24.748387110   0   0   0 # oby
    264      1   2 -1.050000     1.068492788     2.429996667    23.383430700   0   0   0 # oby
    265      1   2 -1.050000    21.814546719     4.772670000    24.022020700   0   0   0 # oby
    266      1   2 -1.050000    23.163474345     1.171336667    25.386977110   0   0   0 # oby
    267      1   2 -1.050000    21.306923606     2.972003333    25.872704497   0   0   0 # oby
    268      1   3  2.100000    23.275297234    -0.000000000    24.303480036   0   0   0 # sty
    269      1   3  2.100000    20.820299283     3.601333333    24.466927775   0   0   0 # sty
    270      1   3  2.100000    24.644366596     1.800666667    22.259113314  -1   0   0 # sty
    271      1   1 -0.950000    16.396927704     6.031330000     1.636797398   0   0   0 # ohy
    272      1   2 -1.050000    16.904550818     9.632663333     3.487481195   0   0   0 # oby
    273      1   1 -0.950000    18.253478443     7.831996667     2.122524785   0   0   0 # ohy
    274      1   2 -1.050000    14.449552867    10.174670000     2.761114785   0   0   0 # oby
    275      1   2 -1.050000    15.798480493     6.573336667     4.126071195   0   0   0 # oby
    276      1   2 -1.050000    13.941929754     8.374003333     4.611798581   0   0   0 # oby
    277      1   3  2.100000    15.910303382     5.402000000     3.042574120   0   0   0 # sty
    278      1   3  2.100000    13.455305431     9.003333333     3.206021859   0   0   0 # sty
    279      1   3  2.100000     2.549364547     7.202666667    26.511294497   0   0   0 # sty
    280      1   2 -1.050000    13.941929754     6.031330000     5.888978581   0   0   0 # oby
    281      1   2 -1.050000    14.449552867     9.632663333     7.739662378   0   0   0 # oby
    282      1   2 -1.050000    15.798480493     7.831996667     6.374705968   0   0   0 # oby
    283      1   2 -1.050000    11.994554916    10.174670000     7.013295968   0   0   0 # oby
    284      1   2 -1.050000    13.343482542     6.573336667     8.378252378   0   0   0 # oby
    285      1   2 -1.050000    11.486931803     8.374003333     8.863979764   0   0   0 # oby
    286      1   3  2.100000    13.455305431     5.402000000     7.294755303   0   0   0 # sty
    287      1   3  2.100000    11.000307480     9.003333333     7.458203042   0   0   0 # sty
    288      1   3  2.100000    14.824354300     7.202666667     5.250388581   0   0   0 # sty
    289      1   2 -1.050000    11.486931803     6.031330000    10.141159764   0   0   0 # oby
    290      1   2 -1.050000    11.994554916     9.632663333    11.991843561   0   0   0 # oby
    291      1   2 -1.050000    13.343482542     7.831996667    10.626887151   0   0   0 # oby
    292      1   2 -1.050000     9.539556966    10.174670000    11.265477151   0   0   0 # oby
    293      1   2 -1.050000    10.888484591     6.573336667    12.630433561   0   0   0 # oby
    294      1   2 -1.050000     9.031933852     8.374003333    13.116160948   0   0   0 # oby
    295      1   3  2.100000    11.000307480     5.402000000    11.546936487   0   0   0 # sty
    296      1   3  2.100000     8.545309530     9.003333333    11.710384225   0   0   0 # sty
    297      1   3  2.100000    12.369356350     7.202666667     9.502569764   0   0   0 # sty
    298      1   2 -1.050000     9.031933852     6.031330000    14.393340948   0   0   0 # oby
    299      1   2 -1.050000     9.539556966     9.632663333    16.244024744   0   0   0 # oby
    300      1   2 -1.050000    10.888484591     7.831996667    14.879068334   0   0   0 # oby
    301      1   2 -1.050000     7.084559015    10.174670000    15.517658334   0   0   0 # oby
    302      1   2 -1.050000     8.433486640     6.573336667    16.882614744   0   0   0 # oby
    303      1   2 -1.050000     6.576935901     8.374003333    17.368342131   0   0   0 # oby
    304      1   3  2.100000     8.545309530     5.402000000    15.799117670   0   0   0 # sty
    305      1   3  2.100000     6.090311579     9.003333333    15.962565409   0   0   0 # sty
    306      1   3  2.100000     9.914358399     7.202666667    13.754750948   0   0   0 # sty
    307      1   2 -1.050000     6.576935901     6.031330000    18.645522131   0   0   0 # oby
    308      1   2 -1.050000     7.084559015     9.632663333    20.496205927   0   0   0 # oby
    309      1   2 -1.050000     8.433486640     7.831996667    19.131249517   0   0   0 # oby
    310      1   2 -1.050000     4.629561064    10.174670000    19.769839517   0   0   0 # oby
    311      1   2 -1.050000     5.978488690     6.573336667    21.134795927   0   0   0 # oby
    312      1   2 -1.050000     4.121937951     8.374003333    21.620523314   0   0   0 # oby
    313      1   3  2.100000     6.090311579     5.402000000    20.051298853   0   0   0 # sty
    314      1   3  2.100000     3.635313628     9.003333333    20.214746592   0   0   0 # sty
    315      1   3  2.100000     7.459360448     7.202666667    18.006932131   0   0   0 # sty
    316      1   2 -1.050000     4.121937951     6.031330000    22.897703314   0   0   0 # oby
    317      1   2 -1.050000     4.629561064     9.632663333    24.748387110   0   0   0 # oby
    318      1   2 -1.050000     5.978488690     7.831996667    23.383430700   0   0   0 # oby
    319      1   2 -1.050000     2.174563113    10.174670000    24.022020700   0   0   0 # oby
    320      1   2 -1.050000     3.523490739     6.573336667    25.386977110   0   0   0 # oby
    321      1   2 -1.050000     1.666940000     8.374003333    25.872704497   0   0   0 # oby
    322      1   3  2.100000     3.635313628     5.402000000    24.303480036   0   0   0 # sty
    323      1   3  2.100000     1.180315677     9.003333333    24.466927775   0   0   0 # sty
    324      1   3  2.100000     5.004362497     7.202666667    22.259113314   0   0   0 # sty
    325      1   1 -0.950000    21.306923606     6.031330000     1.636797398   0   0   0 # ohy
    326      1   2 -1.050000    21.814546719     9.632663333     3.487481195   0   0   0 # oby
    327      1   1 -0.950000    23.163474345     7.831996667     2.122524785   0   0   0 # ohy
    328      1   2 -1.050000    19.359548768    10.174670000     2.761114785   0   0   0 # oby
    329      1   2 -1.050000    20.708476394     6.573336667     4.126071195   0   0   0 # oby
    330      1   2 -1.050000    18.851925655     8.374003333     4.611798581   0   0   0 # oby
    331      1   3  2.100000    20.820299283     5.402000000     3.042574120   0   0   0 # sty
    332      1   3  2.100000    18.365301332     9.003333333     3.206021859   0   0   0 # sty
    333      1   3  2.100000     7.459360448     7.202666667    26.511294497   0   0   0 # sty
    334      1   2 -1.050000    18.851925655     6.031330000     5.888978581   0   0   0 # oby
    335      1   2 -1.050000    19.359548768     9.632663333     7.739662378   0   0   0 # oby
    336      1   2 -1.050000    20.708476394     7.831996667     6.374705968   0   0   0 # oby
    337      1   2 -1.050000    16.904550818    10.174670000     7.013295968   0   0   0 # oby
    338      1   2 -1.050000    18.253478443     6.573336667     8.378252378   0   0   0 # oby
    339      1   2 -1.050000    16.396927704     8.374003333     8.863979764   0   0   0 # oby
    340      1   3  2.100000    18.365301332     5.402000000     7.294755303   0   0   0 # sty
    341      1   3  2.100000    15.910303382     9.003333333     7.458203042   0   0   0 # sty
    342      1   3  2.100000    19.734350202     7.202666667     5.250388581   0   0   0 # sty
    343      1   2 -1.050000    16.396927704     6.031330000    10.141159764   0   0   0 # oby
    344      1   2 -1.050000    16.904550818     9.632663333    11.991843561   0   0   0 # oby
    345      1   2 -1.050000    18.253478443     7.831996667    10.626887151   0   0   0 # oby
    346      1   2 -1.050000    14.449552867    10.174670000    11.265477151   0   0   0 # oby
    347      1   2 -1.050000    15.798480493     6.573336667    12.630433561   0   0   0 # oby
    348      1   2 -1.050000    13.941929754     8.374003333    13.116160948   0   0   0 # oby
    349      1   3  2.100000    15.910303382     5.402000000    11.546936487   0   0   0 # sty
    350      1   3  2.100000    13.455305431     9.003333333    11.710384225   0   0   0 # sty
    351      1   3  2.100000    17.279352251     7.202666667     9.502569764   0   0   0 # sty
    352      1   2 -1.050000    13.941929754     6.031330000    14.393340948   0   0   0 # oby
    353      1   2 -1.050000    14.449552867     9.632663333    16.244024744   0   0   0 # oby
    354      1   2 -1.050000    15.798480493     7.831996667    14.879068334   0   0   0 # oby
    355      1   2 -1.050000    11.994554916    10.174670000    15.517658334   0   0   0 # oby
    356      1   2 -1.050000    13.343482542     6.573336667    16.882614744   0   0   0 # oby
    357      1   2 -1.050000    11.486931803     8.374003333    17.368342131   0   0   0 # oby
    358      1   3  2.100000    13.455305431     5.402000000    15.799117670   0   0   0 # sty
    359      1   3  2.100000    11.000307480     9.003333333    15.962565409   0   0   0 # sty
    360      1   3  2.100000    14.824354300     7.202666667    13.754750948   0   0   0 # sty
    361      1   2 -1.050000    11.486931803     6.031330000    18.645522131   0   0   0 # oby
    362      1   2 -1.050000    11.994554916     9.632663333    20.496205927   0   0   0 # oby
    363      1   2 -1.050000    13.343482542     7.831996667    19.131249517   0   0   0 # oby
    364      1   2 -1.050000     9.539556966    10.174670000    19.769839517   0   0   0 # oby
    365      1   2 -1.050000    10.888484591     6.573336667    21.134795927   0   0   0 # oby
    366      1   2 -1.050000     9.031933852     8.374003333    21.620523314   0   0   0 # oby
    367      1   3  2.100000    11.000307480     5.402000000    20.051298853   0   0   0 # sty
    368      1   3  2.100000     8.545309530     9.003333333    20.214746592   0   0   0 # sty
    369      1   3  2.100000    12.369356350     7.202666667    18.006932131   0   0   0 # sty
    370      1   2 -1.050000     9.031933852     6.031330000    22.897703314   0   0   0 # oby
    371      1   2 -1.050000     9.539556966     9.632663333    24.748387110   0   0   0 # oby
    372      1   2 -1.050000    10.888484591     7.831996667    23.383430700   0   0   0 # oby
    373      1   2 -1.050000     7.084559015    10.174670000    24.022020700   0   0   0 # oby
    374      1   2 -1.050000     8.433486640     6.573336667    25.386977110   0   0   0 # oby
    375      1   2 -1.050000     6.576935901     8.374003333    25.872704497   0   0   0 # oby
    376      1   3  2.100000     8.545309530     5.402000000    24.303480036   0   0   0 # sty
    377      1   3  2.100000     6.090311579     9.003333333    24.466927775   0   0   0 # sty
    378      1   3  2.100000     9.914358399     7.202666667    22.259113314   0   0   0 # sty
    379      1   1 -0.950000     1.666940000     6.031330000     1.636797398   0   0   0 # ohy
    380      1   2 -1.050000     2.174563113     9.632663333     3.487481195   0   0   0 # oby
    381      1   1 -0.950000     3.523490739     7.831996667     2.122524785   0   0   0 # ohy
    382      1   2 -1.050000    24.269544670    10.174670000     2.761114785   0   0   0 # oby
    383      1   2 -1.050000     1.068492788     6.573336667     4.126071195   0   0   0 # oby
    384      1   2 -1.050000    23.761921557     8.374003333     4.611798581   0   0   0 # oby
    385      1   3  2.100000     1.180315677     5.402000000     3.042574120   0   0   0 # sty
    386      1   3  2.100000    23.275297234     9.003333333     3.206021859   0   0   0 # sty
    387      1   3  2.100000    12.369356350     7.202666667    26.511294497   0   0   0 # sty
    388      1   2 -1.050000    23.761921557     6.031330000     5.888978581   0   0   0 # oby
    389      1   2 -1.050000    24.269544670     9.632663333     7.739662378   0   0   0 # oby
    390      1   2 -1.050000     1.068492788     7.831996667     6.374705968   0   0   0 # oby
    391      1   2 -1.050000    21.814546719    10.174670000     7.013295968   0   0   0 # oby
    392      1   2 -1.050000    23.163474345     6.573336667     8.378252378   0   0   0 # oby
    393      1   2 -1.050000    21.306923606     8.374003333     8.863979764   0   0   0 # oby
    394      1   3  2.100000    23.275297234     5.402000000     7.294755303   0   0   0 # sty
    395      1   3  2.100000    20.820299283     9.003333333     7.458203042   0   0   0 # sty
    396      1   3  2.100000    24.644366596     7.202666667     5.250388581  -1   0   0 # sty
    397      1   2 -1.050000    21.306923606     6.031330000    10.141159764   0   0   0 # oby
    398      1   2 -1.050000    21.814546719     9.632663333    11.991843561   0   0   0 # oby
    399      1   2 -1.050000    23.163474345     7.831996667    10.626887151   0   0   0 # oby
    400      1   2 -1.050000    19.359548768    10.174670000    11.265477151   0   0   0 # oby
    401      1   2 -1.050000    20.708476394     6.573336667    12.630433561   0   0   0 # oby
    402      1   2 -1.050000    18.851925655     8.374003333    13.116160948   0   0   0 # oby
    403      1   3  2.100000    20.820299283     5.402000000    11.546936487   0   0   0 # sty
    404      1   3  2.100000    18.365301332     9.003333333    11.710384225   0   0   0 # sty
    405      1   3  2.100000    22.189348153     7.202666667     9.502569764   0   0   0 # sty
    406      1   2 -1.050000    18.851925655     6.031330000    14.393340948   0   0   0 # oby
    407      1   2 -1.050000    19.359548768     9.632663333    16.244024744   0   0   0 # oby
    408      1   2 -1.050000    20.708476394     7.831996667    14.879068334   0   0   0 # oby
    409      1   2 -1.050000    16.904550818    10.174670000    15.517658334   0   0   0 # oby
    410      1   2 -1.050000    18.253478443     6.573336667    16.882614744   0   0   0 # oby
    411      1   2 -1.050000    16.396927704     8.374003333    17.368342131   0   0   0 # oby
    412      1   3  2.100000    18.365301332     5.402000000    15.799117670   0   0   0 # sty
    413      1   3  2.100000    15.910303382     9.003333333    15.962565409   0   0   0 # sty
    414      1   3  2.100000    19.734350202     7.202666667    13.754750948   0   0   0 # sty
    415      1   2 -1.050000    16.396927704     6.031330000    18.645522131   0   0   0 # oby
    416      1   2 -1.050000    16.904550818     9.632663333    20.496205927   0   0   0 # oby
    417      1   2 -1.050000    18.253478443     7.831996667    19.131249517   0   0   0 # oby
    418      1   2 -1.050000    14.449552867    10.174670000    19.769839517   0   0   0 # oby
    419      1   2 -1.050000    15.798480493     6.573336667    21.134795927   0   0   0 # oby
    420      1   2 -1.050000    13.941929754     8.374003333    21.620523314   0   0   0 # oby
    421      1   3  2.100000    15.910303382     5.402000000    20.051298853   0   0   0 # sty
    422      1   3  2.100000    13.455305431     9.003333333    20.214746592   0   0   0 # sty
    423      1   3  2.100000    17.279352251     7.202666667    18.006932131   0   0   0 # sty
    424      1   2 -1.050000    13.941929754     6.031330000    22.897703314   0   0   0 # oby
    425      1   2 -1.050000    14.449552867     9.632663333    24.748387110   0   0   0 # oby
    426      1   2 -1.050000    15.798480493     7.831996667    23.383430700   0   0   0 # oby
    427      1   2 -1.050000    11.994554916    10.174670000    24.022020700   0   0   0 # oby
    428      1   2 -1.050000    13.343482542     6.573336667    25.386977110   0   0   0 # oby
    429      1   2 -1.050000    11.486931803     8.374003333    25.872704497   0   0   0 # oby
    430      1   3  2.100000    13.455305431     5.402000000    24.303480036   0   0   0 # sty
    431      1   3  2.100000    11.000307480     9.003333333    24.466927775   0   0   0 # sty
    432      1   3  2.100000    14.824354300     7.202666667    22.259113314   0   0   0 # sty
    433      1   1 -0.950000     6.576935901     6.031330000     1.636797398   0   0   0 # ohy
    434      1   2 -1.050000     7.084559015     9.632663333     3.487481195   0   0   0 # oby
    435      1   1 -0.950000     8.433486640     7.831996667     2.122524785   0   0   0 # ohy
    436      1   2 -1.050000     4.629561064    10.174670000     2.761114785   0   0   0 # oby
    437      1   2 -1.050000     5.978488690     6.573336667     4.126071195   0   0   0 # oby
    438      1   2 -1.050000     4.121937951     8.374003333     4.611798581   0   0   0 # oby
    439      1   3  2.100000     6.090311579     5.402000000     3.042574120   0   0   0 # sty
    440      1   3  2.100000     3.635313628     9.003333333     3.206021859   0   0   0 # sty
    441      1   3  2.100000    17.279352251     7.202666667    26.511294497   0   0   0 # sty
    442      1   2 -1.050000     4.121937951     6.031330000     5.888978581   0   0   0 # oby
    443      1   2 -1.050000     4.629561064     9.632663333     7.739662378   0   0   0 # oby
    444      1   2 -1.050000     5.978488690     7.831996667     6.374705968   0   0   0 # oby
    445      1   2 -1.050000     2.174563113    10.174670000     7.013295968   0   0   0 # oby
    446      1   2 -1.050000     3.523490739     6.573336667     8.378252378   0   0   0 # oby
    447      1   2 -1.050000     1.666940000     8.374003333     8.863979764   0   0   0 # oby
    448      1   3  2.100000     3.635313628     5.402000000     7.294755303   0   0   0 # sty
    449      1   3  2.100000     1.180315677     9.003333333     7.458203042   0   0   0 # sty
    450      1   3  2.100000     5.004362497     7.202666667     5.250388581   0   0   0 # sty
    451      1   2 -1.050000     1.666940000     6.031330000    10.141159764   0   0   0 # oby
    452      1   2 -1.050000     2.174563113     9.632663333    11.991843561   0   0   0 # oby
    453      1   2 -1.050000     3.523490739     7.831996667    10.626887151   0   0   0 # oby
    454      1   2 -1.050000    24.269544670    10.174670000    11.265477151   0   0   0 # oby
    455      1   2 -1.050000     1.068492788     6.573336667    12.630433561   0   0   0 # oby
    456      1   2 -1.050000    23.761921557     8.374003333    13.116160948   0   0   0 # oby
    457      1   3  2.100000     1.180315677     5.402000000    11.546936487   0   0   0 # sty
    458      1   3  2.100000    23.275297234     9.003333333    11.710384225   0   0   0 # sty
    459      1   3  2.100000     2.549364547     7.202666667     9.502569764   0   0   0 # sty
    460      1   2 -1.050000    23.761921557     6.031330000    14.393340948   0   0   0 # oby
    461      1   2 -1.050000    24.269544670     9.632663333    16.244024744   0   0   0 # oby
    462      1   2 -1.050000     1.068492788     7.831996667    14.879068334   0   0   0 # oby
    463      1   2 -1.050000    21.814546719    10.174670000    15.517658334   0   0   0 # oby
    464      1   2 -1.050000    23.163474345     6.573336667    16.882614744   0   0   0 # oby
    465      1   2 -1.050000    21.306923606     8.374003333    17.368342131   0   0   0 # oby
    466      1   3  2.100000    23.275297234     5.402000000    15.799117670   0   0   0 # sty
    467      1   3  2.100000    20.820299283     9.003333333    15.962565409   0   0   0 # sty
    468      1   3  2.100000    24.644366596     7.202666667    13.754750948  -1   0   0 # sty
    469      1   2 -1.050000    21.306923606     6.031330000    18.645522131   0   0   0 # oby
    470      1   2 -1.050000    21.814546719     9.632663333    20.496205927   0   0   0 # oby
    471      1   2 -1.050000    23.163474345     7.831996667    19.131249517   0   0   0 # oby
    472      1   2 -1.050000    19.359548768    10.174670000    19.769839517   0   0   0 # oby
    473      1   2 -1.050000    20.708476394     6.573336667    21.134795927   0   0   0 # oby
    474      1   2 -1.050000    18.851925655     8.374003333    21.620523314   0   0   0 # oby
    475      1   3  2.100000    20.820299283     5.402000000    20.051298853   0   0   0 # sty
    476      1   3  2.100000    18.365301332     9.003333333    20.214746592   0   0   0 # sty
    477      1   3  2.100000    22.189348153     7.202666667    18.006932131   0   0   0 # sty
    478      1   2 -1.050000    18.851925655     6.031330000    22.897703314   0   0   0 # oby
    479      1   2 -1.050000    19.359548768     9.632663333    24.748387110   0   0   0 # oby
    480      1   2 -1.050000    20.708476394     7.831996667    23.383430700   0   0   0 # oby
    481      1   2 -1.050000    16.904550818    10.174670000    24.022020700   0   0   0 # oby
    482      1   2 -1.050000    18.253478443     6.573336667    25.386977110   0   0   0 # oby
    483      1   2 -1.050000    16.396927704     8.374003333    25.872704497   0   0   0 # oby
    484      1   3  2.100000    18.365301332     5.402000000    24.303480036   0   0   0 # sty
    485      1   3  2.100000    15.910303382     9.003333333    24.466927775   0   0   0 # sty
    486      1   3  2.100000    19.734350202     7.202666667    22.259113314   0   0   0 # sty
    487      1   1 -0.950000    11.486931803     6.031330000     1.636797398   0   0   0 # ohy
    488      1   2 -1.050000    11.994554916     9.632663333     3.487481195   0   0   0 # oby
    489      1   1 -0.950000    13.343482542     7.831996667     2.122524785   0   0   0 # ohy
    490      1   2 -1.050000     9.539556966    10.174670000     2.761114785   0   0   0 # oby
    491      1   2 -1.050000    10.888484591     6.573336667     4.126071195   0   0   0 # oby
    492      1   2 -1.050000     9.031933852     8.374003333     4.611798581   0   0   0 # oby
    493      1   3  2.100000    11.000307480     5.402000000     3.042574120   0   0   0 # sty
    494      1   3  2.100000     8.545309530     9.003333333     3.206021859   0   0   0 # sty
    495      1   3  1.985000    22.189348153     7.202666667    26.511294497   0   0   0 # sty
    496      1   2 -1.050000     9.031933852     6.031330000     5.888978581   0   0   0 # oby
    497      1   2 -1.050000     9.539556966     9.632663333     7.739662378   0   0   0 # oby
    498      1   2 -1.050000    10.888484591     7.831996667     6.374705968   0   0   0 # oby
    499      1   2 -1.050000     7.084559015    10.174670000     7.013295968   0   0   0 # oby
    500      1   2 -1.050000     8.433486640     6.573336667     8.378252378   0   0   0 # oby
    501      1   2 -1.050000     6.576935901     8.374003333     8.863979764   0   0   0 # oby
    502      1   3  2.100000     8.545309530     5.402000000     7.294755303   0   0   0 # sty
    503      1   3  2.100000     6.090311579     9.003333333     7.458203042   0   0   0 # sty
    504      1   3  2.100000     9.914358399     7.202666667     5.250388581   0   0   0 # sty
    505      1   2 -1.050000     6.576935901     6.031330000    10.141159764   0   0   0 # oby
    506      1   2 -1.050000     7.084559015     9.632663333    11.991843561   0   0   0 # oby
    507      1   2 -1.050000     8.433486640     7.831996667    10.626887151   0   0   0 # oby
    508      1   2 -1.050000     4.629561064    10.174670000    11.265477151   0   0   0 # oby
    509      1   2 -1.050000     5.978488690     6.573336667    12.630433561   0   0   0 # oby
    510      1   2 -1.050000     4.121937951     8.374003333    13.116160948   0   0   0 # oby
    511      1   3  2.100000     6.090311579     5.402000000    11.546936487   0   0   0 # sty
    512      1   3  2.100000     3.635313628     9.003333333    11.710384225   0   0   0 # sty
    513      1   3  2.100000     7.459360448     7.202666667     9.502569764   0   0   0 # sty
    514      1   2 -1.050000     4.121937951     6.031330000    14.393340948   0   0   0 # oby
    515      1   2 -1.050000     4.629561064     9.632663333    16.244024744   0   0   0 # oby
    516      1   2 -1.050000     5.978488690     7.831996667    14.879068334   0   0   0 # oby
    517      1   2 -1.050000     2.174563113    10.174670000    15.517658334   0   0   0 # oby
    518      1   2 -1.050000     3.523490739     6.573336667    16.882614744   0   0   0 # oby
    519      1   2 -1.050000     1.666940000     8.374003333    17.368342131   0   0   0 # oby
    520      1   3  2.100000     3.635313628     5.402000000    15.799117670   0   0   0 # sty
    521      1   3  2.100000     1.180315677     9.003333333    15.962565409   0   0   0 # sty
    522      1   3  2.100000     5.004362497     7.202666667    13.754750948   0   0   0 # sty
    523      1   2 -1.050000     1.666940000     6.031330000    18.645522131   0   0   0 # oby
    524      1   2 -1.050000     2.174563113     9.632663333    20.496205927   0   0   0 # oby
    525      1   2 -1.050000     3.523490739     7.831996667    19.131249517   0   0   0 # oby
    526      1   2 -1.050000    24.269544670    10.174670000    19.769839517   0   0   0 # oby
    527      1   2 -1.050000     1.068492788     6.573336667    21.134795927   0   0   0 # oby
    528      1   2 -1.050000    23.761921557     8.374003333    21.620523314   0   0   0 # oby
    529      1   3  2.100000     1.180315677     5.402000000    20.051298853   0   0   0 # sty
    530      1   3  2.100000    23.275297234     9.003333333    20.214746592   0   0   0 # sty
    531      1   3  2.100000     2.549364547     7.202666667    18.006932131   0   0   0 # sty
    532      1   2 -1.050000    23.761921557     6.031330000    22.897703314   0   0   0 # oby
    533      1   2 -1.050000    24.269544670     9.632663333    24.748387110   0   0   0 # oby
    534      1   2 -1.050000     1.068492788     7.831996667    23.383430700   0   0   0 # oby
    535      1   2 -1.050000    21.814546719    10.174670000    24.022020700   0   0   0 # oby
    536      1   2 -1.165000    23.163474345     6.573336667    25.386977110   0   0   0 # oby
    537      1   2 -1.165000    21.306923606     8.374003333    25.872704497   0   0   0 # oby
    538      1   3  2.100000    23.275297234     5.402000000    24.303480036   0   0   0 # sty
    539      1   3  2.100000    20.820299283     9.003333333    24.466927775   0   0   0 # sty
    540      1   3  2.100000    24.644366596     7.202666667    22.259113314  -1   0   0 # sty
    541      1   1 -0.950000    16.396927704    11.433330000     1.636797398   0   0   0 # ohy
    542      1   2 -1.050000    16.904550818    15.034663333     3.487481195   0   0   0 # oby
    543      1   1 -0.950000    18.253478443    13.233996667     2.122524785   0   0   0 # ohy
    544      1   2 -1.050000    14.449552867    15.576670000     2.761114785   0   0   0 # oby
    545      1   2 -1.050000    15.798480493    11.975336667     4.126071195   0   0   0 # oby
    546      1   2 -1.050000    13.941929754    13.776003333     4.611798581   0   0   0 # oby
    547      1   3  2.100000    15.910303382    10.804000000     3.042574120   0   0   0 # sty
    548      1   3  2.100000    13.455305431    14.405333333     3.206021859   0   0   0 # sty
    549      1   3  2.100000     2.549364547    12.604666667    26.511294497   0   0   0 # sty
    550      1   2 -1.050000    13.941929754    11.433330000     5.888978581   0   0   0 # oby
    551      1   2 -1.050000    14.449552867    15.034663333     7.739662378   0   0   0 # oby
    552      1   2 -1.050000    15.798480493    13.233996667     6.374705968   0   0   0 # oby
    553      1   2 -1.050000    11.994554916    15.576670000     7.013295968   0   0   0 # oby
    554      1   2 -1.050000    13.343482542    11.975336667     8.378252378   0   0   0 # oby
    555      1   2 -1.050000    11.486931803    13.776003333     8.863979764   0   0   0 # oby
    556      1   3  2.100000    13.455305431    10.804000000     7.294755303   0   0   0 # sty
    557      1   3  2.100000    11.000307480    14.405333333     7.458203042   0   0   0 # sty
    558      1   3  2.100000    14.824354300    12.604666667     5.250388581   0   0   0 # sty
    559      1   2 -1.050000    11.486931803    11.433330000    10.141159764   0   0   0 # oby
    560      1   2 -1.050000    11.994554916    15.034663333    11.991843561   0   0   0 # oby
    561      1   2 -1.050000    13.343482542    13.233996667    10.626887151   0   0   0 # oby
    562      1   2 -1.050000     9.539556966    15.576670000    11.265477151   0   0   0 # oby
    563      1   2 -1.050000    10.888484591    11.975336667    12.630433561   0   0   0 # oby
    564      1   2 -1.050000     9.031933852    13.776003333    13.116160948   0   0   0 # oby
    565      1   3  2.100000    11.000307480    10.804000000    11.546936487   0   0   0 # sty
    566      1   3  2.100000     8.545309530    14.405333333    11.710384225   0   0   0 # sty
    567      1   3  2.100000    12.369356350    12.604666667     9.502569764   0   0   0 # sty
    568      1   2 -1.050000     9.031933852    11.433330000    14.393340948   0   0   0 # oby
    569      1   2 -1.050000     9.539556966    15.034663333    16.244024744   0   0   0 # oby
    570      1   2 -1.050000    10.888484591    13.233996667    14.879068334   0   0   0 # oby
    571      1   2 -1.050000     7.084559015    15.576670000    15.517658334   0   0   0 # oby
    572      1   2 -1.050000     8.433486640    11.975336667    16.882614744   0   0   0 # oby
    573      1   2 -1.050000     6.576935901    13.776003333    17.368342131   0   0   0 # oby
    574      1   3  2.100000     8.545309530    10.804000000    15.799117670   0   0   0 # sty
    575      1   3  2.100000     6.090311579    14.405333333    15.962565409   0   0   0 # sty
    576      1   3  2.100000     9.914358399    12.604666667    13.754750948   0   0   0 # sty
    577      1   2 -1.050000     6.576935901    11.433330000    18.645522131   0   0   0 # oby
    578      1   2 -1.050000     7.084559015    15.034663333    20.496205927   0   0   0 # oby
    579      1   2 -1.050000     8.433486640    13.233996667    19.131249517   0   0   0 # oby
    580      1   2 -1.050000     4.629561064    15.576670000    19.769839517   0   0   0 # oby
    581      1   2 -1.050000     5.978488690    11.975336667    21.134795927   0   0   0 # oby
    582      1   2 -1.050000     4.121937951    13.776003333    21.620523314   0   0   0 # oby
    583      1   3  2.100000     6.090311579    10.804000000    20.051298853   0   0   0 # sty
    584      1   3  2.100000     3.635313628    14.405333333    20.214746592   0   0   0 # sty
    585      1   3  2.100000     7.459360448    12.604666667    18.006932131   0   0   0 # sty
    586      1   2 -1.050000     4.121937951    11.433330000    22.897703314   0   0   0 # oby
    587      1   2 -1.050000     4.629561064    15.034663333    24.748387110   0   0   0 # oby
    588      1   2 -1.050000     5.978488690    13.233996667    23.383430700   0   0   0 # oby
    589      1   2 -1.050000     2.174563113    15.576670000    24.022020700   0   0   0 # oby
    590      1   2 -1.050000     3.523490739    11.975336667    25.386977110   0   0   0 # oby
    591      1   2 -1.050000     1.666940000    13.776003333    25.872704497   0   0   0 # oby
    592      1   3  2.100000     3.635313628    10.804000000    24.303480036   0   0   0 # sty
    593      1   3  2.100000     1.180315677    14.405333333    24.466927775   0   0   0 # sty
    594      1   3  2.100000     5.004362497    12.604666667    22.259113314   0   0   0 # sty
    595      1   1 -0.950000    21.306923606    11.433330000     1.636797398   0   0   0 # ohy
    596      1   2 -1.050000    21.814546719    15.034663333     3.487481195   0   0   0 # oby
    597      1   1 -0.950000    23.163474345    13.233996667     2.122524785   0   0   0 # ohy
    598      1   2 -1.050000    19.359548768    15.576670000     2.761114785   0   0   0 # oby
    599      1   2 -1.050000    20.708476394    11.975336667     4.126071195   0   0   0 # oby
    600      1   2 -1.050000    18.851925655    13.776003333     4.611798581   0   0   0 # oby
    601      1   3  2.100000    20.820299283    10.804000000     3.042574120   0   0   0 # sty
    602      1   3  2.100000    18.365301332    14.405333333     3.206021859   0   0   0 # sty
    603      1   3  2.100000     7.459360448    12.604666667    26.511294497   0   0   0 # sty
    604      1   2 -1.050000    18.851925655    11.433330000     5.888978581   0   0   0 # oby
    605      1   2 -1.050000    19.359548768    15.034663333     7.739662378   0   0   0 # oby
    606      1   2 -1.050000    20.708476394    13.233996667     6.374705968   0   0   0 # oby
    607      1   2 -1.050000    16.904550818    15.576670000     7.013295968   0   0   0 # oby
    608      1   2 -1.050000    18.253478443    11.975336667     8.378252378   0   0   0 # oby
    609      1   2 -1.050000    16.396927704    13.776003333     8.863979764   0   0   0 # oby
    610      1   3  2.100000    18.365301332    10.804000000     7.294755303   0   0   0 # sty
    611      1   3  2.100000    15.910303382    14.405333333     7.458203042   0   0   0 # sty
    612      1   3  2.100000    19.734350202    12.604666667     5.250388581   0   0   0 # sty
    613      1   2 -1.050000    16.396927704    11.433330000    10.141159764   0   0   0 # oby
    614      1   2 -1.050000    16.904550818    15.034663333    11.991843561   0   0   0 # oby
    615      1   2 -1.050000    18.253478443    13.233996667    10.626887151   0   0   0 # oby
    616      1   2 -1.050000    14.449552867    15.576670000    11.265477151   0   0   0 # oby
    617      1   2 -1.050000    15.798480493    11.975336667    12.630433561   0   0   0 # oby
    618      1   2 -1.050000    13.941929754    13.776003333    13.116160948   0   0   0 # oby
    619      1   3  2.100000    15.910303382    10.804000000    11.546936487   0   0   0 # sty
    620      1   3  2.100000    13.455305431    14.405333333    11.710384225   0   0   0 # sty
    621      1   3  2.100000    17.279352251    12.604666667     9.502569764   0   0   0 # sty
    622      1   2 -1.050000    13.941929754    11.433330000    14.393340948   0   0   0 # oby
    623      1   2 -1.050000    14.449552867    15.034663333    16.244024744   0   0   0 # oby
    624      1   2 -1.050000    15.798480493    13.233996667    14.879068334   0   0   0 # oby
    625      1   2 -1.050000    11.994554916    15.576670000    15.517658334   0   0   0 # oby
    626      1   2 -1.050000    13.343482542    11.975336667    16.882614744   0   0   0 # oby
    627      1   2 -1.050000    11.486931803    13.776003333    17.368342131   0   0   0 # oby
    628      1   3  2.100000    13.455305431    10.804000000    15.799117670   0   0   0 # sty
    629      1   3  2.100000    11.000307480    14.405333333    15.962565409   0   0   0 # sty
    630      1   3  2.100000    14.824354300    12.604666667    13.754750948   0   0   0 # sty
    631      1   2 -1.050000    11.486931803    11.433330000    18.645522131   0   0   0 # oby
    632      1   2 -1.050000    11.994554916    15.034663333    20.496205927   0   0   0 # oby
    633      1   2 -1.050000    13.343482542    13.233996667    19.131249517   0   0   0 # oby
    634      1   2 -1.050000     9.539556966    15.576670000    19.769839517   0   0   0 # oby
    635      1   2 -1.050000    10.888484591    11.975336667    21.134795927   0   0   0 # oby
    636      1   2 -1.050000     9.031933852    13.776003333    21.620523314   0   0   0 # oby
    637      1   3  2.100000    11.000307480    10.804000000    20.051298853   0   0   0 # sty
    638      1   3  2.100000     8.545309530    14.405333333    20.214746592   0   0   0 # sty
    639      1   3  2.100000    12.369356350    12.604666667    18.006932131   0   0   0 # sty
    640      1   2 -1.050000     9.031933852    11.433330000    22.897703314   0   0   0 # oby
    641      1   2 -1.050000     9.539556966    15.034663333    24.748387110   0   0   0 # oby
    642      1   2 -1.050000    10.888484591    13.233996667    23.383430700   0   0   0 # oby
    643      1   2 -1.050000     7.084559015    15.576670000    24.022020700   0   0   0 # oby
    644      1   2 -1.050000     8.433486640    11.975336667    25.386977110   0   0   0 # oby
    645      1   2 -1.050000     6.576935901    13.776003333    25.872704497   0   0   0 # oby
    646      1   3  2.100000     8.545309530    10.804000000    24.303480036   0   0   0 # sty
    647      1   3  2.100000     6.090311579    14.405333333    24.466927775   0   0   0 # sty
    648      1   3  2.100000     9.914358399    12.604666667    22.259113314   0   0   0 # sty
    649      1   1 -0.950000     1.666940000    11.433330000     1.636797398   0   0   0 # ohy
    650      1   2 -1.050000     2.174563113    15.034663333     3.487481195   0   0   0 # oby
    651      1   1 -0.950000     3.523490739    13.233996667     2.122524785   0   0   0 # ohy
    652      1   2 -1.050000    24.269544670    15.576670000     2.761114785   0   0   0 # oby
    653      1   2 -1.050000     1.068492788    11.975336667     4.126071195   0   0   0 # oby
    654      1   2 -1.050000    23.761921557    13.776003333     4.611798581   0   0   0 # oby
    655      1   3  2.100000     1.180315677    10.804000000     3.042574120   0   0   0 # sty
    656      1   3  2.100000    23.275297234    14.405333333     3.206021859   0   0   0 # sty
    657      1   3  1.985000    12.369356350    12.604666667    26.511294497   0   0   0 # sty
    658      1   2 -1.050000    23.761921557    11.433330000     5.888978581   0   0   0 # oby
    659      1   2 -1.050000    24.269544670    15.034663333     7.739662378   0   0   0 # oby
    660      1   2 -1.050000     1.068492788    13.233996667     6.374705968   0   0   0 # oby
    661      1   2 -1.050000    21.814546719    15.576670000     7.013295968   0   0   0 # oby
    662      1   2 -1.050000    23.163474345    11.975336667     8.378252378   0   0   0 # oby
    663      1   2 -1.050000    21.306923606    13.776003333     8.863979764   0   0   0 # oby
    664      1   3  2.100000    23.275297234    10.804000000     7.294755303   0   0   0 # sty
    665      1   3  2.100000    20.820299283    14.405333333     7.458203042   0   0   0 # sty
    666      1   3  2.100000    24.644366596    12.604666667     5.250388581  -1   0   0 # sty
    667      1   2 -1.050000    21.306923606    11.433330000    10.141159764   0   0   0 # oby
    668      1   2 -1.050000    21.814546719    15.034663333    11.991843561   0   0   0 # oby
    669      1   2 -1.050000    23.163474345    13.233996667    10.626887151   0   0   0 # oby
    670      1   2 -1.050000    19.359548768    15.576670000    11.265477151   0   0   0 # oby
    671      1   2 -1.050000    20.708476394    11.975336667    12.630433561   0   0   0 # oby
    672      1   2 -1.050000    18.851925655    13.776003333    13.116160948   0   0   0 # oby
    673      1   3  2.100000    20.820299283    10.804000000    11.546936487   0   0   0 # sty
    674      1   3  2.100000    18.365301332    14.405333333    11.710384225   0   0   0 # sty
    675      1   3  2.100000    22.189348153    12.604666667     9.502569764   0   0   0 # sty
    676      1   2 -1.050000    18.851925655    11.433330000    14.393340948   0   0   0 # oby
    677      1   2 -1.050000    19.359548768    15.034663333    16.244024744   0   0   0 # oby
    678      1   2 -1.050000    20.708476394    13.233996667    14.879068334   0   0   0 # oby
    679      1   2 -1.050000    16.904550818    15.576670000    15.517658334   0   0   0 # oby
    680      1   2 -1.050000    18.253478443    11.975336667    16.882614744   0   0   0 # oby
    681      1   2 -1.050000    16.396927704    13.776003333    17.368342131   0   0   0 # oby
    682      1   3  2.100000    18.365301332    10.804000000    15.799117670   0   0   0 # sty
    683      1   3  2.100000    15.910303382    14.405333333    15.962565409   0   0   0 # sty
    684      1   3  2.100000    19.734350202    12.604666667    13.754750948   0   0   0 # sty
    685      1   2 -1.050000    16.396927704    11.433330000    18.645522131   0   0   0 # oby
    686      1   2 -1.050000    16.904550818    15.034663333    20.496205927   0   0   0 # oby
    687      1   2 -1.050000    18.253478443    13.233996667    19.131249517   0   0   0 # oby
    688      1   2 -1.050000    14.449552867    15.576670000    19.769839517   0   0   0 # oby
    689      1   2 -1.050000    15.798480493    11.975336667    21.134795927   0   0   0 # oby
    690      1   2 -1.050000    13.941929754    13.776003333    21.620523314   0   0   0 # oby
    691      1   3  2.100000    15.910303382    10.804000000    20.051298853   0   0   0 # sty
    692      1   3  2.100000    13.455305431    14.405333333    20.214746592   0   0   0 # sty
    693      1   3  2.100000    17.279352251    12.604666667    18.006932131   0   0   0 # sty
    694      1   2 -1.050000    13.941929754    11.433330000    22.897703314   0   0   0 # oby
    695      1   2 -1.050000    14.449552867    15.034663333    24.748387110   0   0   0 # oby
    696      1   2 -1.050000    15.798480493    13.233996667    23.383430700   0   0   0 # oby
    697      1   2 -1.050000    11.994554916    15.576670000    24.022020700   0   0   0 # oby
    698      1   2 -1.165000    13.343482542    11.975336667    25.386977110   0   0   0 # oby
    699      1   2 -1.165000    11.486931803    13.776003333    25.872704497   0   0   0 # oby
    700      1   3  2.100000    13.455305431    10.804000000    24.303480036   0   0   0 # sty
    701      1   3  2.100000    11.000307480    14.405333333    24.466927775   0   0   0 # sty
    702      1   3  2.100000    14.824354300    12.604666667    22.259113314   0   0   0 # sty
    703      1   1 -0.950000     6.576935901    11.433330000     1.636797398   0   0   0 # ohy
    704      1   2 -1.050000     7.084559015    15.034663333     3.487481195   0   0   0 # oby
    705      1   1 -0.950000     8.433486640    13.233996667     2.122524785   0   0   0 # ohy
    706      1   2 -1.050000     4.629561064    15.576670000     2.761114785   0   0   0 # oby
    707      1   2 -1.050000     5.978488690    11.975336667     4.126071195   0   0   0 # oby
    708      1   2 -1.050000     4.121937951    13.776003333     4.611798581   0   0   0 # oby
    709      1   3  2.100000     6.090311579    10.804000000     3.042574120   0   0   0 # sty
    710      1   3  2.100000     3.635313628    14.405333333     3.206021859   0   0   0 # sty
    711      1   3  2.100000    17.279352251    12.604666667    26.511294497   0   0   0 # sty
    712      1   2 -1.050000     4.121937951    11.433330000     5.888978581   0   0   0 # oby
    713      1   2 -1.050000     4.629561064    15.034663333     7.739662378   0   0   0 # oby
    714      1   2 -1.050000     5.978488690    13.233996667     6.374705968   0   0   0 # oby
    715      1   2 -1.050000     2.174563113    15.576670000     7.013295968   0   0   0 # oby
    716      1   2 -1.050000     3.523490739    11.975336667     8.378252378   0   0   0 # oby
    717      1   2 -1.050000     1.666940000    13.776003333     8.863979764   0   0   0 # oby
    718      1   3  2.100000     3.635313628    10.804000000     7.294755303   0   0   0 # sty
    719      1   3  2.100000     1.180315677    14.405333333     7.458203042   0   0   0 # sty
    720      1   3  2.100000     5.004362497    12.604666667     5.250388581   0   0   0 # sty
    721      1   2 -1.050000     1.666940000    11.433330000    10.141159764   0   0   0 # oby
    722      1   2 -1.050000     2.174563113    15.034663333    11.991843561   0   0   0 # oby
    723      1   2 -1.050000     3.523490739    13.233996667    10.626887151   0   0   0 # oby
    724      1   2 -1.050000    24.269544670    15.576670000    11.265477151   0   0   0 # oby
    725      1   2 -1.050000     1.068492788    11.975336667    12.630433561   0   0   0 # oby
    726      1   2 -1.050000    23.761921557    13.776003333    13.116160948   0   0   0 # oby
    727      1   3  2.100000     1.180315677    10.804000000    11.546936487   0   0   0 # sty
    728      1   3  2.100000    23.275297234    14.405333333    11.710384225   0   0   0 # sty
    729      1   3  2.100000     2.549364547    12.604666667     9.502569764   0   0   0 # sty
    730      1   2 -1.050000    23.761921557    11.433330000    14.393340948   0   0   0 # oby
    731      1   2 -1.050000    24.269544670    15.034663333    16.244024744   0   0   0 # oby
    732      1   2 -1.050000     1.068492788    13.233996667    14.879068334   0   0   0 # oby
    733      1   2 -1.050000    21.814546719    15.576670000    15.517658334   0   0   0 # oby
    734      1   2 -1.050000    23.163474345    11.975336667    16.882614744   0   0   0 # oby
    735      1   2 -1.050000    21.306923606    13.776003333    17.368342131   0   0   0 # oby
    736      1   3  2.100000    23.275297234    10.804000000    15.799117670   0   0   0 # sty
    737      1   3  2.100000    20.820299283    14.405333333    15.962565409   0   0   0 # sty
    738      1   3  2.100000    24.644366596    12.604666667    13.754750948  -1   0   0 # sty
    739      1   2 -1.050000    21.306923606    11.433330000    18.645522131   0   0   0 # oby
    740      1   2 -1.050000    21.814546719    15.034663333    20.496205927   0   0   0 # oby
    741      1   2 -1.050000    23.163474345    13.233996667    19.131249517   0   0   0 # oby
    742      1   2 -1.050000    19.359548768    15.576670000    19.769839517   0   0   0 # oby
    743      1   2 -1.050000    20.708476394    11.975336667    21.134795927   0   0   0 # oby
    744      1   2 -1.050000    18.851925655    13.776003333    21.620523314   0   0   0 # oby
    745      1   3  2.100000    20.820299283    10.804000000    20.051298853   0   0   0 # sty
    746      1   3  2.100000    18.365301332    14.405333333    20.214746592   0   0   0 # sty
    747      1   3  2.100000    22.189348153    12.604666667    18.006932131   0   0   0 # sty
    748      1   2 -1.050000    18.851925655    11.433330000    22.897703314   0   0   0 # oby
    749      1   2 -1.050000    19.359548768    15.034663333    24.748387110   0   0   0 # oby
    750      1   2 -1.050000    20.708476394    13.233996667    23.383430700   0   0   0 # oby
    751      1   2 -1.050000    16.904550818    15.576670000    24.022020700   0   0   0 # oby
    752      1   2 -1.050000    18.253478443    11.975336667    25.386977110   0   0   0 # oby
    753      1   2 -1.050000    16.396927704    13.776003333    25.872704497   0   0   0 # oby
    754      1   3  2.100000    18.365301332    10.804000000    24.303480036   0   0   0 # sty
    755      1   3  2.100000    15.910303382    14.405333333    24.466927775   0   0   0 # sty
    756      1   3  2.100000    19.734350202    12.604666667    22.259113314   0   0   0 # sty
    757      1   1 -0.950000    11.486931803    11.433330000     1.636797398   0   0   0 # ohy
    758      1   2 -1.050000    11.994554916    15.034663333     3.487481195   0   0   0 # oby
    759      1   1 -0.950000    13.343482542    13.233996667     2.122524785   0   0   0 # ohy
    760      1   2 -1.050000     9.539556966    15.576670000     2.761114785   0   0   0 # oby
    761      1   2 -1.050000    10.888484591    11.975336667     4.126071195   0   0   0 # oby
    762      1   2 -1.050000     9.031933852    13.776003333     4.611798581   0   0   0 # oby
    763      1   3  2.100000    11.000307480    10.804000000     3.042574120   0   0   0 # sty
    764      1   3  2.100000     8.545309530    14.405333333     3.206021859   0   0   0 # sty
    765      1   3  2.100000    22.189348153    12.604666667    26.511294497   0   0   0 # sty
    766      1   2 -1.050000     9.031933852    11.433330000     5.888978581   0   0   0 # oby
    767      1   2 -1.050000     9.539556966    15.034663333     7.739662378   0   0   0 # oby
    768      1   2 -1.050000    10.888484591    13.233996667     6.374705968   0   0   0 # oby
    769      1   2 -1.050000     7.084559015    15.576670000     7.013295968   0   0   0 # oby
    770      1   2 -1.050000     8.433486640    11.975336667     8.378252378   0   0   0 # oby
    771      1   2 -1.050000     6.576935901    13.776003333     8.863979764   0   0   0 # oby
    772      1   3  2.100000     8.545309530    10.804000000     7.294755303   0   0   0 # sty
    773      1   3  2.100000     6.090311579    14.405333333     7.458203042   0   0   0 # sty
    774      1   3  2.100000     9.914358399    12.604666667     5.250388581   0   0   0 # sty
    775      1   2 -1.050000     6.576935901    11.433330000    10.141159764   0   0   0 # oby
    776      1   2 -1.050000     7.084559015    15.034663333    11.991843561   0   0   0 # oby
    777      1   2 -1.050000     8.433486640    13.233996667    10.626887151   0   0   0 # oby
    778      1   2 -1.050000     4.629561064    15.576670000    11.265477151   0   0   0 # oby
    779      1   2 -1.050000     5.978488690    11.975336667    12.630433561   0   0   0 # oby
    780      1   2 -1.050000     4.121937951    13.776003333    13.116160948   0   0   0 # oby
    781      1   3  2.100000     6.090311579    10.804000000    11.546936487   0   0   0 # sty
    782      1   3  2.100000     3.635313628    14.405333333    11.710384225   0   0   0 # sty
    783      1   3  2.100000     7.459360448    12.604666667     9.502569764   0   0   0 # sty
    784      1   2 -1.050000     4.121937951    11.433330000    14.393340948   0   0   0 # oby
    785      1   2 -1.050000     4.629561064    15.034663333    16.244024744   0   0   0 # oby
    786      1   2 -1.050000     5.978488690    13.233996667    14.879068334   0   0   0 # oby
    787      1   2 -1.050000     2.174563113    15.576670000    15.517658334   0   0   0 # oby
    788      1   2 -1.050000     3.523490739    11.975336667    16.882614744   0   0   0 # oby
    789      1   2 -1.050000     1.666940000    13.776003333    17.368342131   0   0   0 # oby
    790      1   3  2.100000     3.635313628    10.804000000    15.799117670   0   0   0 # sty
    791      1   3  2.100000     1.180315677    14.405333333    15.962565409   0   0   0 # sty
    792      1   3  2.100000     5.004362497    12.604666667    13.754750948   0   0   0 # sty
    793      1   2 -1.050000     1.666940000    11.433330000    18.645522131   0   0   0 # oby
    794      1   2 -1.050000     2.174563113    15.034663333    20.496205927   0   0   0 # oby
    795      1   2 -1.050000     3.523490739    13.233996667    19.131249517   0   0   0 # oby
    796      1   2 -1.050000    24.269544670    15.576670000    19.769839517   0   0   0 # oby
    797      1   2 -1.050000     1.068492788    11.975336667    21.134795927   0   0   0 # oby
    798      1   2 -1.050000    23.761921557    13.776003333    21.620523314   0   0   0 # oby
    799      1   3  2.100000     1.180315677    10.804000000    20.051298853   0   0   0 # sty
    800      1   3  2.100000    23.275297234    14.405333333    20.214746592   0   0   0 # sty
    801      1   3  2.100000     2.549364547    12.604666667    18.006932131   0   0   0 # sty
    802      1   2 -1.050000    23.761921557    11.433330000    22.897703314   0   0   0 # oby
    803      1   2 -1.050000    24.269544670    15.034663333    24.748387110   0   0   0 # oby
    804      1   2 -1.050000     1.068492788    13.233996667    23.383430700   0   0   0 # oby
    805      1   2 -1.050000    21.814546719    15.576670000    24.022020700   0   0   0 # oby
    806      1   2 -1.050000    23.163474345    11.975336667    25.386977110   0   0   0 # oby
    807      1   2 -1.050000    21.306923606    13.776003333    25.872704497   0   0   0 # oby
    808      1   3  2.100000    23.275297234    10.804000000    24.303480036   0   0   0 # sty
    809      1   3  2.100000    20.820299283    14.405333333    24.466927775   0   0   0 # sty
    810      1   3  2.100000    24.644366596    12.604666667    22.259113314  -1   0   0 # sty
    811      1   1 -0.950000    16.396927704    16.835330000     1.636797398   0   0   0 # ohy
    812      1   2 -1.050000    16.904550818    20.436663333     3.487481195   0   0   0 # oby
    813      1   1 -0.950000    18.253478443    18.635996667     2.122524785   0   0   0 # ohy
    814      1   2 -1.050000    14.449552867    20.978670000     2.761114785   0   0   0 # oby
    815      1   2 -1.050000    15.798480493    17.377336667     4.126071195   0   0   0 # oby
    816      1   2 -1.050000    13.941929754    19.178003333     4.611798581   0   0   0 # oby
    817      1   3  2.100000    15.910303382    16.206000000     3.042574120   0   0   0 # sty
    818      1   3  2.100000    13.455305431    19.807333333     3.206021859   0   0   0 # sty
    819      1   3  1.985000     2.549364547    18.006666667    26.511294497   0   0   0 # sty
    820      1   2 -1.050000    13.941929754    16.835330000     5.888978581   0   0   0 # oby
    821      1   2 -1.050000    14.449552867    20.436663333     7.739662378   0   0   0 # oby
    822      1   2 -1.050000    15.798480493    18.635996667     6.374705968   0   0   0 # oby
    823      1   2 -1.050000    11.994554916    20.978670000     7.013295968   0   0   0 # oby
    824      1   2 -1.050000    13.343482542    17.377336667     8.378252378   0   0   0 # oby
    825      1   2 -1.050000    11.486931803    19.178003333     8.863979764   0   0   0 # oby
    826      1   3  2.100000    13.455305431    16.206000000     7.294755303   0   0   0 # sty
    827      1   3  2.100000    11.000307480    19.807333333     7.458203042   0   0   0 # sty
    828      1   3  2.100000    14.824354300    18.006666667     5.250388581   0   0   0 # sty
    829      1   2 -1.050000    11.486931803    16.835330000    10.141159764   0   0   0 # oby
    830      1   2 -1.050000    11.994554916    20.436663333    11.991843561   0   0   0 # oby
    831      1   2 -1.050000    13.343482542    18.635996667    10.626887151   0   0   0 # oby
    832      1   2 -1.050000     9.539556966    20.978670000    11.265477151   0   0   0 # oby
    833      1   2 -1.050000    10.888484591    17.377336667    12.630433561   0   0   0 # oby
    834      1   2 -1.050000     9.031933852    19.178003333    13.116160948   0   0   0 # oby
    835      1   3  2.100000    11.000307480    16.206000000    11.546936487   0   0   0 # sty
    836      1   3  2.100000     8.545309530    19.807333333    11.710384225   0   0   0 # sty
    837      1   3  2.100000    12.369356350    18.006666667     9.502569764   0   0   0 # sty
    838      1   2 -1.050000     9.031933852    16.835330000    14.393340948   0   0   0 # oby
    839      1   2 -1.050000     9.539556966    20.436663333    16.244024744   0   0   0 # oby
    840      1   2 -1.050000    10.888484591    18.635996667    14.879068334   0   0   0 # oby
    841      1   2 -1.050000     7.084559015    20.978670000    15.517658334   0   0   0 # oby
    842      1   2 -1.050000     8.433486640    17.377336667    16.882614744   0   0   0 # oby
    843      1   2 -1.050000     6.576935901    19.178003333    17.368342131   0   0   0 # oby
    844      1   3  2.100000     8.545309530    16.206000000    15.799117670   0   0   0 # sty
    845      1   3  2.100000     6.090311579    19.807333333    15.962565409   0   0   0 # sty
    846      1   3  2.100000     9.914358399    18.006666667    13.754750948   0   0   0 # sty
    847      1   2 -1.050000     6.576935901    16.835330000    18.645522131   0   0   0 # oby
    848      1   2 -1.050000     7.084559015    20.436663333    20.496205927   0   0   0 # oby
    849      1   2 -1.050000     8.433486640    18.635996667    19.131249517   0   0   0 # oby
    850      1   2 -1.050000     4.629561064    20.978670000    19.769839517   0   0   0 # oby
    851      1   2 -1.050000     5.978488690    17.377336667    21.134795927   0   0   0 # oby
    852      1   2 -1.050000     4.121937951    19.178003333    21.620523314   0   0   0 # oby
    853      1   3  2.100000     6.090311579    16.206000000    20.051298853   0   0   0 # sty
    854      1   3  2.100000     3.635313628    19.807333333    20.214746592   0   0   0 # sty
    855      1   3  2.100000     7.459360448    18.006666667    18.006932131   0   0   0 # sty
    856      1   2 -1.050000     4.121937951    16.835330000    22.897703314   0   0   0 # oby
    857      1   2 -1.050000     4.629561064    20.436663333    24.748387110   0   0   0 # oby
    858      1   2 -1.050000     5.978488690    18.635996667    23.383430700   0   0   0 # oby
    859      1   2 -1.050000     2.174563113    20.978670000    24.022020700   0   0   0 # oby
    860      1   2 -1.165000     3.523490739    17.377336667    25.386977110   0   0   0 # oby
    861      1   2 -1.165000     1.666940000    19.178003333    25.872704497   0   0   0 # oby
    862      1   3  2.100000     3.635313628    16.206000000    24.303480036   0   0   0 # sty
    863      1   3  2.100000     1.180315677    19.807333333    24.466927775   0   0   0 # sty
    864      1   3  2.100000     5.004362497    18.006666667    22.259113314   0   0   0 # sty
    865      1   1 -0.950000    21.306923606    16.835330000     1.636797398   0   0   0 # ohy
    866      1   2 -1.050000    21.814546719    20.436663333     3.487481195   0   0   0 # oby
    867      1   1 -0.950000    23.163474345    18.635996667     2.122524785   0   0   0 # ohy
    868      1   2 -1.050000    19.359548768    20.978670000     2.761114785   0   0   0 # oby
    869      1   2 -1.050000    20.708476394    17.377336667     4.126071195   0   0   0 # oby
    870      1   2 -1.050000    18.851925655    19.178003333     4.611798581   0   0   0 # oby
    871      1   3  2.100000    20.820299283    16.206000000     3.042574120   0   0   0 # sty
    872      1   3  2.100000    18.365301332    19.807333333     3.206021859   0   0   0 # sty
    873      1   3  2.100000     7.459360448    18.006666667    26.511294497   0   0   0 # sty
    874      1   2 -1.050000    18.851925655    16.835330000     5.888978581   0   0   0 # oby
    875      1   2 -1.050000    19.359548768    20.436663333     7.739662378   0   0   0 # oby
    876      1   2 -1.050000    20.708476394    18.635996667     6.374705968   0   0   0 # oby
    877      1   2 -1.050000    16.904550818    20.978670000     7.013295968   0   0   0 # oby
    878      1   2 -1.050000    18.253478443    17.377336667     8.378252378   0   0   0 # oby
    879      1   2 -1.050000    16.396927704    19.178003333     8.863979764   0   0   0 # oby
    880      1   3  2.100000    18.365301332    16.206000000     7.294755303   0   0   0 # sty
    881      1   3  2.100000    15.910303382    19.807333333     7.458203042   0   0   0 # sty
    882      1   3  2.100000    19.734350202    18.006666667     5.250388581   0   0   0 # sty
    883      1   2 -1.050000    16.396927704    16.835330000    10.141159764   0   0   0 # oby
    884      1   2 -1.050000    16.904550818    20.436663333    11.991843561   0   0   0 # oby
    885      1   2 -1.050000    18.253478443    18.635996667    10.626887151   0   0   0 # oby
    886      1   2 -1.050000    14.449552867    20.978670000    11.265477151   0   0   0 # oby
    887      1   2 -1.050000    15.798480493    17.377336667    12.630433561   0   0   0 # oby
    888      1   2 -1.050000    13.941929754    19.178003333    13.116160948   0   0   0 # oby
    889      1   3  2.100000    15.910303382    16.206000000    11.546936487   0   0   0 # sty
    890      1   3  2.100000    13.455305431    19.807333333    11.710384225   0   0   0 # sty
    891      1   3  2.100000    17.279352251    18.006666667     9.502569764   0   0   0 # sty
    892      1   2 -1.050000    13.941929754    16.835330000    14.393340948   0   0   0 # oby
    893      1   2 -1.050000    14.449552867    20.436663333    16.244024744   0   0   0 # oby
    894      1   2 -1.050000    15.798480493    18.635996667    14.879068334   0   0   0 # oby
    895      1   2 -1.050000    11.994554916    20.978670000    15.517658334   0   0   0 # oby
    896      1   2 -1.050000    13.343482542    17.377336667    16.882614744   0   0   0 # oby
    897      1   2 -1.050000    11.486931803    19.178003333    17.368342131   0   0   0 # oby
    898      1   3  2.100000    13.455305431    16.206000000    15.799117670   0   0   0 # sty
    899      1   3  2.100000    11.000307480    19.807333333    15.962565409   0   0   0 # sty
    900      1   3  2.100000    14.824354300    18.006666667    13.754750948   0   0   0 # sty
    901      1   2 -1.050000    11.486931803    16.835330000    18.645522131   0   0   0 # oby
    902      1   2 -1.050000    11.994554916    20.436663333    20.496205927   0   0   0 # oby
    903      1   2 -1.050000    13.343482542    18.635996667    19.131249517   0   0   0 # oby
    904      1   2 -1.050000     9.539556966    20.978670000    19.769839517   0   0   0 # oby
    905      1   2 -1.050000    10.888484591    17.377336667    21.134795927   0   0   0 # oby
    906      1   2 -1.050000     9.031933852    19.178003333    21.620523314   0   0   0 # oby
    907      1   3  2.100000    11.000307480    16.206000000    20.051298853   0   0   0 # sty
    908      1   3  2.100000     8.545309530    19.807333333    20.214746592   0   0   0 # sty
    909      1   3  2.100000    12.369356350    18.006666667    18.006932131   0   0   0 # sty
    910      1   2 -1.050000     9.031933852    16.835330000    22.897703314   0   0   0 # oby
    911      1   2 -1.050000     9.539556966    20.436663333    24.748387110   0   0   0 # oby
    912      1   2 -1.050000    10.888484591    18.635996667    23.383430700   0   0   0 # oby
    913      1   2 -1.050000     7.084559015    20.978670000    24.022020700   0   0   0 # oby
    914      1   2 -1.050000     8.433486640    17.377336667    25.386977110   0   0   0 # oby
    915      1   2 -1.050000     6.576935901    19.178003333    25.872704497   0   0   0 # oby
    916      1   3  2.100000     8.545309530    16.206000000    24.303480036   0   0   0 # sty
    917      1   3  2.100000     6.090311579    19.807333333    24.466927775   0   0   0 # sty
    918      1   3  2.100000     9.914358399    18.006666667    22.259113314   0   0   0 # sty
    919      1   1 -0.950000     1.666940000    16.835330000     1.636797398   0   0   0 # ohy
    920      1   2 -1.050000     2.174563113    20.436663333     3.487481195   0   0   0 # oby
    921      1   1 -0.950000     3.523490739    18.635996667     2.122524785   0   0   0 # ohy
    922      1   2 -1.050000    24.269544670    20.978670000     2.761114785   0   0   0 # oby
    923      1   2 -1.050000     1.068492788    17.377336667     4.126071195   0   0   0 # oby
    924      1   2 -1.050000    23.761921557    19.178003333     4.611798581   0   0   0 # oby
    925      1   3  2.100000     1.180315677    16.206000000     3.042574120   0   0   0 # sty
    926      1   3  2.100000    23.275297234    19.807333333     3.206021859   0   0   0 # sty
    927      1   3  2.100000    12.369356350    18.006666667    26.511294497   0   0   0 # sty
    928      1   2 -1.050000    23.761921557    16.835330000     5.888978581   0   0   0 # oby
    929      1   2 -1.050000    24.269544670    20.436663333     7.739662378   0   0   0 # oby
    930      1   2 -1.050000     1.068492788    18.635996667     6.374705968   0   0   0 # oby
    931      1   2 -1.050000    21.814546719    20.978670000     7.013295968   0   0   0 # oby
    932      1   2 -1.050000    23.163474345    17.377336667     8.378252378   0   0   0 # oby
    933      1   2 -1.050000    21.306923606    19.178003333     8.863979764   0   0   0 # oby
    934      1   3  2.100000    23.275297234    16.206000000     7.294755303   0   0   0 # sty
    935      1   3  2.100000    20.820299283    19.807333333     7.458203042   0   0   0 # sty
    936      1   3  2.100000    24.644366596    18.006666667     5.250388581  -1   0   0 # sty
    937      1   2 -1.050000    21.306923606    16.835330000    10.141159764   0   0   0 # oby
    938      1   2 -1.050000    21.814546719    20.436663333    11.991843561   0   0   0 # oby
    939      1   2 -1.050000    23.163474345    18.635996667    10.626887151   0   0   0 # oby
    940      1   2 -1.050000    19.359548768    20.978670000    11.265477151   0   0   0 # oby
    941      1   2 -1.050000    20.708476394    17.377336667    12.630433561   0   0   0 # oby
    942      1   2 -1.050000    18.851925655    19.178003333    13.116160948   0   0   0 # oby
    943      1   3  2.100000    20.820299283    16.206000000    11.546936487   0   0   0 # sty
    944      1   3  2.100000    18.365301332    19.807333333    11.710384225   0   0   0 # sty
    945      1   3  2.100000    22.189348153    18.006666667     9.502569764   0   0   0 # sty
    946      1   2 -1.050000    18.851925655    16.835330000    14.393340948   0   0   0 # oby
    947      1   2 -1.050000    19.359548768    20.436663333    16.244024744   0   0   0 # oby
    948      1   2 -1.050000    20.708476394    18.635996667    14.879068334   0   0   0 # oby
    949      1   2 -1.050000    16.904550818    20.978670000    15.517658334   0   0   0 # oby
    950      1   2 -1.050000    18.253478443    17.377336667    16.882614744   0   0   0 # oby
    951      1   2 -1.050000    16.396927704    19.178003333    17.368342131   0   0   0 # oby
    952      1   3  2.100000    18.365301332    16.206000000    15.799117670   0   0   0 # sty
    953      1   3  2.100000    15.910303382    19.807333333    15.962565409   0   0   0 # sty
    954      1   3  2.100000    19.734350202    18.006666667    13.754750948   0   0   0 # sty
    955      1   2 -1.050000    16.396927704    16.835330000    18.645522131   0   0   0 # oby
    956      1   2 -1.050000    16.904550818    20.436663333    20.496205927   0   0   0 # oby
    957      1   2 -1.050000    18.253478443    18.635996667    19.131249517   0   0   0 # oby
    958      1   2 -1.050000    14.449552867    20.978670000    19.769839517   0   0   0 # oby
    959      1   2 -1.050000    15.798480493    17.377336667    21.134795927   0   0   0 # oby
    960      1   2 -1.050000    13.941929754    19.178003333    21.620523314   0   0   0 # oby
    961      1   3  2.100000    15.910303382    16.206000000    20.051298853   0   0   0 # sty
    962      1   3  2.100000    13.455305431    19.807333333    20.214746592   0   0   0 # sty
    963      1   3  2.100000    17.279352251    18.006666667    18.006932131   0   0   0 # sty
    964      1   2 -1.050000    13.941929754    16.835330000    22.897703314   0   0   0 # oby
    965      1   2 -1.050000    14.449552867    20.436663333    24.748387110   0   0   0 # oby
    966      1   2 -1.050000    15.798480493    18.635996667    23.383430700   0   0   0 # oby
    967      1   2 -1.050000    11.994554916    20.978670000    24.022020700   0   0   0 # oby
    968      1   2 -1.050000    13.343482542    17.377336667    25.386977110   0   0   0 # oby
    969      1   2 -1.050000    11.486931803    19.178003333    25.872704497   0   0   0 # oby
    970      1   3  2.100000    13.455305431    16.206000000    24.303480036   0   0   0 # sty
    971      1   3  2.100000    11.000307480    19.807333333    24.466927775   0   0   0 # sty
    972      1   3  2.100000    14.824354300    18.006666667    22.259113314   0   0   0 # sty
    973      1   1 -0.950000     6.576935901    16.835330000     1.636797398   0   0   0 # ohy
    974      1   2 -1.050000     7.084559015    20.436663333     3.487481195   0   0   0 # oby
    975      1   1 -0.950000     8.433486640    18.635996667     2.122524785   0   0   0 # ohy
    976      1   2 -1.050000     4.629561064    20.978670000     2.761114785   0   0   0 # oby
    977      1   2 -1.050000     5.978488690    17.377336667     4.126071195   0   0   0 # oby
    978      1   2 -1.050000     4.121937951    19.178003333     4.611798581   0   0   0 # oby
    979      1   3  2.100000     6.090311579    16.206000000     3.042574120   0   0   0 # sty
    980      1   3  2.100000     3.635313628    19.807333333     3.206021859   0   0   0 # sty
    981      1   3  2.100000    17.279352251    18.006666667    26.511294497   0   0   0 # sty
    982      1   2 -1.050000     4.121937951    16.835330000     5.888978581   0   0   0 # oby
    983      1   2 -1.050000     4.629561064    20.436663333     7.739662378   0   0   0 # oby
    984      1   2 -1.050000     5.978488690    18.635996667     6.374705968   0   0   0 # oby
    985      1   2 -1.050000     2.174563113    20.978670000     7.013295968   0   0   0 # oby
    986      1   2 -1.050000     3.523490739    17.377336667     8.378252378   0   0   0 # oby
    987      1   2 -1.050000     1.666940000    19.178003333     8.863979764   0   0   0 # oby
    988      1   3  2.100000     3.635313628    16.206000000     7.294755303   0   0   0 # sty
    989      1   3  2.100000     1.180315677    19.807333333     7.458203042   0   0   0 # sty
    990      1   3  2.100000     5.004362497    18.006666667     5.250388581   0   0   0 # sty
    991      1   2 -1.050000     1.666940000    16.835330000    10.141159764   0   0   0 # oby
    992      1   2 -1.050000     2.174563113    20.436663333    11.991843561   0   0   0 # oby
    993      1   2 -1.050000     3.523490739    18.635996667    10.626887151   0   0   0 # oby
    994      1   2 -1.050000    24.269544670    20.978670000    11.265477151   0   0   0 # oby
    995      1   2 -1.050000     1.068492788    17.377336667    12.630433561   0   0   0 # oby
    996      1   2 -1.050000    23.761921557    19.178003333    13.116160948   0   0   0 # oby
    997      1   3  2.100000     1.180315677    16.206000000    11.546936487   0   0   0 # sty
    998      1   3  2.100000    23.275297234    19.807333333    11.710384225   0   0   0 # sty
    999      1   3  2.100000     2.549364547    18.006666667     9.502569764   0   0   0 # sty
   1000      1   2 -1.050000    23.761921557    16.835330000    14.393340948   0   0   0 # oby
   1001      1   2 -1.050000    24.269544670    20.436663333    16.244024744   0   0   0 # oby
   1002      1   2 -1.050000     1.068492788    18.635996667    14.879068334   0   0   0 # oby
   1003      1   2 -1.050000    21.814546719    20.978670000    15.517658334   0   0   0 # oby
   1004      1   2 -1.050000    23.163474345    17.377336667    16.882614744   0   0   0 # oby
   1005      1   2 -1.050000    21.306923606    19.178003333    17.368342131   0   0   0 # oby
   1006      1   3  2.100000    23.275297234    16.206000000    15.799117670   0   0   0 # sty
   1007      1   3  2.100000    20.820299283    19.807333333    15.962565409   0   0   0 # sty
   1008      1   3  2.100000    24.644366596    18.006666667    13.754750948  -1   0   0 # sty
   1009      1   2 -1.050000    21.306923606    16.835330000    18.645522131   0   0   0 # oby
   1010      1   2 -1.050000    21.814546719    20.436663333    20.496205927   0   0   0 # oby
   1011      1   2 -1.050000    23.163474345    18.635996667    19.131249517   0   0   0 # oby
   1012      1   2 -1.050000    19.359548768    20.978670000    19.769839517   0   0   0 # oby
   1013      1   2 -1.050000    20.708476394    17.377336667    21.134795927   0   0   0 # oby
   1014      1   2 -1.050000    18.851925655    19.178003333    21.620523314   0   0   0 # oby
   1015      1   3  2.100000    20.820299283    16.206000000    20.051298853   0   0   0 # sty
   1016      1   3  2.100000    18.365301332    19.807333333    20.214746592   0   0   0 # sty
   1017      1   3  2.100000    22.189348153    18.006666667    18.006932131   0   0   0 # sty
   1018      1   2 -1.050000    18.851925655    16.835330000    22.897703314   0   0   0 # oby
   1019      1   2 -1.050000    19.359548768    20.436663333    24.748387110   0   0   0 # oby
   1020      1   2 -1.050000    20.708476394    18.635996667    23.383430700   0   0   0 # oby
   1021      1   2 -1.050000    16.904550818    20.978670000    24.022020700   0   0   0 # oby
   1022      1   2 -1.050000    18.253478443    17.377336667    25.386977110   0   0   0 # oby
   1023      1   2 -1.050000    16.396927704    19.178003333    25.872704497   0   0   0 # oby
   1024      1   3  2.100000    18.365301332    16.206000000    24.303480036   0   0   0 # sty
   1025      1   3  2.100000    15.910303382    19.807333333    24.466927775   0   0   0 # sty
   1026      1   3  2.100000    19.734350202    18.006666667    22.259113314   0   0   0 # sty
   1027      1   1 -0.950000    11.486931803    16.835330000     1.636797398   0   0   0 # ohy
   1028      1   2 -1.050000    11.994554916    20.436663333     3.487481195   0   0   0 # oby
   1029      1   1 -0.950000    13.343482542    18.635996667     2.122524785   0   0   0 # ohy
   1030      1   2 -1.050000     9.539556966    20.978670000     2.761114785   0   0   0 # oby
   1031      1   2 -1.050000    10.888484591    17.377336667     4.126071195   0   0   0 # oby
   1032      1   2 -1.050000     9.031933852    19.178003333     4.611798581   0   0   0 # oby
   1033      1   3  2.100000    11.000307480    16.206000000     3.042574120   0   0   0 # sty
   1034      1   3  2.100000     8.545309530    19.807333333     3.206021859   0   0   0 # sty
   1035      1   3  2.100000    22.189348153    18.006666667    26.511294497   0   0   0 # sty
   1036      1   2 -1.050000     9.031933852    16.835330000     5.888978581   0   0   0 # oby
   1037      1   2 -1.050000     9.539556966    20.436663333     7.739662378   0   0   0 # oby
   1038      1   2 -1.050000    10.888484591    18.635996667     6.374705968   0   0   0 # oby
   1039      1   2 -1.050000     7.084559015    20.978670000     7.013295968   0   0   0 # oby
   1040      1   2 -1.050000     8.433486640    17.377336667     8.378252378   0   0   0 # oby
   1041      1   2 -1.050000     6.576935901    19.178003333     8.863979764   0   0   0 # oby
   1042      1   3  2.100000     8.545309530    16.206000000     7.294755303   0   0   0 # sty
   1043      1   3  2.100000     6.090311579    19.807333333     7.458203042   0   0   0 # sty
   1044      1   3  2.100000     9.914358399    18.006666667     5.250388581   0   0   0 # sty
   1045      1   2 -1.050000     6.576935901    16.835330000    10.141159764   0   0   0 # oby
   1046      1   2 -1.050000     7.084559015    20.436663333    11.991843561   0   0   0 # oby
   1047      1   2 -1.050000     8.433486640    18.635996667    10.626887151   0   0   0 # oby
   1048      1   2 -1.050000     4.629561064    20.978670000    11.265477151   0   0   0 # oby
   1049      1   2 -1.050000     5.978488690    17.377336667    12.630433561   0   0   0 # oby
   1050      1   2 -1.050000     4.121937951    19.178003333    13.116160948   0   0   0 # oby
   1051      1   3  2.100000     6.090311579    16.206000000    11.546936487   0   0   0 # sty
   1052      1   3  2.100000     3.635313628    19.807333333    11.710384225   0   0   0 # sty
   1053      1   3  2.100000     7.459360448    18.006666667     9.502569764   0   0   0 # sty
   1054      1   2 -1.050000     4.121937951    16.835330000    14.393340948   0   0   0 # oby
   1055      1   2 -1.050000     4.629561064    20.436663333    16.244024744   0   0   0 # oby
   1056      1   2 -1.050000     5.978488690    18.635996667    14.879068334   0   0   0 # oby
   1057      1   2 -1.050000     2.174563113    20.978670000    15.517658334   0   0   0 # oby
   1058      1   2 -1.050000     3.523490739    17.377336667    16.882614744   0   0   0 # oby
   1059      1   2 -1.050000     1.666940000    19.178003333    17.368342131   0   0   0 # oby
   1060      1   3  2.100000     3.635313628    16.206000000    15.799117670   0   0   0 # sty
   1061      1   3  2.100000     1.180315677    19.807333333    15.962565409   0   0   0 # sty
   1062      1   3  2.100000     5.004362497    18.006666667    13.754750948   0   0   0 # sty
   1063      1   2 -1.050000     1.666940000    16.835330000    18.645522131   0   0   0 # oby
   1064      1   2 -1.050000     2.174563113    20.436663333    20.496205927   0   0   0 # oby
   1065      1   2 -1.050000     3.523490739    18.635996667    19.131249517   0   0   0 # oby
   1066      1   2 -1.050000    24.269544670    20.978670000    19.769839517   0   0   0 # oby
   1067      1   2 -1.050000     1.068492788    17.377336667    21.134795927   0   0   0 # oby
   1068      1   2 -1.050000    23.761921557    19.178003333    21.620523314   0   0   0 # oby
   1069      1   3  2.100000     1.180315677    16.206000000    20.051298853   0   0   0 # sty
   1070      1   3  2.100000    23.275297234    19.807333333    20.214746592   0   0   0 # sty
   1071      1   3  2.100000     2.549364547    18.006666667    18.006932131   0   0   0 # sty
   1072      1   2 -1.050000    23.761921557    16.835330000    22.897703314   0   0   0 # oby
   1073      1   2 -1.050000    24.269544670    20.436663333    24.748387110   0   0   0 # oby
   1074      1   2 -1.050000     1.068492788    18.635996667    23.383430700   0   0   0 # oby
   1075      1   2 -1.050000    21.814546719    20.978670000    24.022020700   0   0   0 # oby
   1076      1   2 -1.050000    23.163474345    17.377336667    25.386977110   0   0   0 # oby
   1077      1   2 -1.050000    21.306923606    19.178003333    25.872704497   0   0   0 # oby
   1078      1   3  2.100000    23.275297234    16.206000000    24.303480036   0   0   0 # sty
   1079      1   3  2.100000    20.820299283    19.807333333    24.466927775   0   0   0 # sty
   1080      1   3  2.100000    24.644366596    18.006666667    22.259113314  -1   0   0 # sty
   1081      1   1 -0.950000    16.396927704    22.237330000     1.636797398   0   0   0 # ohy
   1082      1   2 -1.050000    16.904550818    25.838663333     3.487481195   0   0   0 # oby
   1083      1   1 -0.950000    18.253478443    24.037996667     2.122524785   0   0   0 # ohy
   1084      1   2 -1.050000    14.449552867    26.380670000     2.761114785   0   0   0 # oby
   1085      1   2 -1.050000    15.798480493    22.779336667     4.126071195   0   0   0 # oby
   1086      1   2 -1.050000    13.941929754    24.580003333     4.611798581   0   0   0 # oby
   1087      1   3  2.100000    15.910303382    21.608000000     3.042574120   0   0   0 # sty
   1088      1   3  2.100000    13.455305431    25.209333333     3.206021859   0   0   0 # sty
   1089      1   3  2.100000     2.549364547    23.408666667    26.511294497   0   0   0 # sty
   1090      1   2 -1.050000    13.941929754    22.237330000     5.888978581   0   0   0 # oby
   1091      1   2 -1.050000    14.449552867    25.838663333     7.739662378   0   0   0 # oby
   1092      1   2 -1.050000    15.798480493    24.037996667     6.374705968   0   0   0 # oby
   1093      1   2 -1.050000    11.994554916    26.380670000     7.013295968   0   0   0 # oby
   1094      1   2 -1.050000    13.343482542    22.779336667     8.378252378   0   0   0 # oby
   1095      1   2 -1.050000    11.486931803    24.580003333     8.863979764   0   0   0 # oby
   1096      1   3  2.100000    13.455305431    21.608000000     7.294755303   0   0   0 # sty
   1097      1   3  2.100000    11.000307480    25.209333333     7.458203042   0   0   0 # sty
   1098      1   3  2.100000    14.824354300    23.408666667     5.250388581   0   0   0 # sty
   1099      1   2 -1.050000    11.486931803    22.237330000    10.141159764   0   0   0 # oby
   1100      1   2 -1.050000    11.994554916    25.838663333    11.991843561   0   0   0 # oby
   1101      1   2 -1.050000    13.343482542    24.037996667    10.626887151   0   0   0 # oby
   1102      1   2 -1.050000     9.539556966    26.380670000    11.265477151   0   0   0 # oby
   1103      1   2 -1.050000    10.888484591    22.779336667    12.630433561   0   0   0 # oby
   1104      1   2 -1.050000     9.031933852    24.580003333    13.116160948   0   0   0 # oby
   1105      1   3  2.100000    11.000307480    21.608000000    11.546936487   0   0   0 # sty
   1106      1   3  2.100000     8.545309530    25.209333333    11.710384225   0   0   0 # sty
   1107      1   3  2.100000    12.369356350    23.408666667     9.502569764   0   0   0 # sty
   1108      1   2 -1.050000     9.031933852    22.237330000    14.393340948   0   0   0 # oby
   1109      1   2 -1.050000     9.539556966    25.838663333    16.244024744   0   0   0 # oby
   1110      1   2 -1.050000    10.888484591    24.037996667    14.879068334   0   0   0 # oby
   1111      1   2 -1.050000     7.084559015    26.380670000    15.517658334   0   0   0 # oby
   1112      1   2 -1.050000     8.433486640    22.779336667    16.882614744   0   0   0 # oby
   1113      1   2 -1.050000     6.576935901    24.580003333    17.368342131   0   0   0 # oby
   1114      1   3  2.100000     8.545309530    21.608000000    15.799117670   0   0   0 # sty
   1115      1   3  2.100000     6.090311579    25.209333333    15.962565409   0   0   0 # sty
   1116      1   3  2.100000     9.914358399    23.408666667    13.754750948   0   0   0 # sty
   1117      1   2 -1.050000     6.576935901    22.237330000    18.645522131   0   0   0 # oby
   1118      1   2 -1.050000     7.084559015    25.838663333    20.496205927   0   0   0 # oby
   1119      1   2 -1.050000     8.433486640    24.037996667    19.131249517   0   0   0 # oby
   1120      1   2 -1.050000     4.629561064    26.380670000    19.769839517   0   0   0 # oby
   1121      1   2 -1.050000     5.978488690    22.779336667    21.134795927   0   0   0 # oby
   1122      1   2 -1.050000     4.121937951    24.580003333    21.620523314   0   0   0 # oby
   1123      1   3  2.100000     6.090311579    21.608000000    20.051298853   0   0   0 # sty
   1124      1   3  2.100000     3.635313628    25.209333333    20.214746592   0   0   0 # sty
   1125      1   3  2.100000     7.459360448    23.408666667    18.006932131   0   0   0 # sty
   1126      1   2 -1.050000     4.121937951    22.237330000    22.897703314   0   0   0 # oby
   1127      1   2 -1.050000     4.629561064    25.838663333    24.748387110   0   0   0 # oby
   1128      1   2 -1.050000     5.978488690    24.037996667    23.383430700   0   0   0 # oby
   1129      1   2 -1.050000     2.174563113    26.380670000    24.022020700   0   0   0 # oby
   1130      1   2 -1.050000     3.523490739    22.779336667    25.386977110   0   0   0 # oby
   1131      1   2 -1.050000     1.666940000    24.580003333    25.872704497   0   0   0 # oby
   1132      1   3  2.100000     3.635313628    21.608000000    24.303480036   0   0   0 # sty
   1133      1   3  2.100000     1.180315677    25.209333333    24.466927775   0   0   0 # sty
   1134      1   3  2.100000     5.004362497    23.408666667    22.259113314   0   0   0 # sty
   1135      1   1 -0.950000    21.306923606    22.237330000     1.636797398   0   0   0 # ohy
   1136      1   2 -1.050000    21.814546719    25.838663333     3.487481195   0   0   0 # oby
   1137      1   1 -0.950000    23.163474345    24.037996667     2.122524785   0   0   0 # ohy
   1138      1   2 -1.050000    19.359548768    26.380670000     2.761114785   0   0   0 # oby
   1139      1   2 -1.050000    20.708476394    22.779336667     4.126071195   0   0   0 # oby
   1140      1   2 -1.050000    18.851925655    24.580003333     4.611798581   0   0   0 # oby
   1141      1   3  2.100000    20.820299283    21.608000000     3.042574120   0   0   0 # sty
   1142      1   3  2.100000    18.365301332    25.209333333     3.206021859   0   0   0 # sty
   1143      1   3  2.100000     7.459360448    23.408666667    26.511294497   0   0   0 # sty
   1144      1   2 -1.050000    18.851925655    22.237330000     5.888978581   0   0   0 # oby
   1145      1   2 -1.050000    19.359548768    25.838663333     7.739662378   0   0   0 # oby
   1146      1   2 -1.050000    20.708476394    24.037996667     6.374705968   0   0   0 # oby
   1147      1   2 -1.050000    16.904550818    26.380670000     7.013295968   0   0   0 # oby
   1148      1   2 -1.050000    18.253478443    22.779336667     8.378252378   0   0   0 # oby
   1149      1   2 -1.050000    16.396927704    24.580003333     8.863979764   0   0   0 # oby
   1150      1   3  2.100000    18.365301332    21.608000000     7.294755303   0   0   0 # sty
   1151      1   3  2.100000    15.910303382    25.209333333     7.458203042   0   0   0 # sty
   1152      1   3  2.100000    19.734350202    23.408666667     5.250388581   0   0   0 # sty
   1153      1   2 -1.050000    16.396927704    22.237330000    10.141159764   0   0   0 # oby
   1154      1   2 -1.050000    16.904550818    25.838663333    11.991843561   0   0   0 # oby
   1155      1   2 -1.050000    18.253478443    24.037996667    10.626887151   0   0   0 # oby
   1156      1   2 -1.050000    14.449552867    26.380670000    11.265477151   0   0   0 # oby
   1157      1   2 -1.050000    15.798480493    22.779336667    12.630433561   0   0   0 # oby
   1158      1   2 -1.050000    13.941929754    24.580003333    13.116160948   0   0   0 # oby
   1159      1   3  2.100000    15.910303382    21.608000000    11.546936487   0   0   0 # sty
   1160      1   3  2.100000    13.455305431    25.209333333    11.710384225   0   0   0 # sty
   1161      1   3  2.100000    17.279352251    23.408666667     9.502569764   0   0   0 # sty
   1162      1   2 -1.050000    13.941929754    22.237330000    14.393340948   0   0   0 # oby
   1163      1   2 -1.050000    14.449552867    25.838663333    16.244024744   0   0   0 # oby
   1164      1   2 -1.050000    15.798480493    24.037996667    14.879068334   0   0   0 # oby
   1165      1   2 -1.050000    11.994554916    26.380670000    15.517658334   0   0   0 # oby
   1166      1   2 -1.050000    13.343482542    22.779336667    16.882614744   0   0   0 # oby
   1167      1   2 -1.050000    11.486931803    24.580003333    17.368342131   0   0   0 # oby
   1168      1   3  2.100000    13.455305431    21.608000000    15.799117670   0   0   0 # sty
   1169      1   3  2.100000    11.000307480    25.209333333    15.962565409   0   0   0 # sty
   1170      1   3  2.100000    14.824354300    23.408666667    13.754750948   0   0   0 # sty
   1171      1   2 -1.050000    11.486931803    22.237330000    18.645522131   0   0   0 # oby
   1172      1   2 -1.050000    11.994554916    25.838663333    20.496205927   0   0   0 # oby
   1173      1   2 -1.050000    13.343482542    24.037996667    19.131249517   0   0   0 # oby
   1174      1   2 -1.050000     9.539556966    26.380670000    19.769839517   0   0   0 # oby
   1175      1   2 -1.050000    10.888484591    22.779336667    21.134795927   0   0   0 # oby
   1176      1   2 -1.050000     9.031933852    24.580003333    21.620523314   0   0   0 # oby
   1177      1   3  2.100000    11.000307480    21.608000000    20.051298853   0   0   0 # sty
   1178      1   3  2.100000     8.545309530    25.209333333    20.214746592   0   0   0 # sty
   1179      1   3  2.100000    12.369356350    23.408666667    18.006932131   0   0   0 # sty
   1180      1   2 -1.050000     9.031933852    22.237330000    22.897703314   0   0   0 # oby
   1181      1   2 -1.050000     9.539556966    25.838663333    24.748387110   0   0   0 # oby
   1182      1   2 -1.050000    10.888484591    24.037996667    23.383430700   0   0   0 # oby
   1183      1   2 -1.050000     7.084559015    26.380670000    24.022020700   0   0   0 # oby
   1184      1   2 -1.050000     8.433486640    22.779336667    25.386977110   0   0   0 # oby
   1185      1   2 -1.050000     6.576935901    24.580003333    25.872704497   0   0   0 # oby
   1186      1   3  2.100000     8.545309530    21.608000000    24.303480036   0   0   0 # sty
   1187      1   3  2.100000     6.090311579    25.209333333    24.466927775   0   0   0 # sty
   1188      1   3  2.100000     9.914358399    23.408666667    22.259113314   0   0   0 # sty
   1189      1   1 -0.950000     1.666940000    22.237330000     1.636797398   0   0   0 # ohy
   1190      1   2 -1.050000     2.174563113    25.838663333     3.487481195   0   0   0 # oby
   1191      1   1 -0.950000     3.523490739    24.037996667     2.122524785   0   0   0 # ohy
   1192      1   2 -1.050000    24.269544670    26.380670000     2.761114785   0   0   0 # oby
   1193      1   2 -1.050000     1.068492788    22.779336667     4.126071195   0   0   0 # oby
   1194      1   2 -1.050000    23.761921557    24.580003333     4.611798581   0   0   0 # oby
   1195      1   3  2.100000     1.180315677    21.608000000     3.042574120   0   0   0 # sty
   1196      1   3  2.100000    23.275297234    25.209333333     3.206021859   0   0   0 # sty
   1197      1   3  1.985000    12.369356350    23.408666667    26.511294497   0   0   0 # sty
   1198      1   2 -1.050000    23.761921557    22.237330000     5.888978581   0   0   0 # oby
   1199      1   2 -1.050000    24.269544670    25.838663333     7.739662378   0   0   0 # oby
   1200      1   2 -1.050000     1.068492788    24.037996667     6.374705968   0   0   0 # oby
   1201      1   2 -1.050000    21.814546719    26.380670000     7.013295968   0   0   0 # oby
   1202      1   2 -1.050000    23.163474345    22.779336667     8.378252378   0   0   0 # oby
   1203      1   2 -1.050000    21.306923606    24.580003333     8.863979764   0   0   0 # oby
   1204      1   3  2.100000    23.275297234    21.608000000     7.294755303   0   0   0 # sty
   1205      1   3  2.100000    20.820299283    25.209333333     7.458203042   0   0   0 # sty
   1206      1   3  2.100000    24.644366596    23.408666667     5.250388581  -1   0   0 # sty
   1207      1   2 -1.050000    21.306923606    22.237330000    10.141159764   0   0   0 # oby
   1208      1   2 -1.050000    21.814546719    25.838663333    11.991843561   0   0   0 # oby
   1209      1   2 -1.050000    23.163474345    24.037996667    10.626887151   0   0   0 # oby
   1210      1   2 -1.050000    19.359548768    26.380670000    11.265477151   0   0   0 # oby
   1211      1   2 -1.050000    20.708476394    22.779336667    12.630433561   0   0   0 # oby
   1212      1   2 -1.050000    18.851925655    24.580003333    13.116160948   0   0   0 # oby
   1213      1   3  2.100000    20.820299283    21.608000000    11.546936487   0   0   0 # sty
   1214      1   3  2.100000    18.365301332    25.209333333    11.710384225   0   0   0 # sty
   1215      1   3  2.100000    22.189348153    23.408666667     9.502569764   0   0   0 # sty
   1216      1   2 -1.050000    18.851925655    22.237330000    14.393340948   0   0   0 # oby
   1217      1   2 -1.050000    19.359548768    25.838663333    16.244024744   0   0   0 # oby
   1218      1   2 -1.050000    20.708476394    24.037996667    14.879068334   0   0   0 # oby
   1219      1   2 -1.050000    16.904550818    26.380670000    15.517658334   0   0   0 # oby
   1220      1   2 -1.050000    18.253478443    22.779336667    16.882614744   0   0   0 # oby
   1221      1   2 -1.050000    16.396927704    24.580003333    17.368342131   0   0   0 # oby
   1222      1   3  2.100000    18.365301332    21.608000000    15.799117670   0   0   0 # sty
   1223      1   3  2.100000    15.910303382    25.209333333    15.962565409   0   0   0 # sty
   1224      1   3  2.100000    19.734350202    23.408666667    13.754750948   0   0   0 # sty
   1225      1   2 -1.050000    16.396927704    22.237330000    18.645522131   0   0   0 # oby
   1226      1   2 -1.050000    16.904550818    25.838663333    20.496205927   0   0   0 # oby
   1227      1   2 -1.050000    18.253478443    24.037996667    19.131249517   0   0   0 # oby
   1228      1   2 -1.050000    14.449552867    26.380670000    19.769839517   0   0   0 # oby
   1229      1   2 -1.050000    15.798480493    22.779336667    21.134795927   0   0   0 # oby
   1230      1   2 -1.050000    13.941929754    24.580003333    21.620523314   0   0   0 # oby
   1231      1   3  2.100000    15.910303382    21.608000000    20.051298853   0   0   0 # sty
   1232      1   3  2.100000    13.455305431    25.209333333    20.214746592   0   0   0 # sty
   1233      1   3  2.100000    17.279352251    23.408666667    18.006932131   0   0   0 # sty
   1234      1   2 -1.050000    13.941929754    22.237330000    22.897703314   0   0   0 # oby
   1235      1   2 -1.050000    14.449552867    25.838663333    24.748387110   0   0   0 # oby
   1236      1   2 -1.050000    15.798480493    24.037996667    23.383430700   0   0   0 # oby
   1237      1   2 -1.050000    11.994554916    26.380670000    24.022020700   0   0   0 # oby
   1238      1   2 -1.165000    13.343482542    22.779336667    25.386977110   0   0   0 # oby
   1239      1   2 -1.165000    11.486931803    24.580003333    25.872704497   0   0   0 # oby
   1240      1   3  2.100000    13.455305431    21.608000000    24.303480036   0   0   0 # sty
   1241      1   3  2.100000    11.000307480    25.209333333    24.466927775   0   0   0 # sty
   1242      1   3  2.100000    14.824354300    23.408666667    22.259113314   0   0   0 # sty
   1243      1   1 -0.950000     6.576935901    22.237330000     1.636797398   0   0   0 # ohy
   1244      1   2 -1.050000     7.084559015    25.838663333     3.487481195   0   0   0 # oby
   1245      1   1 -0.950000     8.433486640    24.037996667     2.122524785   0   0   0 # ohy
   1246      1   2 -1.050000     4.629561064    26.380670000     2.761114785   0   0   0 # oby
   1247      1   2 -1.050000     5.978488690    22.779336667     4.126071195   0   0   0 # oby
   1248      1   2 -1.050000     4.121937951    24.580003333     4.611798581   0   0   0 # oby
   1249      1   3  2.100000     6.090311579    21.608000000     3.042574120   0   0   0 # sty
   1250      1   3  2.100000     3.635313628    25.209333333     3.206021859   0   0   0 # sty
   1251      1   3  2.100000    17.279352251    23.408666667    26.511294497   0   0   0 # sty
   1252      1   2 -1.050000     4.121937951    22.237330000     5.888978581   0   0   0 # oby
   1253      1   2 -1.050000     4.629561064    25.838663333     7.739662378   0   0   0 # oby
   1254      1   2 -1.050000     5.978488690    24.037996667     6.374705968   0   0   0 # oby
   1255      1   2 -1.050000     2.174563113    26.380670000     7.013295968   0   0   0 # oby
   1256      1   2 -1.050000     3.523490739    22.779336667     8.378252378   0   0   0 # oby
   1257      1   2 -1.050000     1.666940000    24.580003333     8.863979764   0   0   0 # oby
   1258      1   3  2.100000     3.635313628    21.608000000     7.294755303   0   0   0 # sty
   1259      1   3  2.100000     1.180315677    25.209333333     7.458203042   0   0   0 # sty
   1260      1   3  2.100000     5.004362497    23.408666667     5.250388581   0   0   0 # sty
   1261      1   2 -1.050000     1.666940000    22.237330000    10.141159764   0   0   0 # oby
   1262      1   2 -1.050000     2.174563113    25.838663333    11.991843561   0   0   0 # oby
   1263      1   2 -1.050000     3.523490739    24.037996667    10.626887151   0   0   0 # oby
   1264      1   2 -1.050000    24.269544670    26.380670000    11.265477151   0   0   0 # oby
   1265      1   2 -1.050000     1.068492788    22.779336667    12.630433561   0   0   0 # oby
   1266      1   2 -1.050000    23.761921557    24.580003333    13.116160948   0   0   0 # oby
   1267      1   3  2.100000     1.180315677    21.608000000    11.546936487   0   0   0 # sty
   1268      1   3  2.100000    23.275297234    25.209333333    11.710384225   0   0   0 # sty
   1269      1   3  2.100000     2.549364547    23.408666667     9.502569764   0   0   0 # sty
   1270      1   2 -1.050000    23.761921557    22.237330000    14.393340948   0   0   0 # oby
   1271      1   2 -1.050000    24.269544670    25.838663333    16.244024744   0   0   0 # oby
   1272      1   2 -1.050000     1.068492788    24.037996667    14.879068334   0   0   0 # oby
   1273      1   2 -1.050000    21.814546719    26.380670000    15.517658334   0   0   0 # oby
   1274      1   2 -1.050000    23.163474345    22.779336667    16.882614744   0   0   0 # oby
   1275      1   2 -1.050000    21.306923606    24.580003333    17.368342131   0   0   0 # oby
   1276      1   3  2.100000    23.275297234    21.608000000    15.799117670   0   0   0 # sty
   1277      1   3  2.100000    20.820299283    25.209333333    15.962565409   0   0   0 # sty
   1278      1   3  2.100000    24.644366596    23.408666667    13.754750948  -1   0   0 # sty
   1279      1   2 -1.050000    21.306923606    22.237330000    18.645522131   0   0   0 # oby
   1280      1   2 -1.050000    21.814546719    25.838663333    20.496205927   0   0   0 # oby
   1281      1   2 -1.050000    23.163474345    24.037996667    19.131249517   0   0   0 # oby
   1282      1   2 -1.050000    19.359548768    26.380670000    19.769839517   0   0   0 # oby
   1283      1   2 -1.050000    20.708476394    22.779336667    21.134795927   0   0   0 # oby
   1284      1   2 -1.050000    18.851925655    24.580003333    21.620523314   0   0   0 # oby
   1285      1   3  2.100000    20.820299283    21.608000000    20.051298853   0   0   0 # sty
   1286      1   3  2.100000    18.365301332    25.209333333    20.214746592   0   0   0 # sty
   1287      1   3  2.100000    22.189348153    23.408666667    18.006932131   0   0   0 # sty
   1288      1   2 -1.050000    18.851925655    22.237330000    22.897703314   0   0   0 # oby
   1289      1   2 -1.050000    19.359548768    25.838663333    24.748387110   0   0   0 # oby
   1290      1   2 -1.050000    20.708476394    24.037996667    23.383430700   0   0   0 # oby
   1291      1   2 -1.050000    16.904550818    26.380670000    24.022020700   0   0   0 # oby
   1292      1   2 -1.050000    18.253478443    22.779336667    25.386977110   0   0   0 # oby
   1293      1   2 -1.050000    16.396927704    24.580003333    25.872704497   0   0   0 # oby
   1294      1   3  2.100000    18.365301332    21.608000000    24.303480036   0   0   0 # sty
   1295      1   3  2.100000    15.910303382    25.209333333    24.466927775   0   0   0 # sty
   1296      1   3  2.100000    19.734350202    23.408666667    22.259113314   0   0   0 # sty
   1297      1   1 -0.950000    11.486931803    22.237330000     1.636797398   0   0   0 # ohy
   1298      1   2 -1.050000    11.994554916    25.838663333     3.487481195   0   0   0 # oby
   1299      1   1 -0.950000    13.343482542    24.037996667     2.122524785   0   0   0 # ohy
   1300      1   2 -1.050000     9.539556966    26.380670000     2.761114785   0   0   0 # oby
   1301      1   2 -1.050000    10.888484591    22.779336667     4.126071195   0   0   0 # oby
   1302      1   2 -1.050000     9.031933852    24.580003333     4.611798581   0   0   0 # oby
   1303      1   3  2.100000    11.000307480    21.608000000     3.042574120   0   0   0 # sty
   1304      1   3  2.100000     8.545309530    25.209333333     3.206021859   0   0   0 # sty
   1305      1   3  1.985000    22.189348153    23.408666667    26.511294497   0   0   0 # sty
   1306      1   2 -1.050000     9.031933852    22.237330000     5.888978581   0   0   0 # oby
   1307      1   2 -1.050000     9.539556966    25.838663333     7.739662378   0   0   0 # oby
   1308      1   2 -1.050000    10.888484591    24.037996667     6.374705968   0   0   0 # oby
   1309      1   2 -1.050000     7.084559015    26.380670000     7.013295968   0   0   0 # oby
   1310      1   2 -1.050000     8.433486640    22.779336667     8.378252378   0   0   0 # oby
   1311      1   2 -1.050000     6.576935901    24.580003333     8.863979764   0   0   0 # oby
   1312      1   3  2.100000     8.545309530    21.608000000     7.294755303   0   0   0 # sty
   1313      1   3  2.100000     6.090311579    25.209333333     7.458203042   0   0   0 # sty
   1314      1   3  2.100000     9.914358399    23.408666667     5.250388581   0   0   0 # sty
   1315      1   2 -1.050000     6.576935901    22.237330000    10.141159764   0   0   0 # oby
   1316      1   2 -1.050000     7.084559015    25.838663333    11.991843561   0   0   0 # oby
   1317      1   2 -1.050000     8.433486640    24.037996667    10.626887151   0   0   0 # oby
   1318      1   2 -1.050000     4.629561064    26.380670000    11.265477151   0   0   0 # oby
   1319      1   2 -1.050000     5.978488690    22.779336667    12.630433561   0   0   0 # oby
   1320      1   2 -1.050000     4.121937951    24.580003333    13.116160948   0   0   0 # oby
   1321      1   3  2.100000     6.090311579    21.608000000    11.546936487   0   0   0 # sty
   1322      1   3  2.100000     3.635313628    25.209333333    11.710384225   0   0   0 # sty
   1323      1   3  2.100000     7.459360448    23.408666667     9.502569764   0   0   0 # sty
   1324      1   2 -1.050000     4.121937951    22.237330000    14.393340948   0   0   0 # oby
   1325      1   2 -1.050000     4.629561064    25.838663333    16.244024744   0   0   0 # oby
   1326      1   2 -1.050000     5.978488690    24.037996667    14.879068334   0   0   0 # oby
   1327      1   2 -1.050000     2.174563113    26.380670000    15.517658334   0   0   0 # oby
   1328      1   2 -1.050000     3.523490739    22.779336667    16.882614744   0   0   0 # oby
   1329      1   2 -1.050000     1.666940000    24.580003333    17.368342131   0   0   0 # oby
   1330      1   3  2.100000     3.635313628    21.608000000    15.799117670   0   0   0 # sty
   1331      1   3  2.100000     1.180315677    25.209333333    15.962565409   0   0   0 # sty
   1332      1   3  2.100000     5.004362497    23.408666667    13.754750948   0   0   0 # sty
   1333      1   2 -1.050000     1.666940000    22.237330000    18.645522131   0   0   0 # oby
   1334      1   2 -1.050000     2.174563113    25.838663333    20.496205927   0   0   0 # oby
   1335      1   2 -1.050000     3.523490739    24.037996667    19.131249517   0   0   0 # oby
   1336      1   2 -1.050000    24.269544670    26.380670000    19.769839517   0   0   0 # oby
   1337      1   2 -1.050000     1.068492788    22.779336667    21.134795927   0   0   0 # oby
   1338      1   2 -1.050000    23.761921557    24.580003333    21.620523314   0   0   0 # oby
   1339      1   3  2.100000     1.180315677    21.608000000    20.051298853   0   0   0 # sty
   1340      1   3  2.100000    23.275297234    25.209333333    20.214746592   0   0   0 # sty
   1341      1   3  2.100000     2.549364547    23.408666667    18.006932131   0   0   0 # sty
   1342      1   2 -1.050000    23.761921557    22.237330000    22.897703314   0   0   0 # oby
   1343      1   2 -1.050000    24.269544670    25.838663333    24.748387110   0   0   0 # oby
   1344      1   2 -1.050000     1.068492788    24.037996667    23.383430700   0   0   0 # oby
   1345      1   2 -1.050000    21.814546719    26.380670000    24.022020700   0   0   0 # oby
   1346      1   2 -1.165000    23.163474345    22.779336667    25.386977110   0   0   0 # oby
   1347      1   2 -1.165000    21.306923606    24.580003333    25.872704497   0   0   0 # oby
   1348      1   3  2.100000    23.275297234    21.608000000    24.303480036   0   0   0 # sty
   1349      1   3  2.100000    20.820299283    25.209333333    24.466927775   0   0   0 # sty
   1350      1   3  2.100000    24.644366596    23.408666667    22.259113314  -1   0   0 # sty
   1351      1   4  0.425000    17.153685742     1.418776904     1.827036406   0   0   0 # hoy
   1352      1   4  0.425000    18.794956671     2.726390762     1.200000048   0   0   0 # hoy
   1353      1   4  0.425000    22.063681643     1.418776904     1.827036406   0   0   0 # hoy
   1354      1   4  0.425000    23.704952573     2.726390762     1.200000048   0   0   0 # hoy
   1355      1   4  0.425000     2.423698037     1.418776904     1.827036406   0   0   0 # hoy
   1356      1   4  0.425000     4.064968967     2.726390762     1.200000048   0   0   0 # hoy
   1357      1   4  0.425000     7.333693939     1.418776904     1.827036406   0   0   0 # hoy
   1358      1   4  0.425000     8.974964868     2.726390762     1.200000048   0   0   0 # hoy
   1359      1   4  0.425000    12.243689840     1.418776904     1.827036406   0   0   0 # hoy
   1360      1   4  0.425000    13.884960770     2.726390762     1.200000048   0   0   0 # hoy
   1361      1   4  0.425000    17.153685742     6.820776904     1.827036406   0   0   0 # hoy
   1362      1   4  0.425000    18.794956671     8.128390762     1.200000048   0   0   0 # hoy
   1363      1   4  0.425000    22.063681643     6.820776904     1.827036406   0   0   0 # hoy
   1364      1   4  0.425000    23.704952573     8.128390762     1.200000048   0   0   0 # hoy
   1365      1   4  0.425000     2.423698037     6.820776904     1.827036406   0   0   0 # hoy
   1366      1   4  0.425000     4.064968967     8.128390762     1.200000048   0   0   0 # hoy
   1367      1   4  0.425000     7.333693939     6.820776904     1.827036406   0   0   0 # hoy
   1368      1   4  0.425000     8.974964868     8.128390762     1.200000048   0   0   0 # hoy
   1369      1   4  0.425000    12.243689840     6.820776904     1.827036406   0   0   0 # hoy
   1370      1   4  0.425000    13.884960770     8.128390762     1.200000048   0   0   0 # hoy
   1371      1   4  0.425000    17.153685742    12.222776904     1.827036406   0   0   0 # hoy
   1372      1   4  0.425000    18.794956671    13.530390762     1.200000048   0   0   0 # hoy
   1373      1   4  0.425000    22.063681643    12.222776904     1.827036406   0   0   0 # hoy
   1374      1   4  0.425000    23.704952573    13.530390762     1.200000048   0   0   0 # hoy
   1375      1   4  0.425000     2.423698037    12.222776904     1.827036406   0   0   0 # hoy
   1376      1   4  0.425000     4.064968967    13.530390762     1.200000048   0   0   0 # hoy
   1377      1   4  0.425000     7.333693939    12.222776904     1.827036406   0   0   0 # hoy
   1378      1   4  0.425000     8.974964868    13.530390762     1.200000048   0   0   0 # hoy
   1379      1   4  0.425000    12.243689840    12.222776904     1.827036406   0   0   0 # hoy
   1380      1   4  0.425000    13.884960770    13.530390762     1.200000048   0   0   0 # hoy
   1381      1   4  0.425000    17.153685742    17.624776904     1.827036406   0   0   0 # hoy
   1382      1   4  0.425000    18.794956671    18.932390762     1.200000048   0   0   0 # hoy
   1383      1   4  0.425000    22.063681643    17.624776904     1.827036406   0   0   0 # hoy
   1384      1   4  0.425000    23.704952573    18.932390762     1.200000048   0   0   0 # hoy
   1385      1   4  0.425000     2.423698037    17.624776904     1.827036406   0   0   0 # hoy
   1386      1   4  0.425000     4.064968967    18.932390762     1.200000048   0   0   0 # hoy
   1387      1   4  0.425000     7.333693939    17.624776904     1.827036406   0   0   0 # hoy
   1388      1   4  0.425000     8.974964868    18.932390762     1.200000048   0   0   0 # hoy
   1389      1   4  0.425000    12.243689840    17.624776904     1.827036406   0   0   0 # hoy
   1390      1   4  0.425000    13.884960770    18.932390762     1.200000048   0   0   0 # hoy
   1391      1   4  0.425000    17.153685742    23.026776904     1.827036406   0   0   0 # hoy
   1392      1   4  0.425000    18.794956671    24.334390762     1.200000048   0   0   0 # hoy
   1393      1   4  0.425000    22.063681643    23.026776904     1.827036406   0   0   0 # hoy
   1394      1   4  0.425000    23.704952573    24.334390762     1.200000048   0   0   0 # hoy
   1395      1   4  0.425000     2.423698037    23.026776904     1.827036406   0   0   0 # hoy
   1396      1   4  0.425000     4.064968967    24.334390762     1.200000048   0   0   0 # hoy
   1397      1   4  0.425000     7.333693939    23.026776904     1.827036406   0   0   0 # hoy
   1398      1   4  0.425000     8.974964868    24.334390762     1.200000048   0   0   0 # hoy
   1399      1   4  0.425000    12.243689840    23.026776904     1.827036406   0   0   0 # hoy
   1400      1   4  0.425000    13.884960770    24.334390762     1.200000048   0   0   0 # hoy
   1401      1   1 -1.065000     1.617769391     0.702248870    27.056462984   0   0   0 # ohy
   1402      1   1 -0.950000     8.308303540     2.369672611    27.663304796   0   0   0 # ohy
   1403      1   1 -0.950000     6.527765293     0.702248870    27.056462984   0   0   0 # ohy
   1404      1   1 -0.950000    13.218299442     2.369672611    27.663304796   0   0   0 # ohy
   1405      1   1 -0.950000    11.437761194     0.702248870    27.056462984   0   0   0 # ohy
   1406      1   1 -0.950000    18.128295343     2.369672611    27.663304796   0   0   0 # ohy
   1407      1   1 -0.950000    16.347757096     0.702248870    27.056462984   0   0   0 # ohy
   1408      1   1 -0.950000    23.038291245     2.369672611    27.663304796   0   0   0 # ohy
   1409      1   1 -0.950000    21.257752997     0.702248870    27.056462984   0   0   0 # ohy
   1410      1   1 -0.950000     3.398307639     7.771672611    27.663304796   0   0   0 # ohy
   1411      1   1 -0.950000     1.617769391     6.104248870    27.056462984   0   0   0 # ohy
   1412      1   1 -0.950000     8.308303540     7.771672611    27.663304796   0   0   0 # ohy
   1413      1   1 -0.950000     6.527765293     6.104248870    27.056462984   0   0   0 # ohy
   1414      1   1 -0.950000    13.218299442     7.771672611    27.663304796   0   0   0 # ohy
   1415      1   1 -0.950000    11.437761194     6.104248870    27.056462984   0   0   0 # ohy
   1416      1   1 -0.950000    18.128295343     7.771672611    27.663304796   0   0   0 # ohy
   1417      1   1 -0.950000    16.347757096     6.104248870    27.056462984   0   0   0 # ohy
   1418      1   1 -1.065000    21.257752997     6.104248870    27.056462984   0   0   0 # ohy
   1419      1   1 -0.950000     3.398307639    13.173672611    27.663304796   0   0   0 # ohy
   1420      1   1 -0.950000     1.617769391    11.506248870    27.056462984   0   0   0 # ohy
   1421      1   1 -0.950000     8.308303540    13.173672611    27.663304796   0   0   0 # ohy
   1422      1   1 -0.950000     6.527765293    11.506248870    27.056462984   0   0   0 # ohy
   1423      1   1 -1.065000    11.437761194    11.506248870    27.056462984   0   0   0 # ohy
   1424      1   1 -0.950000    18.128295343    13.173672611    27.663304796   0   0   0 # ohy
   1425      1   1 -0.950000    16.347757096    11.506248870    27.056462984   0   0   0 # ohy
   1426      1   1 -0.950000    23.038291245    13.173672611    27.663304796   0   0   0 # ohy
   1427      1   1 -0.950000    21.257752997    11.506248870    27.056462984   0   0   0 # ohy
   1428      1   1 -1.065000     1.617769391    16.908248870    27.056462984   0   0   0 # ohy
   1429      1   1 -0.950000     8.308303540    18.575672611    27.663304796   0   0   0 # ohy
   1430      1   1 -0.950000     6.527765293    16.908248870    27.056462984   0   0   0 # ohy
   1431      1   1 -0.950000    13.218299442    18.575672611    27.663304796   0   0   0 # ohy
   1432      1   1 -0.950000    11.437761194    16.908248870    27.056462984   0   0   0 # ohy
   1433      1   1 -0.950000    18.128295343    18.575672611    27.663304796   0   0   0 # ohy
   1434      1   1 -0.950000    16.347757096    16.908248870    27.056462984   0   0   0 # ohy
   1435      1   1 -0.950000    23.038291245    18.575672611    27.663304796   0   0   0 # ohy
   1436      1   1 -0.950000    21.257752997    16.908248870    27.056462984   0   0   0 # ohy
   1437      1   1 -0.950000     3.398307639    23.977672611    27.663304796   0   0   0 # ohy
   1438      1   1 -0.950000     1.617769391    22.310248870    27.056462984   0   0   0 # ohy
   1439      1   1 -0.950000     8.308303540    23.977672611    27.663304796   0   0   0 # ohy
   1440      1   1 -0.950000     6.527765293    22.310248870    27.056462984   0   0   0 # ohy
   1441      1   1 -1.065000    11.437761194    22.310248870    27.056462984   0   0   0 # ohy
   1442      1   1 -0.950000    18.128295343    23.977672611    27.663304796   0   0   0 # ohy
   1443      1   1 -0.950000    16.347757096    22.310248870    27.056462984   0   0   0 # ohy
   1444      1   1 -1.065000    21.257752997    22.310248870    27.056462984   0   0   0 # ohy
   1445      1   4  0.425000     1.656680832     0.701079586    28.165780141   0   0   0 # hoy
   1446      1   4  0.425000     9.070463974     3.064575484    27.253034774   0   0   0 # hoy
   1447      1   4  0.425000     6.566676734     0.701079586    28.165780141   0   0   0 # hoy
   1448      1   4  0.425000    13.980459875     3.064575484    27.253034774   0   0   0 # hoy
   1449      1   4  0.425000    11.476672635     0.701079586    28.165780141   0   0   0 # hoy
   1450      1   4  0.425000    18.890455777     3.064575484    27.253034774   0   0   0 # hoy
   1451      1   4  0.425000    16.386668537     0.701079586    28.165780141   0   0   0 # hoy
   1452      1   4  0.425000    23.800451678     3.064575484    27.253034774   0   0   0 # hoy
   1453      1   4  0.425000    21.296664438     0.701079586    28.165780141   0   0   0 # hoy
   1454      1   4  0.425000     4.160468072     8.466575484    27.253034774   0   0   0 # hoy
   1455      1   4  0.425000     1.656680832     6.103079586    28.165780141   0   0   0 # hoy
   1456      1   4  0.425000     9.070463974     8.466575484    27.253034774   0   0   0 # hoy
   1457      1   4  0.425000     6.566676734     6.103079586    28.165780141   0   0   0 # hoy
   1458      1   4  0.425000    13.980459875     8.466575484    27.253034774   0   0   0 # hoy
   1459      1   4  0.425000    11.476672635     6.103079586    28.165780141   0   0   0 # hoy
   1460      1   4  0.425000    18.890455777     8.466575484    27.253034774   0   0   0 # hoy
   1461      1   4  0.425000    16.386668537     6.103079586    28.165780141   0   0   0 # hoy
   1462      1   4  0.425000    21.296664438     6.103079586    28.165780141   0   0   0 # hoy
   1463      1   4  0.425000     4.160468072    13.868575484    27.253034774   0   0   0 # hoy
   1464      1   4  0.425000     1.656680832    11.505079586    28.165780141   0   0   0 # hoy
   1465      1   4  0.425000     9.070463974    13.868575484    27.253034774   0   0   0 # hoy
   1466      1   4  0.425000     6.566676734    11.505079586    28.165780141   0   0   0 # hoy
   1467      1   4  0.425000    11.476672635    11.505079586    28.165780141   0   0   0 # hoy
   1468      1   4  0.425000    18.890455777    13.868575484    27.253034774   0   0   0 # hoy
   1469      1   4  0.425000    16.386668537    11.505079586    28.165780141   0   0   0 # hoy
   1470      1   4  0.425000    23.800451678    13.868575484    27.253034774   0   0   0 # hoy
   1471      1   4  0.425000    21.296664438    11.505079586    28.165780141   0   0   0 # hoy
   1472      1   4  0.425000     1.656680832    16.907079586    28.165780141   0   0   0 # hoy
   1473      1   4  0.425000     9.070463974    19.270575484    27.253034774   0   0   0 # hoy
   1474      1   4  0.425000     6.566676734    16.907079586    28.165780141   0   0   0 # hoy
   1475      1   4  0.425000    13.980459875    19.270575484    27.253034774   0   0   0 # hoy
   1476      1   4  0.425000    11.476672635    16.907079586    28.165780141   0   0   0 # hoy
   1477      1   4  0.425000    18.890455777    19.270575484    27.253034774   0   0   0 # hoy
   1478      1   4  0.425000    16.386668537    16.907079586    28.165780141   0   0   0 # hoy
   1479      1   4  0.425000    23.800451678    19.270575484    27.253034774   0   0   0 # hoy
   1480      1   4  0.425000    21.296664438    16.907079586    28.165780141   0   0   0 # hoy
   1481      1   4  0.425000     4.160468072    24.672575484    27.253034774   0   0   0 # hoy
   1482      1   4  0.425000     1.656680832    22.309079586    28.165780141   0   0   0 # hoy
   1483      1   4  0.425000     9.070463974    24.672575484    27.253034774   0   0   0 # hoy
   1484      1   4  0.425000     6.566676734    22.309079586    28.165780141   0   0   0 # hoy
   1485      1   4  0.425000    11.476672635    22.309079586    28.165780141   0   0   0 # hoy
   1486      1   4  0.425000    18.890455777    24.672575484    27.253034774   0   0   0 # hoy
   1487      1   4  0.425000    16.386668537    22.309079586    28.165780141   0   0   0 # hoy
   1488      1   4  0.425000    21.296664438    22.309079586    28.165780141   0   0   0 # hoy
   1489      1   1 -1.065000     3.398307639     2.369672611    27.663304796   0   0   0 # ohy
   1490      1   1 -1.065000    23.038291245     7.771672611    27.663304796   0   0   0 # ohy
   1491      1   1 -1.065000    13.218299442    13.173672611    27.663304796   0   0   0 # ohy
   1492      1   1 -1.065000     3.398307639    18.575672611    27.663304796   0   0   0 # ohy
   1493      1   1 -1.065000    13.218299442    23.977672611    27.663304796   0   0   0 # ohy
   1494      1   1 -1.065000    23.038291245    23.977672611    27.663304796   0   0   0 # ohy

Bonds

     1   1      1   1351
     2   1      3   1352
     3   1     55   1353
     4   1     57   1354
     5   1    109   1355
     6   1    111   1356
     7   1    163   1357
     8   1    165   1358
     9   1    217   1359
    10   1    219   1360
    11   1    271   1361
    12   1    273   1362
    13   1    325   1363
    14   1    327   1364
    15   1    379   1365
    16   1    381   1366
    17   1    433   1367
    18   1    435   1368
    19   1    487   1369
    20   1    489   1370
    21   1    541   1371
    22   1    543   1372
    23   1    595   1373
    24   1    597   1374
    25   1    649   1375
    26   1    651   1376
    27   1    703   1377
    28   1    705   1378
    29   1    757   1379
    30   1    759   1380
    31   1    811   1381
    32   1    813   1382
    33   1    865   1383
    34   1    867   1384
    35   1    919   1385
    36   1    921   1386
    37   1    973   1387
    38   1    975   1388
    39   1   1027   1389
    40   1   1029   1390
    41   1   1081   1391
    42   1   1083   1392
    43   1   1135   1393
    44   1   1137   1394
    45   1   1189   1395
    46   1   1191   1396
    47   1   1243   1397
    48   1   1245   1398
    49   1   1297   1399
    50   1   1299   1400
    51   1   1401   1445
    52   1   1402   1446
    53   1   1403   1447
    54   1   1404   1448
    55   1   1405   1449
    56   1   1406   1450
    57   1   1407   1451
    58   1   1408   1452
    59   1   1409   1453
    60   1   1410   1454
    61   1   1411   1455
    62   1   1412   1456
    63   1   1413   1457
    64   1   1414   1458
    65   1   1415   1459
    66   1   1416   1460
    67   1   1417   1461
    68   1   1418   1462
    69   1   1419   1463
    70   1   1420   1464
    71   1   1421   1465
    72   1   1422   1466
    73   1   1423   1467
    74   1   1424   1468
    75   1   1425   1469
    76   1   1426   1470
    77   1   1427   1471
    78   1   1428   1472
    79   1   1429   1473
    80   1   1430   1474
    81   1   1431   1475
    82   1   1432   1476
    83   1   1433   1477
    84   1   1434   1478
    85   1   1435   1479
    86   1   1436   1480
    87   1   1437   1481
    88   1   1438   1482
    89   1   1439   1483
    90   1   1440   1484
    91   1   1441   1485
    92   1   1442   1486
    93   1   1443   1487
    94   1   1444   1488

Angles

     1   1      7      1   1351
     2   1     62      3   1352
     3   1     61     55   1353
     4   1    116     57   1354
     5   1    115    109   1355
     6   1    170    111   1356
     7   1    169    163   1357
     8   1    224    165   1358
     9   1    223    217   1359
    10   1      8    219   1360
    11   1    277    271   1361
    12   1    332    273   1362
    13   1    331    325   1363
    14   1    386    327   1364
    15   1    385    379   1365
    16   1    440    381   1366
    17   1    439    433   1367
    18   1    494    435   1368
    19   1    493    487   1369
    20   1    278    489   1370
    21   1    547    541   1371
    22   1    602    543   1372
    23   1    601    595   1373
    24   1    656    597   1374
    25   1    655    649   1375
    26   1    710    651   1376
    27   1    709    703   1377
    28   1    764    705   1378
    29   1    763    757   1379
    30   1    548    759   1380
    31   1    817    811   1381
    32   1    872    813   1382
    33   1    871    865   1383
    34   1    926    867   1384
    35   1    925    919   1385
    36   1    980    921   1386
    37   1    979    973   1387
    38   1   1034    975   1388
    39   1   1033   1027   1389
    40   1    818   1029   1390
    41   1   1087   1081   1391
    42   1   1142   1083   1392
    43   1   1141   1135   1393
    44   1   1196   1137   1394
    45   1   1195   1189   1395
    46   1   1250   1191   1396
    47   1   1249   1243   1397
    48   1   1304   1245   1398
    49   1   1303   1297   1399
    50   1   1088   1299   1400
    51   1      9   1401   1445
    52   1     63   1402   1446
    53   1     63   1403   1447
    54   1    117   1404   1448
    55   1    117   1405   1449
    56   1    171   1406   1450
    57   1    171   1407   1451
    58   1    225   1408   1452
    59   1    225   1409   1453
    60   1    279   1410   1454
    61   1    279   1411   1455
    62   1    333   1412   1456
    63   1    333   1413   1457
    64   1    387   1414   1458
    65   1    387   1415   1459
    66   1    441   1416   1460
    67   1    441   1417   1461
    68   1    495   1418   1462
    69   1    549   1419   1463
    70   1    549   1420   1464
    71   1    603   1421   1465
    72   1    603   1422   1466
    73   1    657   1423   1467
    74   1    711   1424   1468
    75   1    711   1425   1469
    76   1    765   1426   1470
    77   1    765   1427   1471
    78   1    819   1428   1472
    79   1    873   1429   1473
    80   1    873   1430   1474
    81   1    927   1431   1475
    82   1    927   1432   1476
    83   1    981   1433   1477
    84   1    981   1434   1478
    85   1   1035   1435   1479
    86   1   1035   1436   1480
    87   1   1089   1437   1481
    88   1   1089   1438   1482
    89   1   1143   1439   1483
    90   1   1143   1440   1484
    91   1   1197   1441   1485
    92   1   1251   1442   1486
    93   1   1251   1443   1487
    94   1   1305   1444   1488
