LAMMPS data file for qtz100b-surf-6

   1494 atoms
   94 bonds
   94 angles
      0 dihedrals
      0 impropers

   4 atom types
   1 bond types
   1 angle types

     0.157901792    24.707901792 xlo xhi
    -0.358963840    26.651036160 ylo yhi
   -77.083811833   105.870988167 zlo zhi

Masses

   1  15.999400 # ohy
   2  15.999400 # oby
   3  28.085500 # sty
   4   1.007940 # hoy

Pair Coeffs # lj/cut/coul/long

   1   0.1554000000   3.1655413253 # ohy
   2   0.1554000000   3.1655413253 # oby
   3   0.0000018405   3.3020269922 # sty
   4   0.0000000000   0.0000000000 # hoy

Bond Coeffs # harmonic

   1   554.1348     1.0000 # ohy-hoy

Angle Coeffs # harmonic

   1    30.0000   109.4700 # sty-ohy-hoy

Atoms # full

      1      1   1 -0.950000     8.476590337     0.629330000    27.287593006   0   0   0 # ohy
      2      1   2 -1.165000     7.968967223     4.230663333    25.436909209   0   0   0 # oby
      3      1   2 -1.050000    10.423965174     4.772670000    26.163275619   0   0   0 # oby
      4      1   2 -1.050000     9.075037548     1.171336667    24.798319209   0   0   0 # oby
      5      1   2 -1.050000    10.931588287     2.972003333    24.312591823   0   0   0 # oby
      6      1   3  2.100000     8.963214659     0.000000000    25.881816284   0   0   0 # sty
      7      1   3  2.100000    11.418212610     3.601333333    25.718368545   0   0   0 # sty
      8      1   3  2.100000    22.324153494     1.800666667     2.413095907   0   0   0 # sty
      9      1   2 -1.050000    10.931588287     0.629330000    23.035411823   0   0   0 # oby
     10      1   2 -1.050000    10.423965174     4.230663333    21.184728026   0   0   0 # oby
     11      1   2 -1.050000     9.075037548     2.429996667    22.549684436   0   0   0 # oby
     12      1   2 -1.050000    12.878963125     4.772670000    21.911094436   0   0   0 # oby
     13      1   2 -1.050000    11.530035499     1.171336667    20.546138026   0   0   0 # oby
     14      1   2 -1.050000    13.386586238     2.972003333    20.060410640   0   0   0 # oby
     15      1   3  2.100000    11.418212610     0.000000000    21.629635100   0   0   0 # sty
     16      1   3  2.100000    13.873210561     3.601333333    21.466187362   0   0   0 # sty
     17      1   3  2.100000    10.049163741     1.800666667    23.674001823   0   0   0 # sty
     18      1   2 -1.050000    13.386586238     0.629330000    18.783230640   0   0   0 # oby
     19      1   2 -1.050000    12.878963125     4.230663333    16.932546843   0   0   0 # oby
     20      1   2 -1.050000    11.530035499     2.429996667    18.297503253   0   0   0 # oby
     21      1   2 -1.050000    15.333961075     4.772670000    17.658913253   0   0   0 # oby
     22      1   2 -1.050000    13.985033450     1.171336667    16.293956843   0   0   0 # oby
     23      1   2 -1.050000    15.841584189     2.972003333    15.808229456   0   0   0 # oby
     24      1   3  2.100000    13.873210561     0.000000000    17.377453917   0   0   0 # sty
     25      1   3  2.100000    16.328208511     3.601333333    17.214006179   0   0   0 # sty
     26      1   3  2.100000    12.504161691     1.800666667    19.421820640   0   0   0 # sty
     27      1   2 -1.050000    15.841584189     0.629330000    14.531049456   0   0   0 # oby
     28      1   2 -1.050000    15.333961075     4.230663333    12.680365660   0   0   0 # oby
     29      1   2 -1.050000    13.985033450     2.429996667    14.045322070   0   0   0 # oby
     30      1   2 -1.050000    17.788959026     4.772670000    13.406732070   0   0   0 # oby
     31      1   2 -1.050000    16.440031401     1.171336667    12.041775660   0   0   0 # oby
     32      1   2 -1.050000    18.296582139     2.972003333    11.556048273   0   0   0 # oby
     33      1   3  2.100000    16.328208511     0.000000000    13.125272734   0   0   0 # sty
     34      1   3  2.100000    18.783206462     3.601333333    12.961824995   0   0   0 # sty
     35      1   3  2.100000    14.959159642     1.800666667    15.169639456   0   0   0 # sty
     36      1   2 -1.050000    18.296582139     0.629330000    10.278868273   0   0   0 # oby
     37      1   2 -1.050000    17.788959026     4.230663333     8.428184477   0   0   0 # oby
     38      1   2 -1.050000    16.440031401     2.429996667     9.793140887   0   0   0 # oby
     39      1   2 -1.050000    20.243956977     4.772670000     9.154550887   0   0   0 # oby
     40      1   2 -1.050000    18.895029351     1.171336667     7.789594477   0   0   0 # oby
     41      1   2 -1.050000    20.751580090     2.972003333     7.303867090   0   0   0 # oby
     42      1   3  2.100000    18.783206462     0.000000000     8.873091551   0   0   0 # sty
     43      1   3  2.100000    21.238204413     3.601333333     8.709643812   0   0   0 # sty
     44      1   3  2.100000    17.414157593     1.800666667    10.917458273   0   0   0 # sty
     45      1   2 -1.050000    20.751580090     0.629330000     6.026687090   0   0   0 # oby
     46      1   2 -1.050000    20.243956977     4.230663333     4.176003294   0   0   0 # oby
     47      1   2 -1.050000    18.895029351     2.429996667     5.540959703   0   0   0 # oby
     48      1   2 -1.050000    22.698954928     4.772670000     4.902369703   0   0   0 # oby
     49      1   2 -1.050000    21.350027302     1.171336667     3.537413294   0   0   0 # oby
     50      1   2 -1.050000    23.206578041     2.972003333     3.051685907   0   0   0 # oby
     51      1   3  2.100000    21.238204413     0.000000000     4.620910368   0   0   0 # sty
     52      1   3  2.100000    23.693202364     3.601333333     4.457462629   0   0   0 # sty
     53      1   3  2.100000    19.869155543     1.800666667     6.665277090   0   0   0 # sty
     54      1   1 -0.950000     3.566594435     0.629330000    27.287593006   0   0   0 # ohy
     55      1   2 -1.050000     3.058971322     4.230663333    25.436909209   0   0   0 # oby
     56      1   1 -0.950000     1.710043696     2.429996667    26.801865619   0   0   0 # ohy
     57      1   2 -1.165000     5.513969272     4.772670000    26.163275619   0   0   0 # oby
     58      1   2 -1.050000     4.165041647     1.171336667    24.798319209   0   0   0 # oby
     59      1   2 -1.165000     6.021592386     2.972003333    24.312591823   0   0   0 # oby
     60      1   3  2.100000     4.053218758     0.000000000    25.881816284   0   0   0 # sty
     61      1   3  1.985000     6.508216708     3.601333333    25.718368545   0   0   0 # sty
     62      1   3  2.100000    17.414157593     1.800666667     2.413095907   0   0   0 # sty
     63      1   2 -1.050000     6.021592386     0.629330000    23.035411823   0   0   0 # oby
     64      1   2 -1.050000     5.513969272     4.230663333    21.184728026   0   0   0 # oby
     65      1   2 -1.050000     4.165041647     2.429996667    22.549684436   0   0   0 # oby
     66      1   2 -1.050000     7.968967223     4.772670000    21.911094436   0   0   0 # oby
     67      1   2 -1.050000     6.620039598     1.171336667    20.546138026   0   0   0 # oby
     68      1   2 -1.050000     8.476590337     2.972003333    20.060410640   0   0   0 # oby
     69      1   3  2.100000     6.508216708     0.000000000    21.629635100   0   0   0 # sty
     70      1   3  2.100000     8.963214659     3.601333333    21.466187362   0   0   0 # sty
     71      1   3  2.100000     5.139167839     1.800666667    23.674001823   0   0   0 # sty
     72      1   2 -1.050000     8.476590337     0.629330000    18.783230640   0   0   0 # oby
     73      1   2 -1.050000     7.968967223     4.230663333    16.932546843   0   0   0 # oby
     74      1   2 -1.050000     6.620039598     2.429996667    18.297503253   0   0   0 # oby
     75      1   2 -1.050000    10.423965174     4.772670000    17.658913253   0   0   0 # oby
     76      1   2 -1.050000     9.075037548     1.171336667    16.293956843   0   0   0 # oby
     77      1   2 -1.050000    10.931588287     2.972003333    15.808229456   0   0   0 # oby
     78      1   3  2.100000     8.963214659     0.000000000    17.377453917   0   0   0 # sty
     79      1   3  2.100000    11.418212610     3.601333333    17.214006179   0   0   0 # sty
     80      1   3  2.100000     7.594165790     1.800666667    19.421820640   0   0   0 # sty
     81      1   2 -1.050000    10.931588287     0.629330000    14.531049456   0   0   0 # oby
     82      1   2 -1.050000    10.423965174     4.230663333    12.680365660   0   0   0 # oby
     83      1   2 -1.050000     9.075037548     2.429996667    14.045322070   0   0   0 # oby
     84      1   2 -1.050000    12.878963125     4.772670000    13.406732070   0   0   0 # oby
     85      1   2 -1.050000    11.530035499     1.171336667    12.041775660   0   0   0 # oby
     86      1   2 -1.050000    13.386586238     2.972003333    11.556048273   0   0   0 # oby
     87      1   3  2.100000    11.418212610     0.000000000    13.125272734   0   0   0 # sty
     88      1   3  2.100000    13.873210561     3.601333333    12.961824995   0   0   0 # sty
     89      1   3  2.100000    10.049163741     1.800666667    15.169639456   0   0   0 # sty
     90      1   2 -1.050000    13.386586238     0.629330000    10.278868273   0   0   0 # oby
     91      1   2 -1.050000    12.878963125     4.230663333     8.428184477   0   0   0 # oby
     92      1   2 -1.050000    11.530035499     2.429996667     9.793140887   0   0   0 # oby
     93      1   2 -1.050000    15.333961075     4.772670000     9.154550887   0   0   0 # oby
     94      1   2 -1.050000    13.985033450     1.171336667     7.789594477   0   0   0 # oby
     95      1   2 -1.050000    15.841584189     2.972003333     7.303867090   0   0   0 # oby
     96      1   3  2.100000    13.873210561     0.000000000     8.873091551   0   0   0 # sty
     97      1   3  2.100000    16.328208511     3.601333333     8.709643812   0   0   0 # sty
     98      1   3  2.100000    12.504161691     1.800666667    10.917458273   0   0   0 # sty
     99      1   2 -1.050000    15.841584189     0.629330000     6.026687090   0   0   0 # oby
    100      1   2 -1.050000    15.333961075     4.230663333     4.176003294   0   0   0 # oby
    101      1   2 -1.050000    13.985033450     2.429996667     5.540959703   0   0   0 # oby
    102      1   2 -1.050000    17.788959026     4.772670000     4.902369703   0   0   0 # oby
    103      1   2 -1.050000    16.440031401     1.171336667     3.537413294   0   0   0 # oby
    104      1   2 -1.050000    18.296582139     2.972003333     3.051685907   0   0   0 # oby
    105      1   3  2.100000    16.328208511     0.000000000     4.620910368   0   0   0 # sty
    106      1   3  2.100000    18.783206462     3.601333333     4.457462629   0   0   0 # sty
    107      1   3  2.100000    14.959159642     1.800666667     6.665277090   0   0   0 # sty
    108      1   1 -0.950000    23.206578041     0.629330000    27.287593006   0   0   0 # ohy
    109      1   2 -1.165000    22.698954928     4.230663333    25.436909209   0   0   0 # oby
    110      1   2 -1.050000     0.603973371     4.772670000    26.163275619   0   0   0 # oby
    111      1   2 -1.050000    23.805025253     1.171336667    24.798319209   0   0   0 # oby
    112      1   2 -1.050000     1.111596484     2.972003333    24.312591823   0   0   0 # oby
    113      1   3  2.100000    23.693202364     0.000000000    25.881816284   0   0   0 # sty
    114      1   3  2.100000     1.598220807     3.601333333    25.718368545   0   0   0 # sty
    115      1   3  2.100000    12.504161691     1.800666667     2.413095907   0   0   0 # sty
    116      1   2 -1.050000     1.111596484     0.629330000    23.035411823   0   0   0 # oby
    117      1   2 -1.050000     0.603973371     4.230663333    21.184728026   0   0   0 # oby
    118      1   2 -1.050000    23.805025253     2.429996667    22.549684436   0   0   0 # oby
    119      1   2 -1.050000     3.058971322     4.772670000    21.911094436   0   0   0 # oby
    120      1   2 -1.050000     1.710043696     1.171336667    20.546138026   0   0   0 # oby
    121      1   2 -1.050000     3.566594435     2.972003333    20.060410640   0   0   0 # oby
    122      1   3  2.100000     1.598220807     0.000000000    21.629635100   0   0   0 # sty
    123      1   3  2.100000     4.053218758     3.601333333    21.466187362   0   0   0 # sty
    124      1   3  2.100000     0.229151445     1.800666667    23.674001823   1   0   0 # sty
    125      1   2 -1.050000     3.566594435     0.629330000    18.783230640   0   0   0 # oby
    126      1   2 -1.050000     3.058971322     4.230663333    16.932546843   0   0   0 # oby
    127      1   2 -1.050000     1.710043696     2.429996667    18.297503253   0   0   0 # oby
    128      1   2 -1.050000     5.513969272     4.772670000    17.658913253   0   0   0 # oby
    129      1   2 -1.050000     4.165041647     1.171336667    16.293956843   0   0   0 # oby
    130      1   2 -1.050000     6.021592386     2.972003333    15.808229456   0   0   0 # oby
    131      1   3  2.100000     4.053218758     0.000000000    17.377453917   0   0   0 # sty
    132      1   3  2.100000     6.508216708     3.601333333    17.214006179   0   0   0 # sty
    133      1   3  2.100000     2.684169888     1.800666667    19.421820640   0   0   0 # sty
    134      1   2 -1.050000     6.021592386     0.629330000    14.531049456   0   0   0 # oby
    135      1   2 -1.050000     5.513969272     4.230663333    12.680365660   0   0   0 # oby
    136      1   2 -1.050000     4.165041647     2.429996667    14.045322070   0   0   0 # oby
    137      1   2 -1.050000     7.968967223     4.772670000    13.406732070   0   0   0 # oby
    138      1   2 -1.050000     6.620039598     1.171336667    12.041775660   0   0   0 # oby
    139      1   2 -1.050000     8.476590337     2.972003333    11.556048273   0   0   0 # oby
    140      1   3  2.100000     6.508216708     0.000000000    13.125272734   0   0   0 # sty
    141      1   3  2.100000     8.963214659     3.601333333    12.961824995   0   0   0 # sty
    142      1   3  2.100000     5.139167839     1.800666667    15.169639456   0   0   0 # sty
    143      1   2 -1.050000     8.476590337     0.629330000    10.278868273   0   0   0 # oby
    144      1   2 -1.050000     7.968967223     4.230663333     8.428184477   0   0   0 # oby
    145      1   2 -1.050000     6.620039598     2.429996667     9.793140887   0   0   0 # oby
    146      1   2 -1.050000    10.423965174     4.772670000     9.154550887   0   0   0 # oby
    147      1   2 -1.050000     9.075037548     1.171336667     7.789594477   0   0   0 # oby
    148      1   2 -1.050000    10.931588287     2.972003333     7.303867090   0   0   0 # oby
    149      1   3  2.100000     8.963214659     0.000000000     8.873091551   0   0   0 # sty
    150      1   3  2.100000    11.418212610     3.601333333     8.709643812   0   0   0 # sty
    151      1   3  2.100000     7.594165790     1.800666667    10.917458273   0   0   0 # sty
    152      1   2 -1.050000    10.931588287     0.629330000     6.026687090   0   0   0 # oby
    153      1   2 -1.050000    10.423965174     4.230663333     4.176003294   0   0   0 # oby
    154      1   2 -1.050000     9.075037548     2.429996667     5.540959703   0   0   0 # oby
    155      1   2 -1.050000    12.878963125     4.772670000     4.902369703   0   0   0 # oby
    156      1   2 -1.050000    11.530035499     1.171336667     3.537413294   0   0   0 # oby
    157      1   2 -1.050000    13.386586238     2.972003333     3.051685907   0   0   0 # oby
    158      1   3  2.100000    11.418212610     0.000000000     4.620910368   0   0   0 # sty
    159      1   3  2.100000    13.873210561     3.601333333     4.457462629   0   0   0 # sty
    160      1   3  2.100000    10.049163741     1.800666667     6.665277090   0   0   0 # sty
    161      1   1 -0.950000    18.296582139     0.629330000    27.287593006   0   0   0 # ohy
    162      1   2 -1.050000    17.788959026     4.230663333    25.436909209   0   0   0 # oby
    163      1   1 -0.950000    16.440031401     2.429996667    26.801865619   0   0   0 # ohy
    164      1   2 -1.165000    20.243956977     4.772670000    26.163275619   0   0   0 # oby
    165      1   2 -1.050000    18.895029351     1.171336667    24.798319209   0   0   0 # oby
    166      1   2 -1.165000    20.751580090     2.972003333    24.312591823   0   0   0 # oby
    167      1   3  2.100000    18.783206462     0.000000000    25.881816284   0   0   0 # sty
    168      1   3  1.985000    21.238204413     3.601333333    25.718368545   0   0   0 # sty
    169      1   3  2.100000     7.594165790     1.800666667     2.413095907   0   0   0 # sty
    170      1   2 -1.050000    20.751580090     0.629330000    23.035411823   0   0   0 # oby
    171      1   2 -1.050000    20.243956977     4.230663333    21.184728026   0   0   0 # oby
    172      1   2 -1.050000    18.895029351     2.429996667    22.549684436   0   0   0 # oby
    173      1   2 -1.050000    22.698954928     4.772670000    21.911094436   0   0   0 # oby
    174      1   2 -1.050000    21.350027302     1.171336667    20.546138026   0   0   0 # oby
    175      1   2 -1.050000    23.206578041     2.972003333    20.060410640   0   0   0 # oby
    176      1   3  2.100000    21.238204413     0.000000000    21.629635100   0   0   0 # sty
    177      1   3  2.100000    23.693202364     3.601333333    21.466187362   0   0   0 # sty
    178      1   3  2.100000    19.869155543     1.800666667    23.674001823   0   0   0 # sty
    179      1   2 -1.050000    23.206578041     0.629330000    18.783230640   0   0   0 # oby
    180      1   2 -1.050000    22.698954928     4.230663333    16.932546843   0   0   0 # oby
    181      1   2 -1.050000    21.350027302     2.429996667    18.297503253   0   0   0 # oby
    182      1   2 -1.050000     0.603973371     4.772670000    17.658913253   0   0   0 # oby
    183      1   2 -1.050000    23.805025253     1.171336667    16.293956843   0   0   0 # oby
    184      1   2 -1.050000     1.111596484     2.972003333    15.808229456   0   0   0 # oby
    185      1   3  2.100000    23.693202364     0.000000000    17.377453917   0   0   0 # sty
    186      1   3  2.100000     1.598220807     3.601333333    17.214006179   0   0   0 # sty
    187      1   3  2.100000    22.324153494     1.800666667    19.421820640   0   0   0 # sty
    188      1   2 -1.050000     1.111596484     0.629330000    14.531049456   0   0   0 # oby
    189      1   2 -1.050000     0.603973371     4.230663333    12.680365660   0   0   0 # oby
    190      1   2 -1.050000    23.805025253     2.429996667    14.045322070   0   0   0 # oby
    191      1   2 -1.050000     3.058971322     4.772670000    13.406732070   0   0   0 # oby
    192      1   2 -1.050000     1.710043696     1.171336667    12.041775660   0   0   0 # oby
    193      1   2 -1.050000     3.566594435     2.972003333    11.556048273   0   0   0 # oby
    194      1   3  2.100000     1.598220807     0.000000000    13.125272734   0   0   0 # sty
    195      1   3  2.100000     4.053218758     3.601333333    12.961824995   0   0   0 # sty
    196      1   3  2.100000     0.229151445     1.800666667    15.169639456   1   0   0 # sty
    197      1   2 -1.050000     3.566594435     0.629330000    10.278868273   0   0   0 # oby
    198      1   2 -1.050000     3.058971322     4.230663333     8.428184477   0   0   0 # oby
    199      1   2 -1.050000     1.710043696     2.429996667     9.793140887   0   0   0 # oby
    200      1   2 -1.050000     5.513969272     4.772670000     9.154550887   0   0   0 # oby
    201      1   2 -1.050000     4.165041647     1.171336667     7.789594477   0   0   0 # oby
    202      1   2 -1.050000     6.021592386     2.972003333     7.303867090   0   0   0 # oby
    203      1   3  2.100000     4.053218758     0.000000000     8.873091551   0   0   0 # sty
    204      1   3  2.100000     6.508216708     3.601333333     8.709643812   0   0   0 # sty
    205      1   3  2.100000     2.684169888     1.800666667    10.917458273   0   0   0 # sty
    206      1   2 -1.050000     6.021592386     0.629330000     6.026687090   0   0   0 # oby
    207      1   2 -1.050000     5.513969272     4.230663333     4.176003294   0   0   0 # oby
    208      1   2 -1.050000     4.165041647     2.429996667     5.540959703   0   0   0 # oby
    209      1   2 -1.050000     7.968967223     4.772670000     4.902369703   0   0   0 # oby
    210      1   2 -1.050000     6.620039598     1.171336667     3.537413294   0   0   0 # oby
    211      1   2 -1.050000     8.476590337     2.972003333     3.051685907   0   0   0 # oby
    212      1   3  2.100000     6.508216708     0.000000000     4.620910368   0   0   0 # sty
    213      1   3  2.100000     8.963214659     3.601333333     4.457462629   0   0   0 # sty
    214      1   3  2.100000     5.139167839     1.800666667     6.665277090   0   0   0 # sty
    215      1   1 -0.950000    13.386586238     0.629330000    27.287593006   0   0   0 # ohy
    216      1   2 -1.050000    12.878963125     4.230663333    25.436909209   0   0   0 # oby
    217      1   1 -0.950000    11.530035499     2.429996667    26.801865619   0   0   0 # ohy
    218      1   2 -1.050000    15.333961075     4.772670000    26.163275619   0   0   0 # oby
    219      1   2 -1.050000    13.985033450     1.171336667    24.798319209   0   0   0 # oby
    220      1   2 -1.050000    15.841584189     2.972003333    24.312591823   0   0   0 # oby
    221      1   3  2.100000    13.873210561     0.000000000    25.881816284   0   0   0 # sty
    222      1   3  2.100000    16.328208511     3.601333333    25.718368545   0   0   0 # sty
    223      1   3  2.100000     2.684169888     1.800666667     2.413095907   0   0   0 # sty
    224      1   2 -1.050000    15.841584189     0.629330000    23.035411823   0   0   0 # oby
    225      1   2 -1.050000    15.333961075     4.230663333    21.184728026   0   0   0 # oby
    226      1   2 -1.050000    13.985033450     2.429996667    22.549684436   0   0   0 # oby
    227      1   2 -1.050000    17.788959026     4.772670000    21.911094436   0   0   0 # oby
    228      1   2 -1.050000    16.440031401     1.171336667    20.546138026   0   0   0 # oby
    229      1   2 -1.050000    18.296582139     2.972003333    20.060410640   0   0   0 # oby
    230      1   3  2.100000    16.328208511     0.000000000    21.629635100   0   0   0 # sty
    231      1   3  2.100000    18.783206462     3.601333333    21.466187362   0   0   0 # sty
    232      1   3  2.100000    14.959159642     1.800666667    23.674001823   0   0   0 # sty
    233      1   2 -1.050000    18.296582139     0.629330000    18.783230640   0   0   0 # oby
    234      1   2 -1.050000    17.788959026     4.230663333    16.932546843   0   0   0 # oby
    235      1   2 -1.050000    16.440031401     2.429996667    18.297503253   0   0   0 # oby
    236      1   2 -1.050000    20.243956977     4.772670000    17.658913253   0   0   0 # oby
    237      1   2 -1.050000    18.895029351     1.171336667    16.293956843   0   0   0 # oby
    238      1   2 -1.050000    20.751580090     2.972003333    15.808229456   0   0   0 # oby
    239      1   3  2.100000    18.783206462     0.000000000    17.377453917   0   0   0 # sty
    240      1   3  2.100000    21.238204413     3.601333333    17.214006179   0   0   0 # sty
    241      1   3  2.100000    17.414157593     1.800666667    19.421820640   0   0   0 # sty
    242      1   2 -1.050000    20.751580090     0.629330000    14.531049456   0   0   0 # oby
    243      1   2 -1.050000    20.243956977     4.230663333    12.680365660   0   0   0 # oby
    244      1   2 -1.050000    18.895029351     2.429996667    14.045322070   0   0   0 # oby
    245      1   2 -1.050000    22.698954928     4.772670000    13.406732070   0   0   0 # oby
    246      1   2 -1.050000    21.350027302     1.171336667    12.041775660   0   0   0 # oby
    247      1   2 -1.050000    23.206578041     2.972003333    11.556048273   0   0   0 # oby
    248      1   3  2.100000    21.238204413     0.000000000    13.125272734   0   0   0 # sty
    249      1   3  2.100000    23.693202364     3.601333333    12.961824995   0   0   0 # sty
    250      1   3  2.100000    19.869155543     1.800666667    15.169639456   0   0   0 # sty
    251      1   2 -1.050000    23.206578041     0.629330000    10.278868273   0   0   0 # oby
    252      1   2 -1.050000    22.698954928     4.230663333     8.428184477   0   0   0 # oby
    253      1   2 -1.050000    21.350027302     2.429996667     9.793140887   0   0   0 # oby
    254      1   2 -1.050000     0.603973371     4.772670000     9.154550887   0   0   0 # oby
    255      1   2 -1.050000    23.805025253     1.171336667     7.789594477   0   0   0 # oby
    256      1   2 -1.050000     1.111596484     2.972003333     7.303867090   0   0   0 # oby
    257      1   3  2.100000    23.693202364     0.000000000     8.873091551   0   0   0 # sty
    258      1   3  2.100000     1.598220807     3.601333333     8.709643812   0   0   0 # sty
    259      1   3  2.100000    22.324153494     1.800666667    10.917458273   0   0   0 # sty
    260      1   2 -1.050000     1.111596484     0.629330000     6.026687090   0   0   0 # oby
    261      1   2 -1.050000     0.603973371     4.230663333     4.176003294   0   0   0 # oby
    262      1   2 -1.050000    23.805025253     2.429996667     5.540959703   0   0   0 # oby
    263      1   2 -1.050000     3.058971322     4.772670000     4.902369703   0   0   0 # oby
    264      1   2 -1.050000     1.710043696     1.171336667     3.537413294   0   0   0 # oby
    265      1   2 -1.050000     3.566594435     2.972003333     3.051685907   0   0   0 # oby
    266      1   3  2.100000     1.598220807     0.000000000     4.620910368   0   0   0 # sty
    267      1   3  2.100000     4.053218758     3.601333333     4.457462629   0   0   0 # sty
    268      1   3  2.100000     0.229151445     1.800666667     6.665277090   1   0   0 # sty
    269      1   1 -0.950000     8.476590337     6.031330000    27.287593006   0   0   0 # ohy
    270      1   2 -1.050000     7.968967223     9.632663333    25.436909209   0   0   0 # oby
    271      1   1 -0.950000     6.620039598     7.831996667    26.801865619   0   0   0 # ohy
    272      1   2 -1.050000    10.423965174    10.174670000    26.163275619   0   0   0 # oby
    273      1   2 -1.050000     9.075037548     6.573336667    24.798319209   0   0   0 # oby
    274      1   2 -1.050000    10.931588287     8.374003333    24.312591823   0   0   0 # oby
    275      1   3  2.100000     8.963214659     5.402000000    25.881816284   0   0   0 # sty
    276      1   3  2.100000    11.418212610     9.003333333    25.718368545   0   0   0 # sty
    277      1   3  2.100000    22.324153494     7.202666667     2.413095907   0   0   0 # sty
    278      1   2 -1.050000    10.931588287     6.031330000    23.035411823   0   0   0 # oby
    279      1   2 -1.050000    10.423965174     9.632663333    21.184728026   0   0   0 # oby
    280      1   2 -1.050000     9.075037548     7.831996667    22.549684436   0   0   0 # oby
    281      1   2 -1.050000    12.878963125    10.174670000    21.911094436   0   0   0 # oby
    282      1   2 -1.050000    11.530035499     6.573336667    20.546138026   0   0   0 # oby
    283      1   2 -1.050000    13.386586238     8.374003333    20.060410640   0   0   0 # oby
    284      1   3  2.100000    11.418212610     5.402000000    21.629635100   0   0   0 # sty
    285      1   3  2.100000    13.873210561     9.003333333    21.466187362   0   0   0 # sty
    286      1   3  2.100000    10.049163741     7.202666667    23.674001823   0   0   0 # sty
    287      1   2 -1.050000    13.386586238     6.031330000    18.783230640   0   0   0 # oby
    288      1   2 -1.050000    12.878963125     9.632663333    16.932546843   0   0   0 # oby
    289      1   2 -1.050000    11.530035499     7.831996667    18.297503253   0   0   0 # oby
    290      1   2 -1.050000    15.333961075    10.174670000    17.658913253   0   0   0 # oby
    291      1   2 -1.050000    13.985033450     6.573336667    16.293956843   0   0   0 # oby
    292      1   2 -1.050000    15.841584189     8.374003333    15.808229456   0   0   0 # oby
    293      1   3  2.100000    13.873210561     5.402000000    17.377453917   0   0   0 # sty
    294      1   3  2.100000    16.328208511     9.003333333    17.214006179   0   0   0 # sty
    295      1   3  2.100000    12.504161691     7.202666667    19.421820640   0   0   0 # sty
    296      1   2 -1.050000    15.841584189     6.031330000    14.531049456   0   0   0 # oby
    297      1   2 -1.050000    15.333961075     9.632663333    12.680365660   0   0   0 # oby
    298      1   2 -1.050000    13.985033450     7.831996667    14.045322070   0   0   0 # oby
    299      1   2 -1.050000    17.788959026    10.174670000    13.406732070   0   0   0 # oby
    300      1   2 -1.050000    16.440031401     6.573336667    12.041775660   0   0   0 # oby
    301      1   2 -1.050000    18.296582139     8.374003333    11.556048273   0   0   0 # oby
    302      1   3  2.100000    16.328208511     5.402000000    13.125272734   0   0   0 # sty
    303      1   3  2.100000    18.783206462     9.003333333    12.961824995   0   0   0 # sty
    304      1   3  2.100000    14.959159642     7.202666667    15.169639456   0   0   0 # sty
    305      1   2 -1.050000    18.296582139     6.031330000    10.278868273   0   0   0 # oby
    306      1   2 -1.050000    17.788959026     9.632663333     8.428184477   0   0   0 # oby
    307      1   2 -1.050000    16.440031401     7.831996667     9.793140887   0   0   0 # oby
    308      1   2 -1.050000    20.243956977    10.174670000     9.154550887   0   0   0 # oby
    309      1   2 -1.050000    18.895029351     6.573336667     7.789594477   0   0   0 # oby
    310      1   2 -1.050000    20.751580090     8.374003333     7.303867090   0   0   0 # oby
    311      1   3  2.100000    18.783206462     5.402000000     8.873091551   0   0   0 # sty
    312      1   3  2.100000    21.238204413     9.003333333     8.709643812   0   0   0 # sty
    313      1   3  2.100000    17.414157593     7.202666667    10.917458273   0   0   0 # sty
    314      1   2 -1.050000    20.751580090     6.031330000     6.026687090   0   0   0 # oby
    315      1   2 -1.050000    20.243956977     9.632663333     4.176003294   0   0   0 # oby
    316      1   2 -1.050000    18.895029351     7.831996667     5.540959703   0   0   0 # oby
    317      1   2 -1.050000    22.698954928    10.174670000     4.902369703   0   0   0 # oby
    318      1   2 -1.050000    21.350027302     6.573336667     3.537413294   0   0   0 # oby
    319      1   2 -1.050000    23.206578041     8.374003333     3.051685907   0   0   0 # oby
    320      1   3  2.100000    21.238204413     5.402000000     4.620910368   0   0   0 # sty
    321      1   3  2.100000    23.693202364     9.003333333     4.457462629   0   0   0 # sty
    322      1   3  2.100000    19.869155543     7.202666667     6.665277090   0   0   0 # sty
    323      1   1 -0.950000     3.566594435     6.031330000    27.287593006   0   0   0 # ohy
    324      1   2 -1.050000     3.058971322     9.632663333    25.436909209   0   0   0 # oby
    325      1   1 -0.950000     1.710043696     7.831996667    26.801865619   0   0   0 # ohy
    326      1   2 -1.050000     5.513969272    10.174670000    26.163275619   0   0   0 # oby
    327      1   2 -1.050000     4.165041647     6.573336667    24.798319209   0   0   0 # oby
    328      1   2 -1.050000     6.021592386     8.374003333    24.312591823   0   0   0 # oby
    329      1   3  2.100000     4.053218758     5.402000000    25.881816284   0   0   0 # sty
    330      1   3  2.100000     6.508216708     9.003333333    25.718368545   0   0   0 # sty
    331      1   3  2.100000    17.414157593     7.202666667     2.413095907   0   0   0 # sty
    332      1   2 -1.050000     6.021592386     6.031330000    23.035411823   0   0   0 # oby
    333      1   2 -1.050000     5.513969272     9.632663333    21.184728026   0   0   0 # oby
    334      1   2 -1.050000     4.165041647     7.831996667    22.549684436   0   0   0 # oby
    335      1   2 -1.050000     7.968967223    10.174670000    21.911094436   0   0   0 # oby
    336      1   2 -1.050000     6.620039598     6.573336667    20.546138026   0   0   0 # oby
    337      1   2 -1.050000     8.476590337     8.374003333    20.060410640   0   0   0 # oby
    338      1   3  2.100000     6.508216708     5.402000000    21.629635100   0   0   0 # sty
    339      1   3  2.100000     8.963214659     9.003333333    21.466187362   0   0   0 # sty
    340      1   3  2.100000     5.139167839     7.202666667    23.674001823   0   0   0 # sty
    341      1   2 -1.050000     8.476590337     6.031330000    18.783230640   0   0   0 # oby
    342      1   2 -1.050000     7.968967223     9.632663333    16.932546843   0   0   0 # oby
    343      1   2 -1.050000     6.620039598     7.831996667    18.297503253   0   0   0 # oby
    344      1   2 -1.050000    10.423965174    10.174670000    17.658913253   0   0   0 # oby
    345      1   2 -1.050000     9.075037548     6.573336667    16.293956843   0   0   0 # oby
    346      1   2 -1.050000    10.931588287     8.374003333    15.808229456   0   0   0 # oby
    347      1   3  2.100000     8.963214659     5.402000000    17.377453917   0   0   0 # sty
    348      1   3  2.100000    11.418212610     9.003333333    17.214006179   0   0   0 # sty
    349      1   3  2.100000     7.594165790     7.202666667    19.421820640   0   0   0 # sty
    350      1   2 -1.050000    10.931588287     6.031330000    14.531049456   0   0   0 # oby
    351      1   2 -1.050000    10.423965174     9.632663333    12.680365660   0   0   0 # oby
    352      1   2 -1.050000     9.075037548     7.831996667    14.045322070   0   0   0 # oby
    353      1   2 -1.050000    12.878963125    10.174670000    13.406732070   0   0   0 # oby
    354      1   2 -1.050000    11.530035499     6.573336667    12.041775660   0   0   0 # oby
    355      1   2 -1.050000    13.386586238     8.374003333    11.556048273   0   0   0 # oby
    356      1   3  2.100000    11.418212610     5.402000000    13.125272734   0   0   0 # sty
    357      1   3  2.100000    13.873210561     9.003333333    12.961824995   0   0   0 # sty
    358      1   3  2.100000    10.049163741     7.202666667    15.169639456   0   0   0 # sty
    359      1   2 -1.050000    13.386586238     6.031330000    10.278868273   0   0   0 # oby
    360      1   2 -1.050000    12.878963125     9.632663333     8.428184477   0   0   0 # oby
    361      1   2 -1.050000    11.530035499     7.831996667     9.793140887   0   0   0 # oby
    362      1   2 -1.050000    15.333961075    10.174670000     9.154550887   0   0   0 # oby
    363      1   2 -1.050000    13.985033450     6.573336667     7.789594477   0   0   0 # oby
    364      1   2 -1.050000    15.841584189     8.374003333     7.303867090   0   0   0 # oby
    365      1   3  2.100000    13.873210561     5.402000000     8.873091551   0   0   0 # sty
    366      1   3  2.100000    16.328208511     9.003333333     8.709643812   0   0   0 # sty
    367      1   3  2.100000    12.504161691     7.202666667    10.917458273   0   0   0 # sty
    368      1   2 -1.050000    15.841584189     6.031330000     6.026687090   0   0   0 # oby
    369      1   2 -1.050000    15.333961075     9.632663333     4.176003294   0   0   0 # oby
    370      1   2 -1.050000    13.985033450     7.831996667     5.540959703   0   0   0 # oby
    371      1   2 -1.050000    17.788959026    10.174670000     4.902369703   0   0   0 # oby
    372      1   2 -1.050000    16.440031401     6.573336667     3.537413294   0   0   0 # oby
    373      1   2 -1.050000    18.296582139     8.374003333     3.051685907   0   0   0 # oby
    374      1   3  2.100000    16.328208511     5.402000000     4.620910368   0   0   0 # sty
    375      1   3  2.100000    18.783206462     9.003333333     4.457462629   0   0   0 # sty
    376      1   3  2.100000    14.959159642     7.202666667     6.665277090   0   0   0 # sty
    377      1   1 -0.950000    23.206578041     6.031330000    27.287593006   0   0   0 # ohy
    378      1   2 -1.050000    22.698954928     9.632663333    25.436909209   0   0   0 # oby
    379      1   1 -0.950000    21.350027302     7.831996667    26.801865619   0   0   0 # ohy
    380      1   2 -1.050000     0.603973371    10.174670000    26.163275619   0   0   0 # oby
    381      1   2 -1.050000    23.805025253     6.573336667    24.798319209   0   0   0 # oby
    382      1   2 -1.050000     1.111596484     8.374003333    24.312591823   0   0   0 # oby
    383      1   3  2.100000    23.693202364     5.402000000    25.881816284   0   0   0 # sty
    384      1   3  2.100000     1.598220807     9.003333333    25.718368545   0   0   0 # sty
    385      1   3  2.100000    12.504161691     7.202666667     2.413095907   0   0   0 # sty
    386      1   2 -1.050000     1.111596484     6.031330000    23.035411823   0   0   0 # oby
    387      1   2 -1.050000     0.603973371     9.632663333    21.184728026   0   0   0 # oby
    388      1   2 -1.050000    23.805025253     7.831996667    22.549684436   0   0   0 # oby
    389      1   2 -1.050000     3.058971322    10.174670000    21.911094436   0   0   0 # oby
    390      1   2 -1.050000     1.710043696     6.573336667    20.546138026   0   0   0 # oby
    391      1   2 -1.050000     3.566594435     8.374003333    20.060410640   0   0   0 # oby
    392      1   3  2.100000     1.598220807     5.402000000    21.629635100   0   0   0 # sty
    393      1   3  2.100000     4.053218758     9.003333333    21.466187362   0   0   0 # sty
    394      1   3  2.100000     0.229151445     7.202666667    23.674001823   1   0   0 # sty
    395      1   2 -1.050000     3.566594435     6.031330000    18.783230640   0   0   0 # oby
    396      1   2 -1.050000     3.058971322     9.632663333    16.932546843   0   0   0 # oby
    397      1   2 -1.050000     1.710043696     7.831996667    18.297503253   0   0   0 # oby
    398      1   2 -1.050000     5.513969272    10.174670000    17.658913253   0   0   0 # oby
    399      1   2 -1.050000     4.165041647     6.573336667    16.293956843   0   0   0 # oby
    400      1   2 -1.050000     6.021592386     8.374003333    15.808229456   0   0   0 # oby
    401      1   3  2.100000     4.053218758     5.402000000    17.377453917   0   0   0 # sty
    402      1   3  2.100000     6.508216708     9.003333333    17.214006179   0   0   0 # sty
    403      1   3  2.100000     2.684169888     7.202666667    19.421820640   0   0   0 # sty
    404      1   2 -1.050000     6.021592386     6.031330000    14.531049456   0   0   0 # oby
    405      1   2 -1.050000     5.513969272     9.632663333    12.680365660   0   0   0 # oby
    406      1   2 -1.050000     4.165041647     7.831996667    14.045322070   0   0   0 # oby
    407      1   2 -1.050000     7.968967223    10.174670000    13.406732070   0   0   0 # oby
    408      1   2 -1.050000     6.620039598     6.573336667    12.041775660   0   0   0 # oby
    409      1   2 -1.050000     8.476590337     8.374003333    11.556048273   0   0   0 # oby
    410      1   3  2.100000     6.508216708     5.402000000    13.125272734   0   0   0 # sty
    411      1   3  2.100000     8.963214659     9.003333333    12.961824995   0   0   0 # sty
    412      1   3  2.100000     5.139167839     7.202666667    15.169639456   0   0   0 # sty
    413      1   2 -1.050000     8.476590337     6.031330000    10.278868273   0   0   0 # oby
    414      1   2 -1.050000     7.968967223     9.632663333     8.428184477   0   0   0 # oby
    415      1   2 -1.050000     6.620039598     7.831996667     9.793140887   0   0   0 # oby
    416      1   2 -1.050000    10.423965174    10.174670000     9.154550887   0   0   0 # oby
    417      1   2 -1.050000     9.075037548     6.573336667     7.789594477   0   0   0 # oby
    418      1   2 -1.050000    10.931588287     8.374003333     7.303867090   0   0   0 # oby
    419      1   3  2.100000     8.963214659     5.402000000     8.873091551   0   0   0 # sty
    420      1   3  2.100000    11.418212610     9.003333333     8.709643812   0   0   0 # sty
    421      1   3  2.100000     7.594165790     7.202666667    10.917458273   0   0   0 # sty
    422      1   2 -1.050000    10.931588287     6.031330000     6.026687090   0   0   0 # oby
    423      1   2 -1.050000    10.423965174     9.632663333     4.176003294   0   0   0 # oby
    424      1   2 -1.050000     9.075037548     7.831996667     5.540959703   0   0   0 # oby
    425      1   2 -1.050000    12.878963125    10.174670000     4.902369703   0   0   0 # oby
    426      1   2 -1.050000    11.530035499     6.573336667     3.537413294   0   0   0 # oby
    427      1   2 -1.050000    13.386586238     8.374003333     3.051685907   0   0   0 # oby
    428      1   3  2.100000    11.418212610     5.402000000     4.620910368   0   0   0 # sty
    429      1   3  2.100000    13.873210561     9.003333333     4.457462629   0   0   0 # sty
    430      1   3  2.100000    10.049163741     7.202666667     6.665277090   0   0   0 # sty
    431      1   1 -0.950000    18.296582139     6.031330000    27.287593006   0   0   0 # ohy
    432      1   2 -1.050000    17.788959026     9.632663333    25.436909209   0   0   0 # oby
    433      1   1 -0.950000    16.440031401     7.831996667    26.801865619   0   0   0 # ohy
    434      1   2 -1.050000    20.243956977    10.174670000    26.163275619   0   0   0 # oby
    435      1   2 -1.050000    18.895029351     6.573336667    24.798319209   0   0   0 # oby
    436      1   2 -1.050000    20.751580090     8.374003333    24.312591823   0   0   0 # oby
    437      1   3  2.100000    18.783206462     5.402000000    25.881816284   0   0   0 # sty
    438      1   3  2.100000    21.238204413     9.003333333    25.718368545   0   0   0 # sty
    439      1   3  2.100000     7.594165790     7.202666667     2.413095907   0   0   0 # sty
    440      1   2 -1.050000    20.751580090     6.031330000    23.035411823   0   0   0 # oby
    441      1   2 -1.050000    20.243956977     9.632663333    21.184728026   0   0   0 # oby
    442      1   2 -1.050000    18.895029351     7.831996667    22.549684436   0   0   0 # oby
    443      1   2 -1.050000    22.698954928    10.174670000    21.911094436   0   0   0 # oby
    444      1   2 -1.050000    21.350027302     6.573336667    20.546138026   0   0   0 # oby
    445      1   2 -1.050000    23.206578041     8.374003333    20.060410640   0   0   0 # oby
    446      1   3  2.100000    21.238204413     5.402000000    21.629635100   0   0   0 # sty
    447      1   3  2.100000    23.693202364     9.003333333    21.466187362   0   0   0 # sty
    448      1   3  2.100000    19.869155543     7.202666667    23.674001823   0   0   0 # sty
    449      1   2 -1.050000    23.206578041     6.031330000    18.783230640   0   0   0 # oby
    450      1   2 -1.050000    22.698954928     9.632663333    16.932546843   0   0   0 # oby
    451      1   2 -1.050000    21.350027302     7.831996667    18.297503253   0   0   0 # oby
    452      1   2 -1.050000     0.603973371    10.174670000    17.658913253   0   0   0 # oby
    453      1   2 -1.050000    23.805025253     6.573336667    16.293956843   0   0   0 # oby
    454      1   2 -1.050000     1.111596484     8.374003333    15.808229456   0   0   0 # oby
    455      1   3  2.100000    23.693202364     5.402000000    17.377453917   0   0   0 # sty
    456      1   3  2.100000     1.598220807     9.003333333    17.214006179   0   0   0 # sty
    457      1   3  2.100000    22.324153494     7.202666667    19.421820640   0   0   0 # sty
    458      1   2 -1.050000     1.111596484     6.031330000    14.531049456   0   0   0 # oby
    459      1   2 -1.050000     0.603973371     9.632663333    12.680365660   0   0   0 # oby
    460      1   2 -1.050000    23.805025253     7.831996667    14.045322070   0   0   0 # oby
    461      1   2 -1.050000     3.058971322    10.174670000    13.406732070   0   0   0 # oby
    462      1   2 -1.050000     1.710043696     6.573336667    12.041775660   0   0   0 # oby
    463      1   2 -1.050000     3.566594435     8.374003333    11.556048273   0   0   0 # oby
    464      1   3  2.100000     1.598220807     5.402000000    13.125272734   0   0   0 # sty
    465      1   3  2.100000     4.053218758     9.003333333    12.961824995   0   0   0 # sty
    466      1   3  2.100000     0.229151445     7.202666667    15.169639456   1   0   0 # sty
    467      1   2 -1.050000     3.566594435     6.031330000    10.278868273   0   0   0 # oby
    468      1   2 -1.050000     3.058971322     9.632663333     8.428184477   0   0   0 # oby
    469      1   2 -1.050000     1.710043696     7.831996667     9.793140887   0   0   0 # oby
    470      1   2 -1.050000     5.513969272    10.174670000     9.154550887   0   0   0 # oby
    471      1   2 -1.050000     4.165041647     6.573336667     7.789594477   0   0   0 # oby
    472      1   2 -1.050000     6.021592386     8.374003333     7.303867090   0   0   0 # oby
    473      1   3  2.100000     4.053218758     5.402000000     8.873091551   0   0   0 # sty
    474      1   3  2.100000     6.508216708     9.003333333     8.709643812   0   0   0 # sty
    475      1   3  2.100000     2.684169888     7.202666667    10.917458273   0   0   0 # sty
    476      1   2 -1.050000     6.021592386     6.031330000     6.026687090   0   0   0 # oby
    477      1   2 -1.050000     5.513969272     9.632663333     4.176003294   0   0   0 # oby
    478      1   2 -1.050000     4.165041647     7.831996667     5.540959703   0   0   0 # oby
    479      1   2 -1.050000     7.968967223    10.174670000     4.902369703   0   0   0 # oby
    480      1   2 -1.050000     6.620039598     6.573336667     3.537413294   0   0   0 # oby
    481      1   2 -1.050000     8.476590337     8.374003333     3.051685907   0   0   0 # oby
    482      1   3  2.100000     6.508216708     5.402000000     4.620910368   0   0   0 # sty
    483      1   3  2.100000     8.963214659     9.003333333     4.457462629   0   0   0 # sty
    484      1   3  2.100000     5.139167839     7.202666667     6.665277090   0   0   0 # sty
    485      1   1 -0.950000    13.386586238     6.031330000    27.287593006   0   0   0 # ohy
    486      1   2 -1.050000    12.878963125     9.632663333    25.436909209   0   0   0 # oby
    487      1   1 -0.950000    11.530035499     7.831996667    26.801865619   0   0   0 # ohy
    488      1   2 -1.050000    15.333961075    10.174670000    26.163275619   0   0   0 # oby
    489      1   2 -1.050000    13.985033450     6.573336667    24.798319209   0   0   0 # oby
    490      1   2 -1.050000    15.841584189     8.374003333    24.312591823   0   0   0 # oby
    491      1   3  2.100000    13.873210561     5.402000000    25.881816284   0   0   0 # sty
    492      1   3  2.100000    16.328208511     9.003333333    25.718368545   0   0   0 # sty
    493      1   3  2.100000     2.684169888     7.202666667     2.413095907   0   0   0 # sty
    494      1   2 -1.050000    15.841584189     6.031330000    23.035411823   0   0   0 # oby
    495      1   2 -1.050000    15.333961075     9.632663333    21.184728026   0   0   0 # oby
    496      1   2 -1.050000    13.985033450     7.831996667    22.549684436   0   0   0 # oby
    497      1   2 -1.050000    17.788959026    10.174670000    21.911094436   0   0   0 # oby
    498      1   2 -1.050000    16.440031401     6.573336667    20.546138026   0   0   0 # oby
    499      1   2 -1.050000    18.296582139     8.374003333    20.060410640   0   0   0 # oby
    500      1   3  2.100000    16.328208511     5.402000000    21.629635100   0   0   0 # sty
    501      1   3  2.100000    18.783206462     9.003333333    21.466187362   0   0   0 # sty
    502      1   3  2.100000    14.959159642     7.202666667    23.674001823   0   0   0 # sty
    503      1   2 -1.050000    18.296582139     6.031330000    18.783230640   0   0   0 # oby
    504      1   2 -1.050000    17.788959026     9.632663333    16.932546843   0   0   0 # oby
    505      1   2 -1.050000    16.440031401     7.831996667    18.297503253   0   0   0 # oby
    506      1   2 -1.050000    20.243956977    10.174670000    17.658913253   0   0   0 # oby
    507      1   2 -1.050000    18.895029351     6.573336667    16.293956843   0   0   0 # oby
    508      1   2 -1.050000    20.751580090     8.374003333    15.808229456   0   0   0 # oby
    509      1   3  2.100000    18.783206462     5.402000000    17.377453917   0   0   0 # sty
    510      1   3  2.100000    21.238204413     9.003333333    17.214006179   0   0   0 # sty
    511      1   3  2.100000    17.414157593     7.202666667    19.421820640   0   0   0 # sty
    512      1   2 -1.050000    20.751580090     6.031330000    14.531049456   0   0   0 # oby
    513      1   2 -1.050000    20.243956977     9.632663333    12.680365660   0   0   0 # oby
    514      1   2 -1.050000    18.895029351     7.831996667    14.045322070   0   0   0 # oby
    515      1   2 -1.050000    22.698954928    10.174670000    13.406732070   0   0   0 # oby
    516      1   2 -1.050000    21.350027302     6.573336667    12.041775660   0   0   0 # oby
    517      1   2 -1.050000    23.206578041     8.374003333    11.556048273   0   0   0 # oby
    518      1   3  2.100000    21.238204413     5.402000000    13.125272734   0   0   0 # sty
    519      1   3  2.100000    23.693202364     9.003333333    12.961824995   0   0   0 # sty
    520      1   3  2.100000    19.869155543     7.202666667    15.169639456   0   0   0 # sty
    521      1   2 -1.050000    23.206578041     6.031330000    10.278868273   0   0   0 # oby
    522      1   2 -1.050000    22.698954928     9.632663333     8.428184477   0   0   0 # oby
    523      1   2 -1.050000    21.350027302     7.831996667     9.793140887   0   0   0 # oby
    524      1   2 -1.050000     0.603973371    10.174670000     9.154550887   0   0   0 # oby
    525      1   2 -1.050000    23.805025253     6.573336667     7.789594477   0   0   0 # oby
    526      1   2 -1.050000     1.111596484     8.374003333     7.303867090   0   0   0 # oby
    527      1   3  2.100000    23.693202364     5.402000000     8.873091551   0   0   0 # sty
    528      1   3  2.100000     1.598220807     9.003333333     8.709643812   0   0   0 # sty
    529      1   3  2.100000    22.324153494     7.202666667    10.917458273   0   0   0 # sty
    530      1   2 -1.050000     1.111596484     6.031330000     6.026687090   0   0   0 # oby
    531      1   2 -1.050000     0.603973371     9.632663333     4.176003294   0   0   0 # oby
    532      1   2 -1.050000    23.805025253     7.831996667     5.540959703   0   0   0 # oby
    533      1   2 -1.050000     3.058971322    10.174670000     4.902369703   0   0   0 # oby
    534      1   2 -1.050000     1.710043696     6.573336667     3.537413294   0   0   0 # oby
    535      1   2 -1.050000     3.566594435     8.374003333     3.051685907   0   0   0 # oby
    536      1   3  2.100000     1.598220807     5.402000000     4.620910368   0   0   0 # sty
    537      1   3  2.100000     4.053218758     9.003333333     4.457462629   0   0   0 # sty
    538      1   3  2.100000     0.229151445     7.202666667     6.665277090   1   0   0 # sty
    539      1   1 -0.950000     8.476590337    11.433330000    27.287593006   0   0   0 # ohy
    540      1   2 -1.050000     7.968967223    15.034663333    25.436909209   0   0   0 # oby
    541      1   1 -0.950000     6.620039598    13.233996667    26.801865619   0   0   0 # ohy
    542      1   2 -1.165000    10.423965174    15.576670000    26.163275619   0   0   0 # oby
    543      1   2 -1.050000     9.075037548    11.975336667    24.798319209   0   0   0 # oby
    544      1   2 -1.165000    10.931588287    13.776003333    24.312591823   0   0   0 # oby
    545      1   3  2.100000     8.963214659    10.804000000    25.881816284   0   0   0 # sty
    546      1   3  1.985000    11.418212610    14.405333333    25.718368545   0   0   0 # sty
    547      1   3  2.100000    22.324153494    12.604666667     2.413095907   0   0   0 # sty
    548      1   2 -1.050000    10.931588287    11.433330000    23.035411823   0   0   0 # oby
    549      1   2 -1.050000    10.423965174    15.034663333    21.184728026   0   0   0 # oby
    550      1   2 -1.050000     9.075037548    13.233996667    22.549684436   0   0   0 # oby
    551      1   2 -1.050000    12.878963125    15.576670000    21.911094436   0   0   0 # oby
    552      1   2 -1.050000    11.530035499    11.975336667    20.546138026   0   0   0 # oby
    553      1   2 -1.050000    13.386586238    13.776003333    20.060410640   0   0   0 # oby
    554      1   3  2.100000    11.418212610    10.804000000    21.629635100   0   0   0 # sty
    555      1   3  2.100000    13.873210561    14.405333333    21.466187362   0   0   0 # sty
    556      1   3  2.100000    10.049163741    12.604666667    23.674001823   0   0   0 # sty
    557      1   2 -1.050000    13.386586238    11.433330000    18.783230640   0   0   0 # oby
    558      1   2 -1.050000    12.878963125    15.034663333    16.932546843   0   0   0 # oby
    559      1   2 -1.050000    11.530035499    13.233996667    18.297503253   0   0   0 # oby
    560      1   2 -1.050000    15.333961075    15.576670000    17.658913253   0   0   0 # oby
    561      1   2 -1.050000    13.985033450    11.975336667    16.293956843   0   0   0 # oby
    562      1   2 -1.050000    15.841584189    13.776003333    15.808229456   0   0   0 # oby
    563      1   3  2.100000    13.873210561    10.804000000    17.377453917   0   0   0 # sty
    564      1   3  2.100000    16.328208511    14.405333333    17.214006179   0   0   0 # sty
    565      1   3  2.100000    12.504161691    12.604666667    19.421820640   0   0   0 # sty
    566      1   2 -1.050000    15.841584189    11.433330000    14.531049456   0   0   0 # oby
    567      1   2 -1.050000    15.333961075    15.034663333    12.680365660   0   0   0 # oby
    568      1   2 -1.050000    13.985033450    13.233996667    14.045322070   0   0   0 # oby
    569      1   2 -1.050000    17.788959026    15.576670000    13.406732070   0   0   0 # oby
    570      1   2 -1.050000    16.440031401    11.975336667    12.041775660   0   0   0 # oby
    571      1   2 -1.050000    18.296582139    13.776003333    11.556048273   0   0   0 # oby
    572      1   3  2.100000    16.328208511    10.804000000    13.125272734   0   0   0 # sty
    573      1   3  2.100000    18.783206462    14.405333333    12.961824995   0   0   0 # sty
    574      1   3  2.100000    14.959159642    12.604666667    15.169639456   0   0   0 # sty
    575      1   2 -1.050000    18.296582139    11.433330000    10.278868273   0   0   0 # oby
    576      1   2 -1.050000    17.788959026    15.034663333     8.428184477   0   0   0 # oby
    577      1   2 -1.050000    16.440031401    13.233996667     9.793140887   0   0   0 # oby
    578      1   2 -1.050000    20.243956977    15.576670000     9.154550887   0   0   0 # oby
    579      1   2 -1.050000    18.895029351    11.975336667     7.789594477   0   0   0 # oby
    580      1   2 -1.050000    20.751580090    13.776003333     7.303867090   0   0   0 # oby
    581      1   3  2.100000    18.783206462    10.804000000     8.873091551   0   0   0 # sty
    582      1   3  2.100000    21.238204413    14.405333333     8.709643812   0   0   0 # sty
    583      1   3  2.100000    17.414157593    12.604666667    10.917458273   0   0   0 # sty
    584      1   2 -1.050000    20.751580090    11.433330000     6.026687090   0   0   0 # oby
    585      1   2 -1.050000    20.243956977    15.034663333     4.176003294   0   0   0 # oby
    586      1   2 -1.050000    18.895029351    13.233996667     5.540959703   0   0   0 # oby
    587      1   2 -1.050000    22.698954928    15.576670000     4.902369703   0   0   0 # oby
    588      1   2 -1.050000    21.350027302    11.975336667     3.537413294   0   0   0 # oby
    589      1   2 -1.050000    23.206578041    13.776003333     3.051685907   0   0   0 # oby
    590      1   3  2.100000    21.238204413    10.804000000     4.620910368   0   0   0 # sty
    591      1   3  2.100000    23.693202364    14.405333333     4.457462629   0   0   0 # sty
    592      1   3  2.100000    19.869155543    12.604666667     6.665277090   0   0   0 # sty
    593      1   1 -0.950000     3.566594435    11.433330000    27.287593006   0   0   0 # ohy
    594      1   2 -1.050000     3.058971322    15.034663333    25.436909209   0   0   0 # oby
    595      1   1 -0.950000     1.710043696    13.233996667    26.801865619   0   0   0 # ohy
    596      1   2 -1.050000     5.513969272    15.576670000    26.163275619   0   0   0 # oby
    597      1   2 -1.050000     4.165041647    11.975336667    24.798319209   0   0   0 # oby
    598      1   2 -1.050000     6.021592386    13.776003333    24.312591823   0   0   0 # oby
    599      1   3  2.100000     4.053218758    10.804000000    25.881816284   0   0   0 # sty
    600      1   3  2.100000     6.508216708    14.405333333    25.718368545   0   0   0 # sty
    601      1   3  2.100000    17.414157593    12.604666667     2.413095907   0   0   0 # sty
    602      1   2 -1.050000     6.021592386    11.433330000    23.035411823   0   0   0 # oby
    603      1   2 -1.050000     5.513969272    15.034663333    21.184728026   0   0   0 # oby
    604      1   2 -1.050000     4.165041647    13.233996667    22.549684436   0   0   0 # oby
    605      1   2 -1.050000     7.968967223    15.576670000    21.911094436   0   0   0 # oby
    606      1   2 -1.050000     6.620039598    11.975336667    20.546138026   0   0   0 # oby
    607      1   2 -1.050000     8.476590337    13.776003333    20.060410640   0   0   0 # oby
    608      1   3  2.100000     6.508216708    10.804000000    21.629635100   0   0   0 # sty
    609      1   3  2.100000     8.963214659    14.405333333    21.466187362   0   0   0 # sty
    610      1   3  2.100000     5.139167839    12.604666667    23.674001823   0   0   0 # sty
    611      1   2 -1.050000     8.476590337    11.433330000    18.783230640   0   0   0 # oby
    612      1   2 -1.050000     7.968967223    15.034663333    16.932546843   0   0   0 # oby
    613      1   2 -1.050000     6.620039598    13.233996667    18.297503253   0   0   0 # oby
    614      1   2 -1.050000    10.423965174    15.576670000    17.658913253   0   0   0 # oby
    615      1   2 -1.050000     9.075037548    11.975336667    16.293956843   0   0   0 # oby
    616      1   2 -1.050000    10.931588287    13.776003333    15.808229456   0   0   0 # oby
    617      1   3  2.100000     8.963214659    10.804000000    17.377453917   0   0   0 # sty
    618      1   3  2.100000    11.418212610    14.405333333    17.214006179   0   0   0 # sty
    619      1   3  2.100000     7.594165790    12.604666667    19.421820640   0   0   0 # sty
    620      1   2 -1.050000    10.931588287    11.433330000    14.531049456   0   0   0 # oby
    621      1   2 -1.050000    10.423965174    15.034663333    12.680365660   0   0   0 # oby
    622      1   2 -1.050000     9.075037548    13.233996667    14.045322070   0   0   0 # oby
    623      1   2 -1.050000    12.878963125    15.576670000    13.406732070   0   0   0 # oby
    624      1   2 -1.050000    11.530035499    11.975336667    12.041775660   0   0   0 # oby
    625      1   2 -1.050000    13.386586238    13.776003333    11.556048273   0   0   0 # oby
    626      1   3  2.100000    11.418212610    10.804000000    13.125272734   0   0   0 # sty
    627      1   3  2.100000    13.873210561    14.405333333    12.961824995   0   0   0 # sty
    628      1   3  2.100000    10.049163741    12.604666667    15.169639456   0   0   0 # sty
    629      1   2 -1.050000    13.386586238    11.433330000    10.278868273   0   0   0 # oby
    630      1   2 -1.050000    12.878963125    15.034663333     8.428184477   0   0   0 # oby
    631      1   2 -1.050000    11.530035499    13.233996667     9.793140887   0   0   0 # oby
    632      1   2 -1.050000    15.333961075    15.576670000     9.154550887   0   0   0 # oby
    633      1   2 -1.050000    13.985033450    11.975336667     7.789594477   0   0   0 # oby
    634      1   2 -1.050000    15.841584189    13.776003333     7.303867090   0   0   0 # oby
    635      1   3  2.100000    13.873210561    10.804000000     8.873091551   0   0   0 # sty
    636      1   3  2.100000    16.328208511    14.405333333     8.709643812   0   0   0 # sty
    637      1   3  2.100000    12.504161691    12.604666667    10.917458273   0   0   0 # sty
    638      1   2 -1.050000    15.841584189    11.433330000     6.026687090   0   0   0 # oby
    639      1   2 -1.050000    15.333961075    15.034663333     4.176003294   0   0   0 # oby
    640      1   2 -1.050000    13.985033450    13.233996667     5.540959703   0   0   0 # oby
    641      1   2 -1.050000    17.788959026    15.576670000     4.902369703   0   0   0 # oby
    642      1   2 -1.050000    16.440031401    11.975336667     3.537413294   0   0   0 # oby
    643      1   2 -1.050000    18.296582139    13.776003333     3.051685907   0   0   0 # oby
    644      1   3  2.100000    16.328208511    10.804000000     4.620910368   0   0   0 # sty
    645      1   3  2.100000    18.783206462    14.405333333     4.457462629   0   0   0 # sty
    646      1   3  2.100000    14.959159642    12.604666667     6.665277090   0   0   0 # sty
    647      1   1 -0.950000    23.206578041    11.433330000    27.287593006   0   0   0 # ohy
    648      1   2 -1.165000    22.698954928    15.034663333    25.436909209   0   0   0 # oby
    649      1   2 -1.050000     0.603973371    15.576670000    26.163275619   0   0   0 # oby
    650      1   2 -1.050000    23.805025253    11.975336667    24.798319209   0   0   0 # oby
    651      1   2 -1.050000     1.111596484    13.776003333    24.312591823   0   0   0 # oby
    652      1   3  2.100000    23.693202364    10.804000000    25.881816284   0   0   0 # sty
    653      1   3  2.100000     1.598220807    14.405333333    25.718368545   0   0   0 # sty
    654      1   3  2.100000    12.504161691    12.604666667     2.413095907   0   0   0 # sty
    655      1   2 -1.050000     1.111596484    11.433330000    23.035411823   0   0   0 # oby
    656      1   2 -1.050000     0.603973371    15.034663333    21.184728026   0   0   0 # oby
    657      1   2 -1.050000    23.805025253    13.233996667    22.549684436   0   0   0 # oby
    658      1   2 -1.050000     3.058971322    15.576670000    21.911094436   0   0   0 # oby
    659      1   2 -1.050000     1.710043696    11.975336667    20.546138026   0   0   0 # oby
    660      1   2 -1.050000     3.566594435    13.776003333    20.060410640   0   0   0 # oby
    661      1   3  2.100000     1.598220807    10.804000000    21.629635100   0   0   0 # sty
    662      1   3  2.100000     4.053218758    14.405333333    21.466187362   0   0   0 # sty
    663      1   3  2.100000     0.229151445    12.604666667    23.674001823   1   0   0 # sty
    664      1   2 -1.050000     3.566594435    11.433330000    18.783230640   0   0   0 # oby
    665      1   2 -1.050000     3.058971322    15.034663333    16.932546843   0   0   0 # oby
    666      1   2 -1.050000     1.710043696    13.233996667    18.297503253   0   0   0 # oby
    667      1   2 -1.050000     5.513969272    15.576670000    17.658913253   0   0   0 # oby
    668      1   2 -1.050000     4.165041647    11.975336667    16.293956843   0   0   0 # oby
    669      1   2 -1.050000     6.021592386    13.776003333    15.808229456   0   0   0 # oby
    670      1   3  2.100000     4.053218758    10.804000000    17.377453917   0   0   0 # sty
    671      1   3  2.100000     6.508216708    14.405333333    17.214006179   0   0   0 # sty
    672      1   3  2.100000     2.684169888    12.604666667    19.421820640   0   0   0 # sty
    673      1   2 -1.050000     6.021592386    11.433330000    14.531049456   0   0   0 # oby
    674      1   2 -1.050000     5.513969272    15.034663333    12.680365660   0   0   0 # oby
    675      1   2 -1.050000     4.165041647    13.233996667    14.045322070   0   0   0 # oby
    676      1   2 -1.050000     7.968967223    15.576670000    13.406732070   0   0   0 # oby
    677      1   2 -1.050000     6.620039598    11.975336667    12.041775660   0   0   0 # oby
    678      1   2 -1.050000     8.476590337    13.776003333    11.556048273   0   0   0 # oby
    679      1   3  2.100000     6.508216708    10.804000000    13.125272734   0   0   0 # sty
    680      1   3  2.100000     8.963214659    14.405333333    12.961824995   0   0   0 # sty
    681      1   3  2.100000     5.139167839    12.604666667    15.169639456   0   0   0 # sty
    682      1   2 -1.050000     8.476590337    11.433330000    10.278868273   0   0   0 # oby
    683      1   2 -1.050000     7.968967223    15.034663333     8.428184477   0   0   0 # oby
    684      1   2 -1.050000     6.620039598    13.233996667     9.793140887   0   0   0 # oby
    685      1   2 -1.050000    10.423965174    15.576670000     9.154550887   0   0   0 # oby
    686      1   2 -1.050000     9.075037548    11.975336667     7.789594477   0   0   0 # oby
    687      1   2 -1.050000    10.931588287    13.776003333     7.303867090   0   0   0 # oby
    688      1   3  2.100000     8.963214659    10.804000000     8.873091551   0   0   0 # sty
    689      1   3  2.100000    11.418212610    14.405333333     8.709643812   0   0   0 # sty
    690      1   3  2.100000     7.594165790    12.604666667    10.917458273   0   0   0 # sty
    691      1   2 -1.050000    10.931588287    11.433330000     6.026687090   0   0   0 # oby
    692      1   2 -1.050000    10.423965174    15.034663333     4.176003294   0   0   0 # oby
    693      1   2 -1.050000     9.075037548    13.233996667     5.540959703   0   0   0 # oby
    694      1   2 -1.050000    12.878963125    15.576670000     4.902369703   0   0   0 # oby
    695      1   2 -1.050000    11.530035499    11.975336667     3.537413294   0   0   0 # oby
    696      1   2 -1.050000    13.386586238    13.776003333     3.051685907   0   0   0 # oby
    697      1   3  2.100000    11.418212610    10.804000000     4.620910368   0   0   0 # sty
    698      1   3  2.100000    13.873210561    14.405333333     4.457462629   0   0   0 # sty
    699      1   3  2.100000    10.049163741    12.604666667     6.665277090   0   0   0 # sty
    700      1   1 -0.950000    18.296582139    11.433330000    27.287593006   0   0   0 # ohy
    701      1   2 -1.050000    17.788959026    15.034663333    25.436909209   0   0   0 # oby
    702      1   1 -0.950000    16.440031401    13.233996667    26.801865619   0   0   0 # ohy
    703      1   2 -1.165000    20.243956977    15.576670000    26.163275619   0   0   0 # oby
    704      1   2 -1.050000    18.895029351    11.975336667    24.798319209   0   0   0 # oby
    705      1   2 -1.165000    20.751580090    13.776003333    24.312591823   0   0   0 # oby
    706      1   3  2.100000    18.783206462    10.804000000    25.881816284   0   0   0 # sty
    707      1   3  1.985000    21.238204413    14.405333333    25.718368545   0   0   0 # sty
    708      1   3  2.100000     7.594165790    12.604666667     2.413095907   0   0   0 # sty
    709      1   2 -1.050000    20.751580090    11.433330000    23.035411823   0   0   0 # oby
    710      1   2 -1.050000    20.243956977    15.034663333    21.184728026   0   0   0 # oby
    711      1   2 -1.050000    18.895029351    13.233996667    22.549684436   0   0   0 # oby
    712      1   2 -1.050000    22.698954928    15.576670000    21.911094436   0   0   0 # oby
    713      1   2 -1.050000    21.350027302    11.975336667    20.546138026   0   0   0 # oby
    714      1   2 -1.050000    23.206578041    13.776003333    20.060410640   0   0   0 # oby
    715      1   3  2.100000    21.238204413    10.804000000    21.629635100   0   0   0 # sty
    716      1   3  2.100000    23.693202364    14.405333333    21.466187362   0   0   0 # sty
    717      1   3  2.100000    19.869155543    12.604666667    23.674001823   0   0   0 # sty
    718      1   2 -1.050000    23.206578041    11.433330000    18.783230640   0   0   0 # oby
    719      1   2 -1.050000    22.698954928    15.034663333    16.932546843   0   0   0 # oby
    720      1   2 -1.050000    21.350027302    13.233996667    18.297503253   0   0   0 # oby
    721      1   2 -1.050000     0.603973371    15.576670000    17.658913253   0   0   0 # oby
    722      1   2 -1.050000    23.805025253    11.975336667    16.293956843   0   0   0 # oby
    723      1   2 -1.050000     1.111596484    13.776003333    15.808229456   0   0   0 # oby
    724      1   3  2.100000    23.693202364    10.804000000    17.377453917   0   0   0 # sty
    725      1   3  2.100000     1.598220807    14.405333333    17.214006179   0   0   0 # sty
    726      1   3  2.100000    22.324153494    12.604666667    19.421820640   0   0   0 # sty
    727      1   2 -1.050000     1.111596484    11.433330000    14.531049456   0   0   0 # oby
    728      1   2 -1.050000     0.603973371    15.034663333    12.680365660   0   0   0 # oby
    729      1   2 -1.050000    23.805025253    13.233996667    14.045322070   0   0   0 # oby
    730      1   2 -1.050000     3.058971322    15.576670000    13.406732070   0   0   0 # oby
    731      1   2 -1.050000     1.710043696    11.975336667    12.041775660   0   0   0 # oby
    732      1   2 -1.050000     3.566594435    13.776003333    11.556048273   0   0   0 # oby
    733      1   3  2.100000     1.598220807    10.804000000    13.125272734   0   0   0 # sty
    734      1   3  2.100000     4.053218758    14.405333333    12.961824995   0   0   0 # sty
    735      1   3  2.100000     0.229151445    12.604666667    15.169639456   1   0   0 # sty
    736      1   2 -1.050000     3.566594435    11.433330000    10.278868273   0   0   0 # oby
    737      1   2 -1.050000     3.058971322    15.034663333     8.428184477   0   0   0 # oby
    738      1   2 -1.050000     1.710043696    13.233996667     9.793140887   0   0   0 # oby
    739      1   2 -1.050000     5.513969272    15.576670000     9.154550887   0   0   0 # oby
    740      1   2 -1.050000     4.165041647    11.975336667     7.789594477   0   0   0 # oby
    741      1   2 -1.050000     6.021592386    13.776003333     7.303867090   0   0   0 # oby
    742      1   3  2.100000     4.053218758    10.804000000     8.873091551   0   0   0 # sty
    743      1   3  2.100000     6.508216708    14.405333333     8.709643812   0   0   0 # sty
    744      1   3  2.100000     2.684169888    12.604666667    10.917458273   0   0   0 # sty
    745      1   2 -1.050000     6.021592386    11.433330000     6.026687090   0   0   0 # oby
    746      1   2 -1.050000     5.513969272    15.034663333     4.176003294   0   0   0 # oby
    747      1   2 -1.050000     4.165041647    13.233996667     5.540959703   0   0   0 # oby
    748      1   2 -1.050000     7.968967223    15.576670000     4.902369703   0   0   0 # oby
    749      1   2 -1.050000     6.620039598    11.975336667     3.537413294   0   0   0 # oby
    750      1   2 -1.050000     8.476590337    13.776003333     3.051685907   0   0   0 # oby
    751      1   3  2.100000     6.508216708    10.804000000     4.620910368   0   0   0 # sty
    752      1   3  2.100000     8.963214659    14.405333333     4.457462629   0   0   0 # sty
    753      1   3  2.100000     5.139167839    12.604666667     6.665277090   0   0   0 # sty
    754      1   1 -0.950000    13.386586238    11.433330000    27.287593006   0   0   0 # ohy
    755      1   2 -1.165000    12.878963125    15.034663333    25.436909209   0   0   0 # oby
    756      1   2 -1.050000    15.333961075    15.576670000    26.163275619   0   0   0 # oby
    757      1   2 -1.050000    13.985033450    11.975336667    24.798319209   0   0   0 # oby
    758      1   2 -1.050000    15.841584189    13.776003333    24.312591823   0   0   0 # oby
    759      1   3  2.100000    13.873210561    10.804000000    25.881816284   0   0   0 # sty
    760      1   3  2.100000    16.328208511    14.405333333    25.718368545   0   0   0 # sty
    761      1   3  2.100000     2.684169888    12.604666667     2.413095907   0   0   0 # sty
    762      1   2 -1.050000    15.841584189    11.433330000    23.035411823   0   0   0 # oby
    763      1   2 -1.050000    15.333961075    15.034663333    21.184728026   0   0   0 # oby
    764      1   2 -1.050000    13.985033450    13.233996667    22.549684436   0   0   0 # oby
    765      1   2 -1.050000    17.788959026    15.576670000    21.911094436   0   0   0 # oby
    766      1   2 -1.050000    16.440031401    11.975336667    20.546138026   0   0   0 # oby
    767      1   2 -1.050000    18.296582139    13.776003333    20.060410640   0   0   0 # oby
    768      1   3  2.100000    16.328208511    10.804000000    21.629635100   0   0   0 # sty
    769      1   3  2.100000    18.783206462    14.405333333    21.466187362   0   0   0 # sty
    770      1   3  2.100000    14.959159642    12.604666667    23.674001823   0   0   0 # sty
    771      1   2 -1.050000    18.296582139    11.433330000    18.783230640   0   0   0 # oby
    772      1   2 -1.050000    17.788959026    15.034663333    16.932546843   0   0   0 # oby
    773      1   2 -1.050000    16.440031401    13.233996667    18.297503253   0   0   0 # oby
    774      1   2 -1.050000    20.243956977    15.576670000    17.658913253   0   0   0 # oby
    775      1   2 -1.050000    18.895029351    11.975336667    16.293956843   0   0   0 # oby
    776      1   2 -1.050000    20.751580090    13.776003333    15.808229456   0   0   0 # oby
    777      1   3  2.100000    18.783206462    10.804000000    17.377453917   0   0   0 # sty
    778      1   3  2.100000    21.238204413    14.405333333    17.214006179   0   0   0 # sty
    779      1   3  2.100000    17.414157593    12.604666667    19.421820640   0   0   0 # sty
    780      1   2 -1.050000    20.751580090    11.433330000    14.531049456   0   0   0 # oby
    781      1   2 -1.050000    20.243956977    15.034663333    12.680365660   0   0   0 # oby
    782      1   2 -1.050000    18.895029351    13.233996667    14.045322070   0   0   0 # oby
    783      1   2 -1.050000    22.698954928    15.576670000    13.406732070   0   0   0 # oby
    784      1   2 -1.050000    21.350027302    11.975336667    12.041775660   0   0   0 # oby
    785      1   2 -1.050000    23.206578041    13.776003333    11.556048273   0   0   0 # oby
    786      1   3  2.100000    21.238204413    10.804000000    13.125272734   0   0   0 # sty
    787      1   3  2.100000    23.693202364    14.405333333    12.961824995   0   0   0 # sty
    788      1   3  2.100000    19.869155543    12.604666667    15.169639456   0   0   0 # sty
    789      1   2 -1.050000    23.206578041    11.433330000    10.278868273   0   0   0 # oby
    790      1   2 -1.050000    22.698954928    15.034663333     8.428184477   0   0   0 # oby
    791      1   2 -1.050000    21.350027302    13.233996667     9.793140887   0   0   0 # oby
    792      1   2 -1.050000     0.603973371    15.576670000     9.154550887   0   0   0 # oby
    793      1   2 -1.050000    23.805025253    11.975336667     7.789594477   0   0   0 # oby
    794      1   2 -1.050000     1.111596484    13.776003333     7.303867090   0   0   0 # oby
    795      1   3  2.100000    23.693202364    10.804000000     8.873091551   0   0   0 # sty
    796      1   3  2.100000     1.598220807    14.405333333     8.709643812   0   0   0 # sty
    797      1   3  2.100000    22.324153494    12.604666667    10.917458273   0   0   0 # sty
    798      1   2 -1.050000     1.111596484    11.433330000     6.026687090   0   0   0 # oby
    799      1   2 -1.050000     0.603973371    15.034663333     4.176003294   0   0   0 # oby
    800      1   2 -1.050000    23.805025253    13.233996667     5.540959703   0   0   0 # oby
    801      1   2 -1.050000     3.058971322    15.576670000     4.902369703   0   0   0 # oby
    802      1   2 -1.050000     1.710043696    11.975336667     3.537413294   0   0   0 # oby
    803      1   2 -1.050000     3.566594435    13.776003333     3.051685907   0   0   0 # oby
    804      1   3  2.100000     1.598220807    10.804000000     4.620910368   0   0   0 # sty
    805      1   3  2.100000     4.053218758    14.405333333     4.457462629   0   0   0 # sty
    806      1   3  2.100000     0.229151445    12.604666667     6.665277090   1   0   0 # sty
    807      1   1 -0.950000     8.476590337    16.835330000    27.287593006   0   0   0 # ohy
    808      1   2 -1.050000     7.968967223    20.436663333    25.436909209   0   0   0 # oby
    809      1   1 -0.950000     6.620039598    18.635996667    26.801865619   0   0   0 # ohy
    810      1   2 -1.050000    10.423965174    20.978670000    26.163275619   0   0   0 # oby
    811      1   2 -1.050000     9.075037548    17.377336667    24.798319209   0   0   0 # oby
    812      1   2 -1.050000    10.931588287    19.178003333    24.312591823   0   0   0 # oby
    813      1   3  2.100000     8.963214659    16.206000000    25.881816284   0   0   0 # sty
    814      1   3  2.100000    11.418212610    19.807333333    25.718368545   0   0   0 # sty
    815      1   3  2.100000    22.324153494    18.006666667     2.413095907   0   0   0 # sty
    816      1   2 -1.050000    10.931588287    16.835330000    23.035411823   0   0   0 # oby
    817      1   2 -1.050000    10.423965174    20.436663333    21.184728026   0   0   0 # oby
    818      1   2 -1.050000     9.075037548    18.635996667    22.549684436   0   0   0 # oby
    819      1   2 -1.050000    12.878963125    20.978670000    21.911094436   0   0   0 # oby
    820      1   2 -1.050000    11.530035499    17.377336667    20.546138026   0   0   0 # oby
    821      1   2 -1.050000    13.386586238    19.178003333    20.060410640   0   0   0 # oby
    822      1   3  2.100000    11.418212610    16.206000000    21.629635100   0   0   0 # sty
    823      1   3  2.100000    13.873210561    19.807333333    21.466187362   0   0   0 # sty
    824      1   3  2.100000    10.049163741    18.006666667    23.674001823   0   0   0 # sty
    825      1   2 -1.050000    13.386586238    16.835330000    18.783230640   0   0   0 # oby
    826      1   2 -1.050000    12.878963125    20.436663333    16.932546843   0   0   0 # oby
    827      1   2 -1.050000    11.530035499    18.635996667    18.297503253   0   0   0 # oby
    828      1   2 -1.050000    15.333961075    20.978670000    17.658913253   0   0   0 # oby
    829      1   2 -1.050000    13.985033450    17.377336667    16.293956843   0   0   0 # oby
    830      1   2 -1.050000    15.841584189    19.178003333    15.808229456   0   0   0 # oby
    831      1   3  2.100000    13.873210561    16.206000000    17.377453917   0   0   0 # sty
    832      1   3  2.100000    16.328208511    19.807333333    17.214006179   0   0   0 # sty
    833      1   3  2.100000    12.504161691    18.006666667    19.421820640   0   0   0 # sty
    834      1   2 -1.050000    15.841584189    16.835330000    14.531049456   0   0   0 # oby
    835      1   2 -1.050000    15.333961075    20.436663333    12.680365660   0   0   0 # oby
    836      1   2 -1.050000    13.985033450    18.635996667    14.045322070   0   0   0 # oby
    837      1   2 -1.050000    17.788959026    20.978670000    13.406732070   0   0   0 # oby
    838      1   2 -1.050000    16.440031401    17.377336667    12.041775660   0   0   0 # oby
    839      1   2 -1.050000    18.296582139    19.178003333    11.556048273   0   0   0 # oby
    840      1   3  2.100000    16.328208511    16.206000000    13.125272734   0   0   0 # sty
    841      1   3  2.100000    18.783206462    19.807333333    12.961824995   0   0   0 # sty
    842      1   3  2.100000    14.959159642    18.006666667    15.169639456   0   0   0 # sty
    843      1   2 -1.050000    18.296582139    16.835330000    10.278868273   0   0   0 # oby
    844      1   2 -1.050000    17.788959026    20.436663333     8.428184477   0   0   0 # oby
    845      1   2 -1.050000    16.440031401    18.635996667     9.793140887   0   0   0 # oby
    846      1   2 -1.050000    20.243956977    20.978670000     9.154550887   0   0   0 # oby
    847      1   2 -1.050000    18.895029351    17.377336667     7.789594477   0   0   0 # oby
    848      1   2 -1.050000    20.751580090    19.178003333     7.303867090   0   0   0 # oby
    849      1   3  2.100000    18.783206462    16.206000000     8.873091551   0   0   0 # sty
    850      1   3  2.100000    21.238204413    19.807333333     8.709643812   0   0   0 # sty
    851      1   3  2.100000    17.414157593    18.006666667    10.917458273   0   0   0 # sty
    852      1   2 -1.050000    20.751580090    16.835330000     6.026687090   0   0   0 # oby
    853      1   2 -1.050000    20.243956977    20.436663333     4.176003294   0   0   0 # oby
    854      1   2 -1.050000    18.895029351    18.635996667     5.540959703   0   0   0 # oby
    855      1   2 -1.050000    22.698954928    20.978670000     4.902369703   0   0   0 # oby
    856      1   2 -1.050000    21.350027302    17.377336667     3.537413294   0   0   0 # oby
    857      1   2 -1.050000    23.206578041    19.178003333     3.051685907   0   0   0 # oby
    858      1   3  2.100000    21.238204413    16.206000000     4.620910368   0   0   0 # sty
    859      1   3  2.100000    23.693202364    19.807333333     4.457462629   0   0   0 # sty
    860      1   3  2.100000    19.869155543    18.006666667     6.665277090   0   0   0 # sty
    861      1   1 -0.950000     3.566594435    16.835330000    27.287593006   0   0   0 # ohy
    862      1   2 -1.050000     3.058971322    20.436663333    25.436909209   0   0   0 # oby
    863      1   1 -0.950000     1.710043696    18.635996667    26.801865619   0   0   0 # ohy
    864      1   2 -1.050000     5.513969272    20.978670000    26.163275619   0   0   0 # oby
    865      1   2 -1.050000     4.165041647    17.377336667    24.798319209   0   0   0 # oby
    866      1   2 -1.050000     6.021592386    19.178003333    24.312591823   0   0   0 # oby
    867      1   3  2.100000     4.053218758    16.206000000    25.881816284   0   0   0 # sty
    868      1   3  2.100000     6.508216708    19.807333333    25.718368545   0   0   0 # sty
    869      1   3  2.100000    17.414157593    18.006666667     2.413095907   0   0   0 # sty
    870      1   2 -1.050000     6.021592386    16.835330000    23.035411823   0   0   0 # oby
    871      1   2 -1.050000     5.513969272    20.436663333    21.184728026   0   0   0 # oby
    872      1   2 -1.050000     4.165041647    18.635996667    22.549684436   0   0   0 # oby
    873      1   2 -1.050000     7.968967223    20.978670000    21.911094436   0   0   0 # oby
    874      1   2 -1.050000     6.620039598    17.377336667    20.546138026   0   0   0 # oby
    875      1   2 -1.050000     8.476590337    19.178003333    20.060410640   0   0   0 # oby
    876      1   3  2.100000     6.508216708    16.206000000    21.629635100   0   0   0 # sty
    877      1   3  2.100000     8.963214659    19.807333333    21.466187362   0   0   0 # sty
    878      1   3  2.100000     5.139167839    18.006666667    23.674001823   0   0   0 # sty
    879      1   2 -1.050000     8.476590337    16.835330000    18.783230640   0   0   0 # oby
    880      1   2 -1.050000     7.968967223    20.436663333    16.932546843   0   0   0 # oby
    881      1   2 -1.050000     6.620039598    18.635996667    18.297503253   0   0   0 # oby
    882      1   2 -1.050000    10.423965174    20.978670000    17.658913253   0   0   0 # oby
    883      1   2 -1.050000     9.075037548    17.377336667    16.293956843   0   0   0 # oby
    884      1   2 -1.050000    10.931588287    19.178003333    15.808229456   0   0   0 # oby
    885      1   3  2.100000     8.963214659    16.206000000    17.377453917   0   0   0 # sty
    886      1   3  2.100000    11.418212610    19.807333333    17.214006179   0   0   0 # sty
    887      1   3  2.100000     7.594165790    18.006666667    19.421820640   0   0   0 # sty
    888      1   2 -1.050000    10.931588287    16.835330000    14.531049456   0   0   0 # oby
    889      1   2 -1.050000    10.423965174    20.436663333    12.680365660   0   0   0 # oby
    890      1   2 -1.050000     9.075037548    18.635996667    14.045322070   0   0   0 # oby
    891      1   2 -1.050000    12.878963125    20.978670000    13.406732070   0   0   0 # oby
    892      1   2 -1.050000    11.530035499    17.377336667    12.041775660   0   0   0 # oby
    893      1   2 -1.050000    13.386586238    19.178003333    11.556048273   0   0   0 # oby
    894      1   3  2.100000    11.418212610    16.206000000    13.125272734   0   0   0 # sty
    895      1   3  2.100000    13.873210561    19.807333333    12.961824995   0   0   0 # sty
    896      1   3  2.100000    10.049163741    18.006666667    15.169639456   0   0   0 # sty
    897      1   2 -1.050000    13.386586238    16.835330000    10.278868273   0   0   0 # oby
    898      1   2 -1.050000    12.878963125    20.436663333     8.428184477   0   0   0 # oby
    899      1   2 -1.050000    11.530035499    18.635996667     9.793140887   0   0   0 # oby
    900      1   2 -1.050000    15.333961075    20.978670000     9.154550887   0   0   0 # oby
    901      1   2 -1.050000    13.985033450    17.377336667     7.789594477   0   0   0 # oby
    902      1   2 -1.050000    15.841584189    19.178003333     7.303867090   0   0   0 # oby
    903      1   3  2.100000    13.873210561    16.206000000     8.873091551   0   0   0 # sty
    904      1   3  2.100000    16.328208511    19.807333333     8.709643812   0   0   0 # sty
    905      1   3  2.100000    12.504161691    18.006666667    10.917458273   0   0   0 # sty
    906      1   2 -1.050000    15.841584189    16.835330000     6.026687090   0   0   0 # oby
    907      1   2 -1.050000    15.333961075    20.436663333     4.176003294   0   0   0 # oby
    908      1   2 -1.050000    13.985033450    18.635996667     5.540959703   0   0   0 # oby
    909      1   2 -1.050000    17.788959026    20.978670000     4.902369703   0   0   0 # oby
    910      1   2 -1.050000    16.440031401    17.377336667     3.537413294   0   0   0 # oby
    911      1   2 -1.050000    18.296582139    19.178003333     3.051685907   0   0   0 # oby
    912      1   3  2.100000    16.328208511    16.206000000     4.620910368   0   0   0 # sty
    913      1   3  2.100000    18.783206462    19.807333333     4.457462629   0   0   0 # sty
    914      1   3  2.100000    14.959159642    18.006666667     6.665277090   0   0   0 # sty
    915      1   1 -0.950000    23.206578041    16.835330000    27.287593006   0   0   0 # ohy
    916      1   2 -1.050000    22.698954928    20.436663333    25.436909209   0   0   0 # oby
    917      1   1 -0.950000    21.350027302    18.635996667    26.801865619   0   0   0 # ohy
    918      1   2 -1.050000     0.603973371    20.978670000    26.163275619   0   0   0 # oby
    919      1   2 -1.050000    23.805025253    17.377336667    24.798319209   0   0   0 # oby
    920      1   2 -1.050000     1.111596484    19.178003333    24.312591823   0   0   0 # oby
    921      1   3  2.100000    23.693202364    16.206000000    25.881816284   0   0   0 # sty
    922      1   3  2.100000     1.598220807    19.807333333    25.718368545   0   0   0 # sty
    923      1   3  2.100000    12.504161691    18.006666667     2.413095907   0   0   0 # sty
    924      1   2 -1.050000     1.111596484    16.835330000    23.035411823   0   0   0 # oby
    925      1   2 -1.050000     0.603973371    20.436663333    21.184728026   0   0   0 # oby
    926      1   2 -1.050000    23.805025253    18.635996667    22.549684436   0   0   0 # oby
    927      1   2 -1.050000     3.058971322    20.978670000    21.911094436   0   0   0 # oby
    928      1   2 -1.050000     1.710043696    17.377336667    20.546138026   0   0   0 # oby
    929      1   2 -1.050000     3.566594435    19.178003333    20.060410640   0   0   0 # oby
    930      1   3  2.100000     1.598220807    16.206000000    21.629635100   0   0   0 # sty
    931      1   3  2.100000     4.053218758    19.807333333    21.466187362   0   0   0 # sty
    932      1   3  2.100000     0.229151445    18.006666667    23.674001823   1   0   0 # sty
    933      1   2 -1.050000     3.566594435    16.835330000    18.783230640   0   0   0 # oby
    934      1   2 -1.050000     3.058971322    20.436663333    16.932546843   0   0   0 # oby
    935      1   2 -1.050000     1.710043696    18.635996667    18.297503253   0   0   0 # oby
    936      1   2 -1.050000     5.513969272    20.978670000    17.658913253   0   0   0 # oby
    937      1   2 -1.050000     4.165041647    17.377336667    16.293956843   0   0   0 # oby
    938      1   2 -1.050000     6.021592386    19.178003333    15.808229456   0   0   0 # oby
    939      1   3  2.100000     4.053218758    16.206000000    17.377453917   0   0   0 # sty
    940      1   3  2.100000     6.508216708    19.807333333    17.214006179   0   0   0 # sty
    941      1   3  2.100000     2.684169888    18.006666667    19.421820640   0   0   0 # sty
    942      1   2 -1.050000     6.021592386    16.835330000    14.531049456   0   0   0 # oby
    943      1   2 -1.050000     5.513969272    20.436663333    12.680365660   0   0   0 # oby
    944      1   2 -1.050000     4.165041647    18.635996667    14.045322070   0   0   0 # oby
    945      1   2 -1.050000     7.968967223    20.978670000    13.406732070   0   0   0 # oby
    946      1   2 -1.050000     6.620039598    17.377336667    12.041775660   0   0   0 # oby
    947      1   2 -1.050000     8.476590337    19.178003333    11.556048273   0   0   0 # oby
    948      1   3  2.100000     6.508216708    16.206000000    13.125272734   0   0   0 # sty
    949      1   3  2.100000     8.963214659    19.807333333    12.961824995   0   0   0 # sty
    950      1   3  2.100000     5.139167839    18.006666667    15.169639456   0   0   0 # sty
    951      1   2 -1.050000     8.476590337    16.835330000    10.278868273   0   0   0 # oby
    952      1   2 -1.050000     7.968967223    20.436663333     8.428184477   0   0   0 # oby
    953      1   2 -1.050000     6.620039598    18.635996667     9.793140887   0   0   0 # oby
    954      1   2 -1.050000    10.423965174    20.978670000     9.154550887   0   0   0 # oby
    955      1   2 -1.050000     9.075037548    17.377336667     7.789594477   0   0   0 # oby
    956      1   2 -1.050000    10.931588287    19.178003333     7.303867090   0   0   0 # oby
    957      1   3  2.100000     8.963214659    16.206000000     8.873091551   0   0   0 # sty
    958      1   3  2.100000    11.418212610    19.807333333     8.709643812   0   0   0 # sty
    959      1   3  2.100000     7.594165790    18.006666667    10.917458273   0   0   0 # sty
    960      1   2 -1.050000    10.931588287    16.835330000     6.026687090   0   0   0 # oby
    961      1   2 -1.050000    10.423965174    20.436663333     4.176003294   0   0   0 # oby
    962      1   2 -1.050000     9.075037548    18.635996667     5.540959703   0   0   0 # oby
    963      1   2 -1.050000    12.878963125    20.978670000     4.902369703   0   0   0 # oby
    964      1   2 -1.050000    11.530035499    17.377336667     3.537413294   0   0   0 # oby
    965      1   2 -1.050000    13.386586238    19.178003333     3.051685907   0   0   0 # oby
    966      1   3  2.100000    11.418212610    16.206000000     4.620910368   0   0   0 # sty
    967      1   3  2.100000    13.873210561    19.807333333     4.457462629   0   0   0 # sty
    968      1   3  2.100000    10.049163741    18.006666667     6.665277090   0   0   0 # sty
    969      1   1 -0.950000    18.296582139    16.835330000    27.287593006   0   0   0 # ohy
    970      1   2 -1.050000    17.788959026    20.436663333    25.436909209   0   0   0 # oby
    971      1   1 -0.950000    16.440031401    18.635996667    26.801865619   0   0   0 # ohy
    972      1   2 -1.050000    20.243956977    20.978670000    26.163275619   0   0   0 # oby
    973      1   2 -1.050000    18.895029351    17.377336667    24.798319209   0   0   0 # oby
    974      1   2 -1.050000    20.751580090    19.178003333    24.312591823   0   0   0 # oby
    975      1   3  2.100000    18.783206462    16.206000000    25.881816284   0   0   0 # sty
    976      1   3  2.100000    21.238204413    19.807333333    25.718368545   0   0   0 # sty
    977      1   3  2.100000     7.594165790    18.006666667     2.413095907   0   0   0 # sty
    978      1   2 -1.050000    20.751580090    16.835330000    23.035411823   0   0   0 # oby
    979      1   2 -1.050000    20.243956977    20.436663333    21.184728026   0   0   0 # oby
    980      1   2 -1.050000    18.895029351    18.635996667    22.549684436   0   0   0 # oby
    981      1   2 -1.050000    22.698954928    20.978670000    21.911094436   0   0   0 # oby
    982      1   2 -1.050000    21.350027302    17.377336667    20.546138026   0   0   0 # oby
    983      1   2 -1.050000    23.206578041    19.178003333    20.060410640   0   0   0 # oby
    984      1   3  2.100000    21.238204413    16.206000000    21.629635100   0   0   0 # sty
    985      1   3  2.100000    23.693202364    19.807333333    21.466187362   0   0   0 # sty
    986      1   3  2.100000    19.869155543    18.006666667    23.674001823   0   0   0 # sty
    987      1   2 -1.050000    23.206578041    16.835330000    18.783230640   0   0   0 # oby
    988      1   2 -1.050000    22.698954928    20.436663333    16.932546843   0   0   0 # oby
    989      1   2 -1.050000    21.350027302    18.635996667    18.297503253   0   0   0 # oby
    990      1   2 -1.050000     0.603973371    20.978670000    17.658913253   0   0   0 # oby
    991      1   2 -1.050000    23.805025253    17.377336667    16.293956843   0   0   0 # oby
    992      1   2 -1.050000     1.111596484    19.178003333    15.808229456   0   0   0 # oby
    993      1   3  2.100000    23.693202364    16.206000000    17.377453917   0   0   0 # sty
    994      1   3  2.100000     1.598220807    19.807333333    17.214006179   0   0   0 # sty
    995      1   3  2.100000    22.324153494    18.006666667    19.421820640   0   0   0 # sty
    996      1   2 -1.050000     1.111596484    16.835330000    14.531049456   0   0   0 # oby
    997      1   2 -1.050000     0.603973371    20.436663333    12.680365660   0   0   0 # oby
    998      1   2 -1.050000    23.805025253    18.635996667    14.045322070   0   0   0 # oby
    999      1   2 -1.050000     3.058971322    20.978670000    13.406732070   0   0   0 # oby
   1000      1   2 -1.050000     1.710043696    17.377336667    12.041775660   0   0   0 # oby
   1001      1   2 -1.050000     3.566594435    19.178003333    11.556048273   0   0   0 # oby
   1002      1   3  2.100000     1.598220807    16.206000000    13.125272734   0   0   0 # sty
   1003      1   3  2.100000     4.053218758    19.807333333    12.961824995   0   0   0 # sty
   1004      1   3  2.100000     0.229151445    18.006666667    15.169639456   1   0   0 # sty
   1005      1   2 -1.050000     3.566594435    16.835330000    10.278868273   0   0   0 # oby
   1006      1   2 -1.050000     3.058971322    20.436663333     8.428184477   0   0   0 # oby
   1007      1   2 -1.050000     1.710043696    18.635996667     9.793140887   0   0   0 # oby
   1008      1   2 -1.050000     5.513969272    20.978670000     9.154550887   0   0   0 # oby
   1009      1   2 -1.050000     4.165041647    17.377336667     7.789594477   0   0   0 # oby
   1010      1   2 -1.050000     6.021592386    19.178003333     7.303867090   0   0   0 # oby
   1011      1   3  2.100000     4.053218758    16.206000000     8.873091551   0   0   0 # sty
   1012      1   3  2.100000     6.508216708    19.807333333     8.709643812   0   0   0 # sty
   1013      1   3  2.100000     2.684169888    18.006666667    10.917458273   0   0   0 # sty
   1014      1   2 -1.050000     6.021592386    16.835330000     6.026687090   0   0   0 # oby
   1015      1   2 -1.050000     5.513969272    20.436663333     4.176003294   0   0   0 # oby
   1016      1   2 -1.050000     4.165041647    18.635996667     5.540959703   0   0   0 # oby
   1017      1   2 -1.050000     7.968967223    20.978670000     4.902369703   0   0   0 # oby
   1018      1   2 -1.050000     6.620039598    17.377336667     3.537413294   0   0   0 # oby
   1019      1   2 -1.050000     8.476590337    19.178003333     3.051685907   0   0   0 # oby
   1020      1   3  2.100000     6.508216708    16.206000000     4.620910368   0   0   0 # sty
   1021      1   3  2.100000     8.963214659    19.807333333     4.457462629   0   0   0 # sty
   1022      1   3  2.100000     5.139167839    18.006666667     6.665277090   0   0   0 # sty
   1023      1   1 -0.950000    13.386586238    16.835330000    27.287593006   0   0   0 # ohy
   1024      1   2 -1.050000    12.878963125    20.436663333    25.436909209   0   0   0 # oby
   1025      1   1 -0.950000    11.530035499    18.635996667    26.801865619   0   0   0 # ohy
   1026      1   2 -1.050000    15.333961075    20.978670000    26.163275619   0   0   0 # oby
   1027      1   2 -1.050000    13.985033450    17.377336667    24.798319209   0   0   0 # oby
   1028      1   2 -1.050000    15.841584189    19.178003333    24.312591823   0   0   0 # oby
   1029      1   3  2.100000    13.873210561    16.206000000    25.881816284   0   0   0 # sty
   1030      1   3  2.100000    16.328208511    19.807333333    25.718368545   0   0   0 # sty
   1031      1   3  2.100000     2.684169888    18.006666667     2.413095907   0   0   0 # sty
   1032      1   2 -1.050000    15.841584189    16.835330000    23.035411823   0   0   0 # oby
   1033      1   2 -1.050000    15.333961075    20.436663333    21.184728026   0   0   0 # oby
   1034      1   2 -1.050000    13.985033450    18.635996667    22.549684436   0   0   0 # oby
   1035      1   2 -1.050000    17.788959026    20.978670000    21.911094436   0   0   0 # oby
   1036      1   2 -1.050000    16.440031401    17.377336667    20.546138026   0   0   0 # oby
   1037      1   2 -1.050000    18.296582139    19.178003333    20.060410640   0   0   0 # oby
   1038      1   3  2.100000    16.328208511    16.206000000    21.629635100   0   0   0 # sty
   1039      1   3  2.100000    18.783206462    19.807333333    21.466187362   0   0   0 # sty
   1040      1   3  2.100000    14.959159642    18.006666667    23.674001823   0   0   0 # sty
   1041      1   2 -1.050000    18.296582139    16.835330000    18.783230640   0   0   0 # oby
   1042      1   2 -1.050000    17.788959026    20.436663333    16.932546843   0   0   0 # oby
   1043      1   2 -1.050000    16.440031401    18.635996667    18.297503253   0   0   0 # oby
   1044      1   2 -1.050000    20.243956977    20.978670000    17.658913253   0   0   0 # oby
   1045      1   2 -1.050000    18.895029351    17.377336667    16.293956843   0   0   0 # oby
   1046      1   2 -1.050000    20.751580090    19.178003333    15.808229456   0   0   0 # oby
   1047      1   3  2.100000    18.783206462    16.206000000    17.377453917   0   0   0 # sty
   1048      1   3  2.100000    21.238204413    19.807333333    17.214006179   0   0   0 # sty
   1049      1   3  2.100000    17.414157593    18.006666667    19.421820640   0   0   0 # sty
   1050      1   2 -1.050000    20.751580090    16.835330000    14.531049456   0   0   0 # oby
   1051      1   2 -1.050000    20.243956977    20.436663333    12.680365660   0   0   0 # oby
   1052      1   2 -1.050000    18.895029351    18.635996667    14.045322070   0   0   0 # oby
   1053      1   2 -1.050000    22.698954928    20.978670000    13.406732070   0   0   0 # oby
   1054      1   2 -1.050000    21.350027302    17.377336667    12.041775660   0   0   0 # oby
   1055      1   2 -1.050000    23.206578041    19.178003333    11.556048273   0   0   0 # oby
   1056      1   3  2.100000    21.238204413    16.206000000    13.125272734   0   0   0 # sty
   1057      1   3  2.100000    23.693202364    19.807333333    12.961824995   0   0   0 # sty
   1058      1   3  2.100000    19.869155543    18.006666667    15.169639456   0   0   0 # sty
   1059      1   2 -1.050000    23.206578041    16.835330000    10.278868273   0   0   0 # oby
   1060      1   2 -1.050000    22.698954928    20.436663333     8.428184477   0   0   0 # oby
   1061      1   2 -1.050000    21.350027302    18.635996667     9.793140887   0   0   0 # oby
   1062      1   2 -1.050000     0.603973371    20.978670000     9.154550887   0   0   0 # oby
   1063      1   2 -1.050000    23.805025253    17.377336667     7.789594477   0   0   0 # oby
   1064      1   2 -1.050000     1.111596484    19.178003333     7.303867090   0   0   0 # oby
   1065      1   3  2.100000    23.693202364    16.206000000     8.873091551   0   0   0 # sty
   1066      1   3  2.100000     1.598220807    19.807333333     8.709643812   0   0   0 # sty
   1067      1   3  2.100000    22.324153494    18.006666667    10.917458273   0   0   0 # sty
   1068      1   2 -1.050000     1.111596484    16.835330000     6.026687090   0   0   0 # oby
   1069      1   2 -1.050000     0.603973371    20.436663333     4.176003294   0   0   0 # oby
   1070      1   2 -1.050000    23.805025253    18.635996667     5.540959703   0   0   0 # oby
   1071      1   2 -1.050000     3.058971322    20.978670000     4.902369703   0   0   0 # oby
   1072      1   2 -1.050000     1.710043696    17.377336667     3.537413294   0   0   0 # oby
   1073      1   2 -1.050000     3.566594435    19.178003333     3.051685907   0   0   0 # oby
   1074      1   3  2.100000     1.598220807    16.206000000     4.620910368   0   0   0 # sty
   1075      1   3  2.100000     4.053218758    19.807333333     4.457462629   0   0   0 # sty
   1076      1   3  2.100000     0.229151445    18.006666667     6.665277090   1   0   0 # sty
   1077      1   1 -0.950000     8.476590337    22.237330000    27.287593006   0   0   0 # ohy
   1078      1   2 -1.050000     7.968967223    25.838663333    25.436909209   0   0   0 # oby
   1079      1   1 -0.950000     6.620039598    24.037996667    26.801865619   0   0   0 # ohy
   1080      1   2 -1.050000    10.423965174    26.380670000    26.163275619   0   0   0 # oby
   1081      1   2 -1.050000     9.075037548    22.779336667    24.798319209   0   0   0 # oby
   1082      1   2 -1.050000    10.931588287    24.580003333    24.312591823   0   0   0 # oby
   1083      1   3  2.100000     8.963214659    21.608000000    25.881816284   0   0   0 # sty
   1084      1   3  2.100000    11.418212610    25.209333333    25.718368545   0   0   0 # sty
   1085      1   3  2.100000    22.324153494    23.408666667     2.413095907   0   0   0 # sty
   1086      1   2 -1.050000    10.931588287    22.237330000    23.035411823   0   0   0 # oby
   1087      1   2 -1.050000    10.423965174    25.838663333    21.184728026   0   0   0 # oby
   1088      1   2 -1.050000     9.075037548    24.037996667    22.549684436   0   0   0 # oby
   1089      1   2 -1.050000    12.878963125    26.380670000    21.911094436   0   0   0 # oby
   1090      1   2 -1.050000    11.530035499    22.779336667    20.546138026   0   0   0 # oby
   1091      1   2 -1.050000    13.386586238    24.580003333    20.060410640   0   0   0 # oby
   1092      1   3  2.100000    11.418212610    21.608000000    21.629635100   0   0   0 # sty
   1093      1   3  2.100000    13.873210561    25.209333333    21.466187362   0   0   0 # sty
   1094      1   3  2.100000    10.049163741    23.408666667    23.674001823   0   0   0 # sty
   1095      1   2 -1.050000    13.386586238    22.237330000    18.783230640   0   0   0 # oby
   1096      1   2 -1.050000    12.878963125    25.838663333    16.932546843   0   0   0 # oby
   1097      1   2 -1.050000    11.530035499    24.037996667    18.297503253   0   0   0 # oby
   1098      1   2 -1.050000    15.333961075    26.380670000    17.658913253   0   0   0 # oby
   1099      1   2 -1.050000    13.985033450    22.779336667    16.293956843   0   0   0 # oby
   1100      1   2 -1.050000    15.841584189    24.580003333    15.808229456   0   0   0 # oby
   1101      1   3  2.100000    13.873210561    21.608000000    17.377453917   0   0   0 # sty
   1102      1   3  2.100000    16.328208511    25.209333333    17.214006179   0   0   0 # sty
   1103      1   3  2.100000    12.504161691    23.408666667    19.421820640   0   0   0 # sty
   1104      1   2 -1.050000    15.841584189    22.237330000    14.531049456   0   0   0 # oby
   1105      1   2 -1.050000    15.333961075    25.838663333    12.680365660   0   0   0 # oby
   1106      1   2 -1.050000    13.985033450    24.037996667    14.045322070   0   0   0 # oby
   1107      1   2 -1.050000    17.788959026    26.380670000    13.406732070   0   0   0 # oby
   1108      1   2 -1.050000    16.440031401    22.779336667    12.041775660   0   0   0 # oby
   1109      1   2 -1.050000    18.296582139    24.580003333    11.556048273   0   0   0 # oby
   1110      1   3  2.100000    16.328208511    21.608000000    13.125272734   0   0   0 # sty
   1111      1   3  2.100000    18.783206462    25.209333333    12.961824995   0   0   0 # sty
   1112      1   3  2.100000    14.959159642    23.408666667    15.169639456   0   0   0 # sty
   1113      1   2 -1.050000    18.296582139    22.237330000    10.278868273   0   0   0 # oby
   1114      1   2 -1.050000    17.788959026    25.838663333     8.428184477   0   0   0 # oby
   1115      1   2 -1.050000    16.440031401    24.037996667     9.793140887   0   0   0 # oby
   1116      1   2 -1.050000    20.243956977    26.380670000     9.154550887   0   0   0 # oby
   1117      1   2 -1.050000    18.895029351    22.779336667     7.789594477   0   0   0 # oby
   1118      1   2 -1.050000    20.751580090    24.580003333     7.303867090   0   0   0 # oby
   1119      1   3  2.100000    18.783206462    21.608000000     8.873091551   0   0   0 # sty
   1120      1   3  2.100000    21.238204413    25.209333333     8.709643812   0   0   0 # sty
   1121      1   3  2.100000    17.414157593    23.408666667    10.917458273   0   0   0 # sty
   1122      1   2 -1.050000    20.751580090    22.237330000     6.026687090   0   0   0 # oby
   1123      1   2 -1.050000    20.243956977    25.838663333     4.176003294   0   0   0 # oby
   1124      1   2 -1.050000    18.895029351    24.037996667     5.540959703   0   0   0 # oby
   1125      1   2 -1.050000    22.698954928    26.380670000     4.902369703   0   0   0 # oby
   1126      1   2 -1.050000    21.350027302    22.779336667     3.537413294   0   0   0 # oby
   1127      1   2 -1.050000    23.206578041    24.580003333     3.051685907   0   0   0 # oby
   1128      1   3  2.100000    21.238204413    21.608000000     4.620910368   0   0   0 # sty
   1129      1   3  2.100000    23.693202364    25.209333333     4.457462629   0   0   0 # sty
   1130      1   3  2.100000    19.869155543    23.408666667     6.665277090   0   0   0 # sty
   1131      1   1 -0.950000     3.566594435    22.237330000    27.287593006   0   0   0 # ohy
   1132      1   2 -1.165000     3.058971322    25.838663333    25.436909209   0   0   0 # oby
   1133      1   2 -1.050000     5.513969272    26.380670000    26.163275619   0   0   0 # oby
   1134      1   2 -1.050000     4.165041647    22.779336667    24.798319209   0   0   0 # oby
   1135      1   2 -1.050000     6.021592386    24.580003333    24.312591823   0   0   0 # oby
   1136      1   3  2.100000     4.053218758    21.608000000    25.881816284   0   0   0 # sty
   1137      1   3  2.100000     6.508216708    25.209333333    25.718368545   0   0   0 # sty
   1138      1   3  2.100000    17.414157593    23.408666667     2.413095907   0   0   0 # sty
   1139      1   2 -1.050000     6.021592386    22.237330000    23.035411823   0   0   0 # oby
   1140      1   2 -1.050000     5.513969272    25.838663333    21.184728026   0   0   0 # oby
   1141      1   2 -1.050000     4.165041647    24.037996667    22.549684436   0   0   0 # oby
   1142      1   2 -1.050000     7.968967223    26.380670000    21.911094436   0   0   0 # oby
   1143      1   2 -1.050000     6.620039598    22.779336667    20.546138026   0   0   0 # oby
   1144      1   2 -1.050000     8.476590337    24.580003333    20.060410640   0   0   0 # oby
   1145      1   3  2.100000     6.508216708    21.608000000    21.629635100   0   0   0 # sty
   1146      1   3  2.100000     8.963214659    25.209333333    21.466187362   0   0   0 # sty
   1147      1   3  2.100000     5.139167839    23.408666667    23.674001823   0   0   0 # sty
   1148      1   2 -1.050000     8.476590337    22.237330000    18.783230640   0   0   0 # oby
   1149      1   2 -1.050000     7.968967223    25.838663333    16.932546843   0   0   0 # oby
   1150      1   2 -1.050000     6.620039598    24.037996667    18.297503253   0   0   0 # oby
   1151      1   2 -1.050000    10.423965174    26.380670000    17.658913253   0   0   0 # oby
   1152      1   2 -1.050000     9.075037548    22.779336667    16.293956843   0   0   0 # oby
   1153      1   2 -1.050000    10.931588287    24.580003333    15.808229456   0   0   0 # oby
   1154      1   3  2.100000     8.963214659    21.608000000    17.377453917   0   0   0 # sty
   1155      1   3  2.100000    11.418212610    25.209333333    17.214006179   0   0   0 # sty
   1156      1   3  2.100000     7.594165790    23.408666667    19.421820640   0   0   0 # sty
   1157      1   2 -1.050000    10.931588287    22.237330000    14.531049456   0   0   0 # oby
   1158      1   2 -1.050000    10.423965174    25.838663333    12.680365660   0   0   0 # oby
   1159      1   2 -1.050000     9.075037548    24.037996667    14.045322070   0   0   0 # oby
   1160      1   2 -1.050000    12.878963125    26.380670000    13.406732070   0   0   0 # oby
   1161      1   2 -1.050000    11.530035499    22.779336667    12.041775660   0   0   0 # oby
   1162      1   2 -1.050000    13.386586238    24.580003333    11.556048273   0   0   0 # oby
   1163      1   3  2.100000    11.418212610    21.608000000    13.125272734   0   0   0 # sty
   1164      1   3  2.100000    13.873210561    25.209333333    12.961824995   0   0   0 # sty
   1165      1   3  2.100000    10.049163741    23.408666667    15.169639456   0   0   0 # sty
   1166      1   2 -1.050000    13.386586238    22.237330000    10.278868273   0   0   0 # oby
   1167      1   2 -1.050000    12.878963125    25.838663333     8.428184477   0   0   0 # oby
   1168      1   2 -1.050000    11.530035499    24.037996667     9.793140887   0   0   0 # oby
   1169      1   2 -1.050000    15.333961075    26.380670000     9.154550887   0   0   0 # oby
   1170      1   2 -1.050000    13.985033450    22.779336667     7.789594477   0   0   0 # oby
   1171      1   2 -1.050000    15.841584189    24.580003333     7.303867090   0   0   0 # oby
   1172      1   3  2.100000    13.873210561    21.608000000     8.873091551   0   0   0 # sty
   1173      1   3  2.100000    16.328208511    25.209333333     8.709643812   0   0   0 # sty
   1174      1   3  2.100000    12.504161691    23.408666667    10.917458273   0   0   0 # sty
   1175      1   2 -1.050000    15.841584189    22.237330000     6.026687090   0   0   0 # oby
   1176      1   2 -1.050000    15.333961075    25.838663333     4.176003294   0   0   0 # oby
   1177      1   2 -1.050000    13.985033450    24.037996667     5.540959703   0   0   0 # oby
   1178      1   2 -1.050000    17.788959026    26.380670000     4.902369703   0   0   0 # oby
   1179      1   2 -1.050000    16.440031401    22.779336667     3.537413294   0   0   0 # oby
   1180      1   2 -1.050000    18.296582139    24.580003333     3.051685907   0   0   0 # oby
   1181      1   3  2.100000    16.328208511    21.608000000     4.620910368   0   0   0 # sty
   1182      1   3  2.100000    18.783206462    25.209333333     4.457462629   0   0   0 # sty
   1183      1   3  2.100000    14.959159642    23.408666667     6.665277090   0   0   0 # sty
   1184      1   1 -0.950000    23.206578041    22.237330000    27.287593006   0   0   0 # ohy
   1185      1   2 -1.050000    22.698954928    25.838663333    25.436909209   0   0   0 # oby
   1186      1   1 -0.950000    21.350027302    24.037996667    26.801865619   0   0   0 # ohy
   1187      1   2 -1.165000     0.603973371    26.380670000    26.163275619   0   0   0 # oby
   1188      1   2 -1.050000    23.805025253    22.779336667    24.798319209   0   0   0 # oby
   1189      1   2 -1.165000     1.111596484    24.580003333    24.312591823   0   0   0 # oby
   1190      1   3  2.100000    23.693202364    21.608000000    25.881816284   0   0   0 # sty
   1191      1   3  1.985000     1.598220807    25.209333333    25.718368545   0   0   0 # sty
   1192      1   3  2.100000    12.504161691    23.408666667     2.413095907   0   0   0 # sty
   1193      1   2 -1.050000     1.111596484    22.237330000    23.035411823   0   0   0 # oby
   1194      1   2 -1.050000     0.603973371    25.838663333    21.184728026   0   0   0 # oby
   1195      1   2 -1.050000    23.805025253    24.037996667    22.549684436   0   0   0 # oby
   1196      1   2 -1.050000     3.058971322    26.380670000    21.911094436   0   0   0 # oby
   1197      1   2 -1.050000     1.710043696    22.779336667    20.546138026   0   0   0 # oby
   1198      1   2 -1.050000     3.566594435    24.580003333    20.060410640   0   0   0 # oby
   1199      1   3  2.100000     1.598220807    21.608000000    21.629635100   0   0   0 # sty
   1200      1   3  2.100000     4.053218758    25.209333333    21.466187362   0   0   0 # sty
   1201      1   3  2.100000     0.229151445    23.408666667    23.674001823   1   0   0 # sty
   1202      1   2 -1.050000     3.566594435    22.237330000    18.783230640   0   0   0 # oby
   1203      1   2 -1.050000     3.058971322    25.838663333    16.932546843   0   0   0 # oby
   1204      1   2 -1.050000     1.710043696    24.037996667    18.297503253   0   0   0 # oby
   1205      1   2 -1.050000     5.513969272    26.380670000    17.658913253   0   0   0 # oby
   1206      1   2 -1.050000     4.165041647    22.779336667    16.293956843   0   0   0 # oby
   1207      1   2 -1.050000     6.021592386    24.580003333    15.808229456   0   0   0 # oby
   1208      1   3  2.100000     4.053218758    21.608000000    17.377453917   0   0   0 # sty
   1209      1   3  2.100000     6.508216708    25.209333333    17.214006179   0   0   0 # sty
   1210      1   3  2.100000     2.684169888    23.408666667    19.421820640   0   0   0 # sty
   1211      1   2 -1.050000     6.021592386    22.237330000    14.531049456   0   0   0 # oby
   1212      1   2 -1.050000     5.513969272    25.838663333    12.680365660   0   0   0 # oby
   1213      1   2 -1.050000     4.165041647    24.037996667    14.045322070   0   0   0 # oby
   1214      1   2 -1.050000     7.968967223    26.380670000    13.406732070   0   0   0 # oby
   1215      1   2 -1.050000     6.620039598    22.779336667    12.041775660   0   0   0 # oby
   1216      1   2 -1.050000     8.476590337    24.580003333    11.556048273   0   0   0 # oby
   1217      1   3  2.100000     6.508216708    21.608000000    13.125272734   0   0   0 # sty
   1218      1   3  2.100000     8.963214659    25.209333333    12.961824995   0   0   0 # sty
   1219      1   3  2.100000     5.139167839    23.408666667    15.169639456   0   0   0 # sty
   1220      1   2 -1.050000     8.476590337    22.237330000    10.278868273   0   0   0 # oby
   1221      1   2 -1.050000     7.968967223    25.838663333     8.428184477   0   0   0 # oby
   1222      1   2 -1.050000     6.620039598    24.037996667     9.793140887   0   0   0 # oby
   1223      1   2 -1.050000    10.423965174    26.380670000     9.154550887   0   0   0 # oby
   1224      1   2 -1.050000     9.075037548    22.779336667     7.789594477   0   0   0 # oby
   1225      1   2 -1.050000    10.931588287    24.580003333     7.303867090   0   0   0 # oby
   1226      1   3  2.100000     8.963214659    21.608000000     8.873091551   0   0   0 # sty
   1227      1   3  2.100000    11.418212610    25.209333333     8.709643812   0   0   0 # sty
   1228      1   3  2.100000     7.594165790    23.408666667    10.917458273   0   0   0 # sty
   1229      1   2 -1.050000    10.931588287    22.237330000     6.026687090   0   0   0 # oby
   1230      1   2 -1.050000    10.423965174    25.838663333     4.176003294   0   0   0 # oby
   1231      1   2 -1.050000     9.075037548    24.037996667     5.540959703   0   0   0 # oby
   1232      1   2 -1.050000    12.878963125    26.380670000     4.902369703   0   0   0 # oby
   1233      1   2 -1.050000    11.530035499    22.779336667     3.537413294   0   0   0 # oby
   1234      1   2 -1.050000    13.386586238    24.580003333     3.051685907   0   0   0 # oby
   1235      1   3  2.100000    11.418212610    21.608000000     4.620910368   0   0   0 # sty
   1236      1   3  2.100000    13.873210561    25.209333333     4.457462629   0   0   0 # sty
   1237      1   3  2.100000    10.049163741    23.408666667     6.665277090   0   0   0 # sty
   1238      1   1 -0.950000    18.296582139    22.237330000    27.287593006   0   0   0 # ohy
   1239      1   2 -1.165000    17.788959026    25.838663333    25.436909209   0   0   0 # oby
   1240      1   2 -1.050000    20.243956977    26.380670000    26.163275619   0   0   0 # oby
   1241      1   2 -1.050000    18.895029351    22.779336667    24.798319209   0   0   0 # oby
   1242      1   2 -1.050000    20.751580090    24.580003333    24.312591823   0   0   0 # oby
   1243      1   3  2.100000    18.783206462    21.608000000    25.881816284   0   0   0 # sty
   1244      1   3  2.100000    21.238204413    25.209333333    25.718368545   0   0   0 # sty
   1245      1   3  2.100000     7.594165790    23.408666667     2.413095907   0   0   0 # sty
   1246      1   2 -1.050000    20.751580090    22.237330000    23.035411823   0   0   0 # oby
   1247      1   2 -1.050000    20.243956977    25.838663333    21.184728026   0   0   0 # oby
   1248      1   2 -1.050000    18.895029351    24.037996667    22.549684436   0   0   0 # oby
   1249      1   2 -1.050000    22.698954928    26.380670000    21.911094436   0   0   0 # oby
   1250      1   2 -1.050000    21.350027302    22.779336667    20.546138026   0   0   0 # oby
   1251      1   2 -1.050000    23.206578041    24.580003333    20.060410640   0   0   0 # oby
   1252      1   3  2.100000    21.238204413    21.608000000    21.629635100   0   0   0 # sty
   1253      1   3  2.100000    23.693202364    25.209333333    21.466187362   0   0   0 # sty
   1254      1   3  2.100000    19.869155543    23.408666667    23.674001823   0   0   0 # sty
   1255      1   2 -1.050000    23.206578041    22.237330000    18.783230640   0   0   0 # oby
   1256      1   2 -1.050000    22.698954928    25.838663333    16.932546843   0   0   0 # oby
   1257      1   2 -1.050000    21.350027302    24.037996667    18.297503253   0   0   0 # oby
   1258      1   2 -1.050000     0.603973371    26.380670000    17.658913253   0   0   0 # oby
   1259      1   2 -1.050000    23.805025253    22.779336667    16.293956843   0   0   0 # oby
   1260      1   2 -1.050000     1.111596484    24.580003333    15.808229456   0   0   0 # oby
   1261      1   3  2.100000    23.693202364    21.608000000    17.377453917   0   0   0 # sty
   1262      1   3  2.100000     1.598220807    25.209333333    17.214006179   0   0   0 # sty
   1263      1   3  2.100000    22.324153494    23.408666667    19.421820640   0   0   0 # sty
   1264      1   2 -1.050000     1.111596484    22.237330000    14.531049456   0   0   0 # oby
   1265      1   2 -1.050000     0.603973371    25.838663333    12.680365660   0   0   0 # oby
   1266      1   2 -1.050000    23.805025253    24.037996667    14.045322070   0   0   0 # oby
   1267      1   2 -1.050000     3.058971322    26.380670000    13.406732070   0   0   0 # oby
   1268      1   2 -1.050000     1.710043696    22.779336667    12.041775660   0   0   0 # oby
   1269      1   2 -1.050000     3.566594435    24.580003333    11.556048273   0   0   0 # oby
   1270      1   3  2.100000     1.598220807    21.608000000    13.125272734   0   0   0 # sty
   1271      1   3  2.100000     4.053218758    25.209333333    12.961824995   0   0   0 # sty
   1272      1   3  2.100000     0.229151445    23.408666667    15.169639456   1   0   0 # sty
   1273      1   2 -1.050000     3.566594435    22.237330000    10.278868273   0   0   0 # oby
   1274      1   2 -1.050000     3.058971322    25.838663333     8.428184477   0   0   0 # oby
   1275      1   2 -1.050000     1.710043696    24.037996667     9.793140887   0   0   0 # oby
   1276      1   2 -1.050000     5.513969272    26.380670000     9.154550887   0   0   0 # oby
   1277      1   2 -1.050000     4.165041647    22.779336667     7.789594477   0   0   0 # oby
   1278      1   2 -1.050000     6.021592386    24.580003333     7.303867090   0   0   0 # oby
   1279      1   3  2.100000     4.053218758    21.608000000     8.873091551   0   0   0 # sty
   1280      1   3  2.100000     6.508216708    25.209333333     8.709643812   0   0   0 # sty
   1281      1   3  2.100000     2.684169888    23.408666667    10.917458273   0   0   0 # sty
   1282      1   2 -1.050000     6.021592386    22.237330000     6.026687090   0   0   0 # oby
   1283      1   2 -1.050000     5.513969272    25.838663333     4.176003294   0   0   0 # oby
   1284      1   2 -1.050000     4.165041647    24.037996667     5.540959703   0   0   0 # oby
   1285      1   2 -1.050000     7.968967223    26.380670000     4.902369703   0   0   0 # oby
   1286      1   2 -1.050000     6.620039598    22.779336667     3.537413294   0   0   0 # oby
   1287      1   2 -1.050000     8.476590337    24.580003333     3.051685907   0   0   0 # oby
   1288      1   3  2.100000     6.508216708    21.608000000     4.620910368   0   0   0 # sty
   1289      1   3  2.100000     8.963214659    25.209333333     4.457462629   0   0   0 # sty
   1290      1   3  2.100000     5.139167839    23.408666667     6.665277090   0   0   0 # sty
   1291      1   1 -0.950000    13.386586238    22.237330000    27.287593006   0   0   0 # ohy
   1292      1   2 -1.050000    12.878963125    25.838663333    25.436909209   0   0   0 # oby
   1293      1   1 -0.950000    11.530035499    24.037996667    26.801865619   0   0   0 # ohy
   1294      1   2 -1.165000    15.333961075    26.380670000    26.163275619   0   0   0 # oby
   1295      1   2 -1.050000    13.985033450    22.779336667    24.798319209   0   0   0 # oby
   1296      1   2 -1.165000    15.841584189    24.580003333    24.312591823   0   0   0 # oby
   1297      1   3  2.100000    13.873210561    21.608000000    25.881816284   0   0   0 # sty
   1298      1   3  1.985000    16.328208511    25.209333333    25.718368545   0   0   0 # sty
   1299      1   3  2.100000     2.684169888    23.408666667     2.413095907   0   0   0 # sty
   1300      1   2 -1.050000    15.841584189    22.237330000    23.035411823   0   0   0 # oby
   1301      1   2 -1.050000    15.333961075    25.838663333    21.184728026   0   0   0 # oby
   1302      1   2 -1.050000    13.985033450    24.037996667    22.549684436   0   0   0 # oby
   1303      1   2 -1.050000    17.788959026    26.380670000    21.911094436   0   0   0 # oby
   1304      1   2 -1.050000    16.440031401    22.779336667    20.546138026   0   0   0 # oby
   1305      1   2 -1.050000    18.296582139    24.580003333    20.060410640   0   0   0 # oby
   1306      1   3  2.100000    16.328208511    21.608000000    21.629635100   0   0   0 # sty
   1307      1   3  2.100000    18.783206462    25.209333333    21.466187362   0   0   0 # sty
   1308      1   3  2.100000    14.959159642    23.408666667    23.674001823   0   0   0 # sty
   1309      1   2 -1.050000    18.296582139    22.237330000    18.783230640   0   0   0 # oby
   1310      1   2 -1.050000    17.788959026    25.838663333    16.932546843   0   0   0 # oby
   1311      1   2 -1.050000    16.440031401    24.037996667    18.297503253   0   0   0 # oby
   1312      1   2 -1.050000    20.243956977    26.380670000    17.658913253   0   0   0 # oby
   1313      1   2 -1.050000    18.895029351    22.779336667    16.293956843   0   0   0 # oby
   1314      1   2 -1.050000    20.751580090    24.580003333    15.808229456   0   0   0 # oby
   1315      1   3  2.100000    18.783206462    21.608000000    17.377453917   0   0   0 # sty
   1316      1   3  2.100000    21.238204413    25.209333333    17.214006179   0   0   0 # sty
   1317      1   3  2.100000    17.414157593    23.408666667    19.421820640   0   0   0 # sty
   1318      1   2 -1.050000    20.751580090    22.237330000    14.531049456   0   0   0 # oby
   1319      1   2 -1.050000    20.243956977    25.838663333    12.680365660   0   0   0 # oby
   1320      1   2 -1.050000    18.895029351    24.037996667    14.045322070   0   0   0 # oby
   1321      1   2 -1.050000    22.698954928    26.380670000    13.406732070   0   0   0 # oby
   1322      1   2 -1.050000    21.350027302    22.779336667    12.041775660   0   0   0 # oby
   1323      1   2 -1.050000    23.206578041    24.580003333    11.556048273   0   0   0 # oby
   1324      1   3  2.100000    21.238204413    21.608000000    13.125272734   0   0   0 # sty
   1325      1   3  2.100000    23.693202364    25.209333333    12.961824995   0   0   0 # sty
   1326      1   3  2.100000    19.869155543    23.408666667    15.169639456   0   0   0 # sty
   1327      1   2 -1.050000    23.206578041    22.237330000    10.278868273   0   0   0 # oby
   1328      1   2 -1.050000    22.698954928    25.838663333     8.428184477   0   0   0 # oby
   1329      1   2 -1.050000    21.350027302    24.037996667     9.793140887   0   0   0 # oby
   1330      1   2 -1.050000     0.603973371    26.380670000     9.154550887   0   0   0 # oby
   1331      1   2 -1.050000    23.805025253    22.779336667     7.789594477   0   0   0 # oby
   1332      1   2 -1.050000     1.111596484    24.580003333     7.303867090   0   0   0 # oby
   1333      1   3  2.100000    23.693202364    21.608000000     8.873091551   0   0   0 # sty
   1334      1   3  2.100000     1.598220807    25.209333333     8.709643812   0   0   0 # sty
   1335      1   3  2.100000    22.324153494    23.408666667    10.917458273   0   0   0 # sty
   1336      1   2 -1.050000     1.111596484    22.237330000     6.026687090   0   0   0 # oby
   1337      1   2 -1.050000     0.603973371    25.838663333     4.176003294   0   0   0 # oby
   1338      1   2 -1.050000    23.805025253    24.037996667     5.540959703   0   0   0 # oby
   1339      1   2 -1.050000     3.058971322    26.380670000     4.902369703   0   0   0 # oby
   1340      1   2 -1.050000     1.710043696    22.779336667     3.537413294   0   0   0 # oby
   1341      1   2 -1.050000     3.566594435    24.580003333     3.051685907   0   0   0 # oby
   1342      1   3  2.100000     1.598220807    21.608000000     4.620910368   0   0   0 # sty
   1343      1   3  2.100000     4.053218758    25.209333333     4.457462629   0   0   0 # sty
   1344      1   3  2.100000     0.229151445    23.408666667     6.665277090   1   0   0 # sty
   1345      1   4  0.425000     7.719832299     1.418776904    27.097353997   0   0   0 # hoy
   1346      1   4  0.425000     2.809836398     1.418776904    27.097353997   0   0   0 # hoy
   1347      1   4  0.425000     1.168565468     2.726390762    27.724390356   0   0   0 # hoy
   1348      1   4  0.425000    22.449820004     1.418776904    27.097353997   0   0   0 # hoy
   1349      1   4  0.425000    17.539824102     1.418776904    27.097353997   0   0   0 # hoy
   1350      1   4  0.425000    15.898553173     2.726390762    27.724390356   0   0   0 # hoy
   1351      1   4  0.425000    12.629828201     1.418776904    27.097353997   0   0   0 # hoy
   1352      1   4  0.425000    10.988557271     2.726390762    27.724390356   0   0   0 # hoy
   1353      1   4  0.425000     7.719832299     6.820776904    27.097353997   0   0   0 # hoy
   1354      1   4  0.425000     6.078561370     8.128390762    27.724390356   0   0   0 # hoy
   1355      1   4  0.425000     2.809836398     6.820776904    27.097353997   0   0   0 # hoy
   1356      1   4  0.425000     1.168565468     8.128390762    27.724390356   0   0   0 # hoy
   1357      1   4  0.425000    22.449820004     6.820776904    27.097353997   0   0   0 # hoy
   1358      1   4  0.425000    20.808549074     8.128390762    27.724390356   0   0   0 # hoy
   1359      1   4  0.425000    17.539824102     6.820776904    27.097353997   0   0   0 # hoy
   1360      1   4  0.425000    15.898553173     8.128390762    27.724390356   0   0   0 # hoy
   1361      1   4  0.425000    12.629828201     6.820776904    27.097353997   0   0   0 # hoy
   1362      1   4  0.425000    10.988557271     8.128390762    27.724390356   0   0   0 # hoy
   1363      1   4  0.425000     7.719832299    12.222776904    27.097353997   0   0   0 # hoy
   1364      1   4  0.425000     6.078561370    13.530390762    27.724390356   0   0   0 # hoy
   1365      1   4  0.425000     2.809836398    12.222776904    27.097353997   0   0   0 # hoy
   1366      1   4  0.425000     1.168565468    13.530390762    27.724390356   0   0   0 # hoy
   1367      1   4  0.425000    22.449820004    12.222776904    27.097353997   0   0   0 # hoy
   1368      1   4  0.425000    17.539824102    12.222776904    27.097353997   0   0   0 # hoy
   1369      1   4  0.425000    15.898553173    13.530390762    27.724390356   0   0   0 # hoy
   1370      1   4  0.425000     7.719832299    17.624776904    27.097353997   0   0   0 # hoy
   1371      1   4  0.425000     6.078561370    18.932390762    27.724390356   0   0   0 # hoy
   1372      1   4  0.425000     2.809836398    17.624776904    27.097353997   0   0   0 # hoy
   1373      1   4  0.425000     1.168565468    18.932390762    27.724390356   0   0   0 # hoy
   1374      1   4  0.425000    22.449820004    17.624776904    27.097353997   0   0   0 # hoy
   1375      1   4  0.425000    20.808549074    18.932390762    27.724390356   0   0   0 # hoy
   1376      1   4  0.425000    17.539824102    17.624776904    27.097353997   0   0   0 # hoy
   1377      1   4  0.425000    15.898553173    18.932390762    27.724390356   0   0   0 # hoy
   1378      1   4  0.425000    12.629828201    17.624776904    27.097353997   0   0   0 # hoy
   1379      1   4  0.425000    10.988557271    18.932390762    27.724390356   0   0   0 # hoy
   1380      1   4  0.425000     7.719832299    23.026776904    27.097353997   0   0   0 # hoy
   1381      1   4  0.425000     6.078561370    24.334390762    27.724390356   0   0   0 # hoy
   1382      1   4  0.425000     2.809836398    23.026776904    27.097353997   0   0   0 # hoy
   1383      1   4  0.425000    22.449820004    23.026776904    27.097353997   0   0   0 # hoy
   1384      1   4  0.425000    20.808549074    24.334390762    27.724390356   0   0   0 # hoy
   1385      1   4  0.425000    17.539824102    23.026776904    27.097353997   0   0   0 # hoy
   1386      1   4  0.425000    12.629828201    23.026776904    27.097353997   0   0   0 # hoy
   1387      1   4  0.425000    10.988557271    24.334390762    27.724390356   0   0   0 # hoy
   1388      1   1 -0.950000    21.475210402     2.369672611     1.261085608   0   0   0 # ohy
   1389      1   1 -0.950000    23.255748649     0.702248870     1.867927420   0   0   0 # ohy
   1390      1   1 -0.950000    16.565214501     2.369672611     1.261085608   0   0   0 # ohy
   1391      1   1 -0.950000    18.345752748     0.702248870     1.867927420   0   0   0 # ohy
   1392      1   1 -0.950000    11.655218599     2.369672611     1.261085608   0   0   0 # ohy
   1393      1   1 -0.950000    13.435756847     0.702248870     1.867927420   0   0   0 # ohy
   1394      1   1 -0.950000     6.745222698     2.369672611     1.261085608   0   0   0 # ohy
   1395      1   1 -0.950000     8.525760945     0.702248870     1.867927420   0   0   0 # ohy
   1396      1   1 -0.950000     1.835226796     2.369672611     1.261085608   0   0   0 # ohy
   1397      1   1 -0.950000     3.615765044     0.702248870     1.867927420   0   0   0 # ohy
   1398      1   1 -0.950000    21.475210402     7.771672611     1.261085608   0   0   0 # ohy
   1399      1   1 -0.950000    23.255748649     6.104248870     1.867927420   0   0   0 # ohy
   1400      1   1 -0.950000    16.565214501     7.771672611     1.261085608   0   0   0 # ohy
   1401      1   1 -0.950000    18.345752748     6.104248870     1.867927420   0   0   0 # ohy
   1402      1   1 -0.950000    11.655218599     7.771672611     1.261085608   0   0   0 # ohy
   1403      1   1 -0.950000    13.435756847     6.104248870     1.867927420   0   0   0 # ohy
   1404      1   1 -0.950000     6.745222698     7.771672611     1.261085608   0   0   0 # ohy
   1405      1   1 -0.950000     8.525760945     6.104248870     1.867927420   0   0   0 # ohy
   1406      1   1 -0.950000     1.835226796     7.771672611     1.261085608   0   0   0 # ohy
   1407      1   1 -0.950000     3.615765044     6.104248870     1.867927420   0   0   0 # ohy
   1408      1   1 -0.950000    21.475210402    13.173672611     1.261085608   0   0   0 # ohy
   1409      1   1 -0.950000    23.255748649    11.506248870     1.867927420   0   0   0 # ohy
   1410      1   1 -0.950000    16.565214501    13.173672611     1.261085608   0   0   0 # ohy
   1411      1   1 -0.950000    18.345752748    11.506248870     1.867927420   0   0   0 # ohy
   1412      1   1 -0.950000    11.655218599    13.173672611     1.261085608   0   0   0 # ohy
   1413      1   1 -0.950000    13.435756847    11.506248870     1.867927420   0   0   0 # ohy
   1414      1   1 -0.950000     6.745222698    13.173672611     1.261085608   0   0   0 # ohy
   1415      1   1 -0.950000     8.525760945    11.506248870     1.867927420   0   0   0 # ohy
   1416      1   1 -0.950000     1.835226796    13.173672611     1.261085608   0   0   0 # ohy
   1417      1   1 -0.950000     3.615765044    11.506248870     1.867927420   0   0   0 # ohy
   1418      1   1 -0.950000    21.475210402    18.575672611     1.261085608   0   0   0 # ohy
   1419      1   1 -0.950000    23.255748649    16.908248870     1.867927420   0   0   0 # ohy
   1420      1   1 -0.950000    16.565214501    18.575672611     1.261085608   0   0   0 # ohy
   1421      1   1 -0.950000    18.345752748    16.908248870     1.867927420   0   0   0 # ohy
   1422      1   1 -0.950000    11.655218599    18.575672611     1.261085608   0   0   0 # ohy
   1423      1   1 -0.950000    13.435756847    16.908248870     1.867927420   0   0   0 # ohy
   1424      1   1 -0.950000     6.745222698    18.575672611     1.261085608   0   0   0 # ohy
   1425      1   1 -0.950000     8.525760945    16.908248870     1.867927420   0   0   0 # ohy
   1426      1   1 -0.950000     1.835226796    18.575672611     1.261085608   0   0   0 # ohy
   1427      1   1 -0.950000     3.615765044    16.908248870     1.867927420   0   0   0 # ohy
   1428      1   1 -0.950000    21.475210402    23.977672611     1.261085608   0   0   0 # ohy
   1429      1   1 -0.950000    23.255748649    22.310248870     1.867927420   0   0   0 # ohy
   1430      1   1 -0.950000    16.565214501    23.977672611     1.261085608   0   0   0 # ohy
   1431      1   1 -0.950000    18.345752748    22.310248870     1.867927420   0   0   0 # ohy
   1432      1   1 -0.950000    11.655218599    23.977672611     1.261085608   0   0   0 # ohy
   1433      1   1 -0.950000    13.435756847    22.310248870     1.867927420   0   0   0 # ohy
   1434      1   1 -0.950000     6.745222698    23.977672611     1.261085608   0   0   0 # ohy
   1435      1   1 -0.950000     8.525760945    22.310248870     1.867927420   0   0   0 # ohy
   1436      1   1 -0.950000     1.835226796    23.977672611     1.261085608   0   0   0 # ohy
   1437      1   1 -0.950000     3.615765044    22.310248870     1.867927420   0   0   0 # ohy
   1438      1   4  0.425000    20.713049969     3.064575484     1.671355630   0   0   0 # hoy
   1439      1   4  0.425000    23.216837209     0.701079586     0.758610263   0   0   0 # hoy
   1440      1   4  0.425000    15.803054067     3.064575484     1.671355630   0   0   0 # hoy
   1441      1   4  0.425000    18.306841307     0.701079586     0.758610263   0   0   0 # hoy
   1442      1   4  0.425000    10.893058166     3.064575484     1.671355630   0   0   0 # hoy
   1443      1   4  0.425000    13.396845406     0.701079586     0.758610263   0   0   0 # hoy
   1444      1   4  0.425000     5.983062264     3.064575484     1.671355630   0   0   0 # hoy
   1445      1   4  0.425000     8.486849504     0.701079586     0.758610263   0   0   0 # hoy
   1446      1   4  0.425000     1.073066363     3.064575484     1.671355630   0   0   0 # hoy
   1447      1   4  0.425000     3.576853603     0.701079586     0.758610263   0   0   0 # hoy
   1448      1   4  0.425000    20.713049969     8.466575484     1.671355630   0   0   0 # hoy
   1449      1   4  0.425000    23.216837209     6.103079586     0.758610263   0   0   0 # hoy
   1450      1   4  0.425000    15.803054067     8.466575484     1.671355630   0   0   0 # hoy
   1451      1   4  0.425000    18.306841307     6.103079586     0.758610263   0   0   0 # hoy
   1452      1   4  0.425000    10.893058166     8.466575484     1.671355630   0   0   0 # hoy
   1453      1   4  0.425000    13.396845406     6.103079586     0.758610263   0   0   0 # hoy
   1454      1   4  0.425000     5.983062264     8.466575484     1.671355630   0   0   0 # hoy
   1455      1   4  0.425000     8.486849504     6.103079586     0.758610263   0   0   0 # hoy
   1456      1   4  0.425000     1.073066363     8.466575484     1.671355630   0   0   0 # hoy
   1457      1   4  0.425000     3.576853603     6.103079586     0.758610263   0   0   0 # hoy
   1458      1   4  0.425000    20.713049969    13.868575484     1.671355630   0   0   0 # hoy
   1459      1   4  0.425000    23.216837209    11.505079586     0.758610263   0   0   0 # hoy
   1460      1   4  0.425000    15.803054067    13.868575484     1.671355630   0   0   0 # hoy
   1461      1   4  0.425000    18.306841307    11.505079586     0.758610263   0   0   0 # hoy
   1462      1   4  0.425000    10.893058166    13.868575484     1.671355630   0   0   0 # hoy
   1463      1   4  0.425000    13.396845406    11.505079586     0.758610263   0   0   0 # hoy
   1464      1   4  0.425000     5.983062264    13.868575484     1.671355630   0   0   0 # hoy
   1465      1   4  0.425000     8.486849504    11.505079586     0.758610263   0   0   0 # hoy
   1466      1   4  0.425000     1.073066363    13.868575484     1.671355630   0   0   0 # hoy
   1467      1   4  0.425000     3.576853603    11.505079586     0.758610263   0   0   0 # hoy
   1468      1   4  0.425000    20.713049969    19.270575484     1.671355630   0   0   0 # hoy
   1469      1   4  0.425000    23.216837209    16.907079586     0.758610263   0   0   0 # hoy
   1470      1   4  0.425000    15.803054067    19.270575484     1.671355630   0   0   0 # hoy
   1471      1   4  0.425000    18.306841307    16.907079586     0.758610263   0   0   0 # hoy
   1472      1   4  0.425000    10.893058166    19.270575484     1.671355630   0   0   0 # hoy
   1473      1   4  0.425000    13.396845406    16.907079586     0.758610263   0   0   0 # hoy
   1474      1   4  0.425000     5.983062264    19.270575484     1.671355630   0   0   0 # hoy
   1475      1   4  0.425000     8.486849504    16.907079586     0.758610263   0   0   0 # hoy
   1476      1   4  0.425000     1.073066363    19.270575484     1.671355630   0   0   0 # hoy
   1477      1   4  0.425000     3.576853603    16.907079586     0.758610263   0   0   0 # hoy
   1478      1   4  0.425000    20.713049969    24.672575484     1.671355630   0   0   0 # hoy
   1479      1   4  0.425000    23.216837209    22.309079586     0.758610263   0   0   0 # hoy
   1480      1   4  0.425000    15.803054067    24.672575484     1.671355630   0   0   0 # hoy
   1481      1   4  0.425000    18.306841307    22.309079586     0.758610263   0   0   0 # hoy
   1482      1   4  0.425000    10.893058166    24.672575484     1.671355630   0   0   0 # hoy
   1483      1   4  0.425000    13.396845406    22.309079586     0.758610263   0   0   0 # hoy
   1484      1   4  0.425000     5.983062264    24.672575484     1.671355630   0   0   0 # hoy
   1485      1   4  0.425000     8.486849504    22.309079586     0.758610263   0   0   0 # hoy
   1486      1   4  0.425000     1.073066363    24.672575484     1.671355630   0   0   0 # hoy
   1487      1   4  0.425000     3.576853603    22.309079586     0.758610263   0   0   0 # hoy
   1488      1   4  0.425000    14.266487287    11.814538674    27.846658398   0   0   0 # hoy
   1489      1   1 -1.065000     6.620039598     2.429996667    26.801865619   0   0   0 # ohy
   1490      1   1 -1.065000    21.350027302     2.429996667    26.801865619   0   0   0 # ohy
   1491      1   1 -1.065000    21.350027302    13.233996667    26.801865619   0   0   0 # ohy
   1492      1   1 -1.065000     1.710043696    24.037996667    26.801865619   0   0   0 # ohy
   1493      1   1 -1.065000    16.440031401    24.037996667    26.801865619   0   0   0 # ohy
   1494      1   1 -1.065000    11.530035499    13.233996667    26.801865619   0   0   0 # ohy

Bonds

     1   1      1   1345
     2   1     54   1346
     3   1     56   1347
     4   1    108   1348
     5   1    161   1349
     6   1    163   1350
     7   1    215   1351
     8   1    217   1352
     9   1    269   1353
    10   1    271   1354
    11   1    323   1355
    12   1    325   1356
    13   1    377   1357
    14   1    379   1358
    15   1    431   1359
    16   1    433   1360
    17   1    485   1361
    18   1    487   1362
    19   1    539   1363
    20   1    541   1364
    21   1    593   1365
    22   1    595   1366
    23   1    647   1367
    24   1    700   1368
    25   1    702   1369
    26   1    754   1488
    27   1    807   1370
    28   1    809   1371
    29   1    861   1372
    30   1    863   1373
    31   1    915   1374
    32   1    917   1375
    33   1    969   1376
    34   1    971   1377
    35   1   1023   1378
    36   1   1025   1379
    37   1   1077   1380
    38   1   1079   1381
    39   1   1131   1382
    40   1   1184   1383
    41   1   1186   1384
    42   1   1238   1385
    43   1   1291   1386
    44   1   1293   1387
    45   1   1388   1438
    46   1   1389   1439
    47   1   1390   1440
    48   1   1391   1441
    49   1   1392   1442
    50   1   1393   1443
    51   1   1394   1444
    52   1   1395   1445
    53   1   1396   1446
    54   1   1397   1447
    55   1   1398   1448
    56   1   1399   1449
    57   1   1400   1450
    58   1   1401   1451
    59   1   1402   1452
    60   1   1403   1453
    61   1   1404   1454
    62   1   1405   1455
    63   1   1406   1456
    64   1   1407   1457
    65   1   1408   1458
    66   1   1409   1459
    67   1   1410   1460
    68   1   1411   1461
    69   1   1412   1462
    70   1   1413   1463
    71   1   1414   1464
    72   1   1415   1465
    73   1   1416   1466
    74   1   1417   1467
    75   1   1418   1468
    76   1   1419   1469
    77   1   1420   1470
    78   1   1421   1471
    79   1   1422   1472
    80   1   1423   1473
    81   1   1424   1474
    82   1   1425   1475
    83   1   1426   1476
    84   1   1427   1477
    85   1   1428   1478
    86   1   1429   1479
    87   1   1430   1480
    88   1   1431   1481
    89   1   1432   1482
    90   1   1433   1483
    91   1   1434   1484
    92   1   1435   1485
    93   1   1436   1486
    94   1   1437   1487

Angles

     1   1      6      1   1345
     2   1     60     54   1346
     3   1    114     56   1347
     4   1    113    108   1348
     5   1    167    161   1349
     6   1    222    163   1350
     7   1    221    215   1351
     8   1      7    217   1352
     9   1    275    269   1353
    10   1    330    271   1354
    11   1    329    323   1355
    12   1    384    325   1356
    13   1    383    377   1357
    14   1    438    379   1358
    15   1    437    431   1359
    16   1    492    433   1360
    17   1    491    485   1361
    18   1    276    487   1362
    19   1    545    539   1363
    20   1    600    541   1364
    21   1    599    593   1365
    22   1    653    595   1366
    23   1    652    647   1367
    24   1    706    700   1368
    25   1    760    702   1369
    26   1    759    754   1488
    27   1    813    807   1370
    28   1    868    809   1371
    29   1    867    861   1372
    30   1    922    863   1373
    31   1    921    915   1374
    32   1    976    917   1375
    33   1    975    969   1376
    34   1   1030    971   1377
    35   1   1029   1023   1378
    36   1    814   1025   1379
    37   1   1083   1077   1380
    38   1   1137   1079   1381
    39   1   1136   1131   1382
    40   1   1190   1184   1383
    41   1   1244   1186   1384
    42   1   1243   1238   1385
    43   1   1297   1291   1386
    44   1   1084   1293   1387
    45   1      8   1388   1438
    46   1      8   1389   1439
    47   1     62   1390   1440
    48   1     62   1391   1441
    49   1    115   1392   1442
    50   1    115   1393   1443
    51   1    169   1394   1444
    52   1    169   1395   1445
    53   1    223   1396   1446
    54   1    223   1397   1447
    55   1    277   1398   1448
    56   1    277   1399   1449
    57   1    331   1400   1450
    58   1    331   1401   1451
    59   1    385   1402   1452
    60   1    385   1403   1453
    61   1    439   1404   1454
    62   1    439   1405   1455
    63   1    493   1406   1456
    64   1    493   1407   1457
    65   1    547   1408   1458
    66   1    547   1409   1459
    67   1    601   1410   1460
    68   1    601   1411   1461
    69   1    654   1412   1462
    70   1    654   1413   1463
    71   1    708   1414   1464
    72   1    708   1415   1465
    73   1    761   1416   1466
    74   1    761   1417   1467
    75   1    815   1418   1468
    76   1    815   1419   1469
    77   1    869   1420   1470
    78   1    869   1421   1471
    79   1    923   1422   1472
    80   1    923   1423   1473
    81   1    977   1424   1474
    82   1    977   1425   1475
    83   1   1031   1426   1476
    84   1   1031   1427   1477
    85   1   1085   1428   1478
    86   1   1085   1429   1479
    87   1   1138   1430   1480
    88   1   1138   1431   1481
    89   1   1192   1432   1482
    90   1   1192   1433   1483
    91   1   1245   1434   1484
    92   1   1245   1435   1485
    93   1   1299   1436   1486
    94   1   1299   1437   1487
