LAMMPS data file for qtz100a-unitcell

     60 atoms
   4 bonds
   4 angles
      0 dihedrals
      0 impropers

   4 atom types
   1 bond types
   1 angle types

     6.794440736    11.704440736 xlo xhi
    -0.357154263     5.044845737 ylo yhi
   -76.999421436   105.955378564 zlo zhi

Masses

   1  15.999400 # ohy
   2  15.999400 # oby
   3  28.085500 # sty
   4   1.007940 # hoy

Pair Coeffs # lj/cut/coul/long

   1   0.1554000000   3.1655413253 # ohy
   2   0.1554000000   3.1655413253 # oby
   3   0.0000018405   3.3020269922 # sty
   4   0.0000000000   0.0000000000 # hoy

Bond Coeffs # harmonic

   1   554.1348     1.0000 # ohy-hoy

Angle Coeffs # harmonic

   1    30.0000   109.4700 # sty-ohy-hoy

Atoms # full

      1      1   1 -0.950000    11.486927704     0.629330000     1.636797398   1   0   0 # ohy
      2      1   2 -1.050000     7.084550818     4.230663333     3.487481195   2   0   0 # oby
      3      1   1 -0.950000     8.433478443     2.429996667     2.122524785   2   0   0 # ohy
      4      1   2 -1.050000     9.539552867     4.772670000     2.761114785   1   0   0 # oby
      5      1   2 -1.050000    10.888480493     1.171336667     4.126071195   1   0   0 # oby
      6      1   2 -1.050000     9.031929754     2.972003333     4.611798581   1   0   0 # oby
      7      1   3  2.100000    11.000303382    -0.000000000     3.042574120   1   0   0 # sty
      8      1   3  2.100000     8.545305431     3.601333333     3.206021859   1   0   0 # sty
      9      1   3  2.100000     7.459364547     1.800666667    26.511294497  -1   0   0 # sty
     10      1   2 -1.050000     9.031929754     0.629330000     5.888978581   1   0   0 # oby
     11      1   2 -1.050000     9.539552867     4.230663333     7.739662378   1   0   0 # oby
     12      1   2 -1.050000    10.888480493     2.429996667     6.374705968   1   0   0 # oby
     13      1   2 -1.050000     7.084554916     4.772670000     7.013295968   1   0   0 # oby
     14      1   2 -1.050000     8.433482542     1.171336667     8.378252378   1   0   0 # oby
     15      1   2 -1.050000    11.486931803     2.972003333     8.863979764   0   0   0 # oby
     16      1   3  2.100000     8.545305431    -0.000000000     7.294755303   1   0   0 # sty
     17      1   3  2.100000    11.000307480     3.601333333     7.458203042   0   0   0 # sty
     18      1   3  2.100000     9.914354300     1.800666667     5.250388581   1   0   0 # sty
     19      1   2 -1.050000    11.486931803     0.629330000    10.141159764   0   0   0 # oby
     20      1   2 -1.050000     7.084554916     4.230663333    11.991843561   1   0   0 # oby
     21      1   2 -1.050000     8.433482542     2.429996667    10.626887151   1   0   0 # oby
     22      1   2 -1.050000     9.539556966     4.772670000    11.265477151   0   0   0 # oby
     23      1   2 -1.050000    10.888484591     1.171336667    12.630433561   0   0   0 # oby
     24      1   2 -1.050000     9.031933852     2.972003333    13.116160948   0   0   0 # oby
     25      1   3  2.100000    11.000307480    -0.000000000    11.546936487   0   0   0 # sty
     26      1   3  2.100000     8.545309530     3.601333333    11.710384225   0   0   0 # sty
     27      1   3  2.100000     7.459356350     1.800666667     9.502569764   1   0   0 # sty
     28      1   2 -1.050000     9.031933852     0.629330000    14.393340948   0   0   0 # oby
     29      1   2 -1.050000     9.539556966     4.230663333    16.244024744   0   0   0 # oby
     30      1   2 -1.050000    10.888484591     2.429996667    14.879068334   0   0   0 # oby
     31      1   2 -1.050000     7.084559015     4.772670000    15.517658334   0   0   0 # oby
     32      1   2 -1.050000     8.433486640     1.171336667    16.882614744   0   0   0 # oby
     33      1   2 -1.050000    11.486935901     2.972003333    17.368342131  -1   0   0 # oby
     34      1   3  2.100000     8.545309530    -0.000000000    15.799117670   0   0   0 # sty
     35      1   3  2.100000    11.000311579     3.601333333    15.962565409  -1   0   0 # sty
     36      1   3  2.100000     9.914358399     1.800666667    13.754750948   0   0   0 # sty
     37      1   2 -1.050000    11.486935901     0.629330000    18.645522131  -1   0   0 # oby
     38      1   2 -1.050000     7.084559015     4.230663333    20.496205927   0   0   0 # oby
     39      1   2 -1.050000     8.433486640     2.429996667    19.131249517   0   0   0 # oby
     40      1   2 -1.050000     9.539561064     4.772670000    19.769839517  -1   0   0 # oby
     41      1   2 -1.050000    10.888488690     1.171336667    21.134795927  -1   0   0 # oby
     42      1   2 -1.050000     9.031937951     2.972003333    21.620523314  -1   0   0 # oby
     43      1   3  2.100000    11.000311579    -0.000000000    20.051298853  -1   0   0 # sty
     44      1   3  2.100000     8.545313628     3.601333333    20.214746592  -1   0   0 # sty
     45      1   3  2.100000     7.459360448     1.800666667    18.006932131   0   0   0 # sty
     46      1   2 -1.050000     9.031937951     0.629330000    22.897703314  -1   0   0 # oby
     47      1   2 -1.050000     9.539561064     4.230663333    24.748387110  -1   0   0 # oby
     48      1   2 -1.050000    10.888488690     2.429996667    23.383430700  -1   0   0 # oby
     49      1   2 -1.050000     7.084563113     4.772670000    24.022020700  -1   0   0 # oby
     50      1   2 -1.050000     8.433490739     1.171336667    25.386977110  -1   0   0 # oby
     51      1   2 -1.050000    11.486940000     2.972003333    25.872704497  -2   0   0 # oby
     52      1   3  2.100000     8.545313628    -0.000000000    24.303480036  -1   0   0 # sty
     53      1   3  2.100000    11.000315677     3.601333333    24.466927775  -2   0   0 # sty
     54      1   3  2.100000     9.914362497     1.800666667    22.259113314  -1   0   0 # sty
     55      1   4  0.425000     7.333685742     1.418776904     1.827036406   2   0   0 # hoy
     56      1   4  0.425000     8.974956671     2.726390762     1.200000048   2   0   0 # hoy
     57      1   1 -0.950000     8.308307639     2.369672611    27.663304796  -1   0   0 # ohy
     58      1   1 -0.950000    11.437769391     0.702248870    27.056462984  -2   0   0 # ohy
     59      1   4  0.425000     9.070468072     3.064575484    27.253034774  -1   0   0 # hoy
     60      1   4  0.425000    11.476680832     0.701079586    28.165780141  -2   0   0 # hoy

Bonds

     1   1      1     55
     2   1      3     56
     3   1     57     59
     4   1     58     60

Angles

     1   1      7      1     55
     2   1      8      3     56
     3   1      9     57     59
     4   1      9     58     60
