LAMMPS data file for qtz100b-unitcell

     60 atoms
   4 bonds
   4 angles
      0 dihedrals
      0 impropers

   4 atom types
   1 bond types
   1 angle types

    13.169077305    18.079077305 xlo xhi
    -0.357154263     5.044845737 ylo yhi
   -77.030988161   105.923811840 zlo zhi

Masses

   1  15.999400 # ohy
   2  15.999400 # oby
   3  28.085500 # sty
   4   1.007940 # hoy

Pair Coeffs # lj/cut/coul/long

   1   0.1554000000   3.1655413253 # ohy
   2   0.1554000000   3.1655413253 # oby
   3   0.0000018405   3.3020269922 # sty
   4   0.0000000000   0.0000000000 # hoy

Bond Coeffs # harmonic

   1   554.1348     1.0000 # ohy-hoy

Angle Coeffs # harmonic

   1    30.0000   109.4700 # sty-ohy-hoy

Atoms # full

      1      1   1 -0.950000    13.386590337     0.629330000    27.287593006  -1   0   0 # ohy
      2      1   2 -1.050000    17.788967223     4.230663333    25.436909209  -2   0   0 # oby
      3      1   1 -0.950000    16.440039598     2.429996667    26.801865619  -2   0   0 # ohy
      4      1   2 -1.050000    15.333965174     4.772670000    26.163275619  -1   0   0 # oby
      5      1   2 -1.050000    13.985037548     1.171336667    24.798319209  -1   0   0 # oby
      6      1   2 -1.050000    15.841588287     2.972003333    24.312591823  -1   0   0 # oby
      7      1   3  2.100000    13.873214659    -0.000000000    25.881816284  -1   0   0 # sty
      8      1   3  2.100000    16.328212610     3.601333333    25.718368545  -1   0   0 # sty
      9      1   3  2.100000    17.414153494     1.800666667     2.413095907   1   0   0 # sty
     10      1   2 -1.050000    15.841588287     0.629330000    23.035411823  -1   0   0 # oby
     11      1   2 -1.050000    15.333965174     4.230663333    21.184728026  -1   0   0 # oby
     12      1   2 -1.050000    13.985037548     2.429996667    22.549684436  -1   0   0 # oby
     13      1   2 -1.050000    17.788963125     4.772670000    21.911094436  -1   0   0 # oby
     14      1   2 -1.050000    16.440035499     1.171336667    20.546138026  -1   0   0 # oby
     15      1   2 -1.050000    13.386586238     2.972003333    20.060410640   0   0   0 # oby
     16      1   3  2.100000    16.328212610    -0.000000000    21.629635100  -1   0   0 # sty
     17      1   3  2.100000    13.873210561     3.601333333    21.466187362   0   0   0 # sty
     18      1   3  2.100000    14.959163741     1.800666667    23.674001823  -1   0   0 # sty
     19      1   2 -1.050000    13.386586238     0.629330000    18.783230640   0   0   0 # oby
     20      1   2 -1.050000    17.788963125     4.230663333    16.932546843  -1   0   0 # oby
     21      1   2 -1.050000    16.440035499     2.429996667    18.297503253  -1   0   0 # oby
     22      1   2 -1.050000    15.333961075     4.772670000    17.658913253   0   0   0 # oby
     23      1   2 -1.050000    13.985033450     1.171336667    16.293956843   0   0   0 # oby
     24      1   2 -1.050000    15.841584189     2.972003333    15.808229456   0   0   0 # oby
     25      1   3  2.100000    13.873210561    -0.000000000    17.377453917   0   0   0 # sty
     26      1   3  2.100000    16.328208511     3.601333333    17.214006179   0   0   0 # sty
     27      1   3  2.100000    17.414161691     1.800666667    19.421820640  -1   0   0 # sty
     28      1   2 -1.050000    15.841584189     0.629330000    14.531049456   0   0   0 # oby
     29      1   2 -1.050000    15.333961075     4.230663333    12.680365660   0   0   0 # oby
     30      1   2 -1.050000    13.985033450     2.429996667    14.045322070   0   0   0 # oby
     31      1   2 -1.050000    17.788959026     4.772670000    13.406732070   0   0   0 # oby
     32      1   2 -1.050000    16.440031401     1.171336667    12.041775660   0   0   0 # oby
     33      1   2 -1.050000    13.386582139     2.972003333    11.556048273   1   0   0 # oby
     34      1   3  2.100000    16.328208511    -0.000000000    13.125272734   0   0   0 # sty
     35      1   3  2.100000    13.873206462     3.601333333    12.961824995   1   0   0 # sty
     36      1   3  2.100000    14.959159642     1.800666667    15.169639456   0   0   0 # sty
     37      1   2 -1.050000    13.386582139     0.629330000    10.278868273   1   0   0 # oby
     38      1   2 -1.050000    17.788959026     4.230663333     8.428184477   0   0   0 # oby
     39      1   2 -1.050000    16.440031401     2.429996667     9.793140887   0   0   0 # oby
     40      1   2 -1.050000    15.333956977     4.772670000     9.154550887   1   0   0 # oby
     41      1   2 -1.050000    13.985029351     1.171336667     7.789594477   1   0   0 # oby
     42      1   2 -1.050000    15.841580090     2.972003333     7.303867090   1   0   0 # oby
     43      1   3  2.100000    13.873206462    -0.000000000     8.873091551   1   0   0 # sty
     44      1   3  2.100000    16.328204413     3.601333333     8.709643812   1   0   0 # sty
     45      1   3  2.100000    17.414157593     1.800666667    10.917458273   0   0   0 # sty
     46      1   2 -1.050000    15.841580090     0.629330000     6.026687090   1   0   0 # oby
     47      1   2 -1.050000    15.333956977     4.230663333     4.176003294   1   0   0 # oby
     48      1   2 -1.050000    13.985029351     2.429996667     5.540959703   1   0   0 # oby
     49      1   2 -1.050000    17.788954928     4.772670000     4.902369703   1   0   0 # oby
     50      1   2 -1.050000    16.440027302     1.171336667     3.537413294   1   0   0 # oby
     51      1   2 -1.050000    13.386578041     2.972003333     3.051685907   2   0   0 # oby
     52      1   3  2.100000    16.328204413    -0.000000000     4.620910368   1   0   0 # sty
     53      1   3  2.100000    13.873202364     3.601333333     4.457462629   2   0   0 # sty
     54      1   3  2.100000    14.959155543     1.800666667     6.665277090   1   0   0 # sty
     55      1   4  0.425000    17.539832299     1.418776904    27.097353997  -2   0   0 # hoy
     56      1   4  0.425000    15.898561370     2.726390762    27.724390356  -2   0   0 # hoy
     57      1   1 -0.950000    16.565210402     2.369672611     1.261085608   1   0   0 # ohy
     58      1   1 -0.950000    13.435748649     0.702248870     1.867927420   2   0   0 # ohy
     59      1   4  0.425000    15.803049969     3.064575484     1.671355630   1   0   0 # hoy
     60      1   4  0.425000    13.396837209     0.701079586     0.758610263   2   0   0 # hoy

Bonds

     1   1      1     55
     2   1      3     56
     3   1     57     59
     4   1     58     60

Angles

     1   1      7      1     55
     2   1      8      3     56
     3   1      9     57     59
     4   1      9     58     60
